108
#Comment!
LJ          -2.92925        -2.92925        -2.92925
LJ         -0.725781       -0.725757         -3.4735
LJ          -3.47351        -0.72577       -0.725774
LJ         -0.725789        -3.47347       -0.725779
LJ         -0.402394        -2.45399        -2.45401
LJ          0.822817       -0.651536        -3.50196
LJ         -0.429494        -1.65538        -1.65542
LJ          0.822814        -3.50198       -0.651536
LJ          0.617087        -2.49171        -2.49172
LJ           1.87121          0.6048       -0.674648
LJ          0.918807         5.08237         5.08237
LJ            1.8712        -0.67464        0.604758
LJ          -2.45393       -0.402387        -2.45394
LJ         -0.651531         0.82283          -3.502
LJ          -3.50197        0.822811       -0.651515
LJ          -1.65533       -0.429435         -1.6553
LJ         -0.761902       -0.761845        -2.30998
LJ        -0.0933919      -0.0932803        -1.46655
LJ          -1.45845       -0.152821        -2.87657
LJ         -0.152923        -1.45847        -2.87656
LJ           1.22882       0.0967826        -2.68842
LJ            1.5463       -0.970242        -2.29063
LJ          0.543966       -0.831232        -2.24023
LJ           3.50565        -1.51357        -2.49118
LJ          -2.49172        0.617105        -2.49171
LJ          0.604773         1.87117       -0.674659
LJ          -0.67466         1.87117        0.604754
LJ           5.08237        0.918807         5.08237
LJ         0.0968243         1.22883         -2.6885
LJ           -0.9702         1.54633        -2.29065
LJ          -1.51359         3.50572        -2.49119
LJ         -0.831307         0.54394        -2.24029
LJ          0.168844        0.168829        -2.57138
LJ           1.13935         1.13937        -2.50908
LJ        0.00171651         2.19777        -2.11721
LJ           2.19779      0.00168884         -2.1172
LJ          -2.45393        -2.45392         -0.4024
LJ          -1.65529        -1.65528       -0.429303
LJ          -3.50201       -0.651499        0.822842
LJ         -0.651551          -3.502        0.822792
LJ         -0.761911        -2.30998       -0.761902
LJ         -0.152871        -2.87659        -1.45848
LJ          -1.45846        -2.87656       -0.152838
LJ        -0.0933964        -1.46663      -0.0933806
LJ           1.22883        -2.68844        0.096788
LJ           3.50568        -2.49122        -1.51365
LJ          0.544014        -2.24026       -0.831231
LJ           1.54642        -2.29064       -0.970145
LJ          -2.30999       -0.761883       -0.761887
LJ          -2.87656       -0.152877        -1.45847
LJ          -1.46645       -0.093234      -0.0933116
LJ          -2.87657        -1.45847       -0.152876
LJ         -0.968342       -0.968347       -0.968347
LJ          0.830236        0.830231       -0.863241
LJ         -0.863277        0.830233        0.830224
LJ          0.830236       -0.863207        0.830242
LJ          0.372731       -0.878223       -0.878246
LJ          0.990809       0.0731482        -1.69727
LJ           1.44576       -0.940504       -0.940454
LJ          0.990776         -1.6973       0.0732228
LJ          -2.68847         1.22881       0.0968387
LJ          -2.49117         3.50569        -1.51358
LJ          -2.29068         1.54633       -0.970224
LJ          -2.24029        0.543949       -0.831296
LJ         -0.878682        0.372583       -0.878667
LJ         0.0730956        0.990805        -1.69732
LJ          -1.69728        0.990848       0.0730471
LJ         -0.940356         1.44578       -0.940392
LJ           1.96285         1.96288         1.10676
LJ            1.5115          1.5115       -0.311142
LJ          0.708696         1.83941         -3.0931
LJ           1.83938        0.708665        -3.09307
LJ          -2.49175        -2.49173        0.617076
LJ           5.08237         5.08237        0.918807
LJ          -0.67464        0.604765         1.87121
LJ          0.604755       -0.674658         1.87116
LJ         0.0967611        -2.68848         1.22886
LJ         -0.831281        -2.24027        0.543981
LJ          -1.51364        -2.49122         3.50573
LJ         -0.970172         -2.2906         1.54642
LJ          0.168866        -2.57143        0.168859
LJ           2.19781        -2.11721      0.00174566
LJ        0.00175261         -2.1172         2.19782
LJ           1.13938        -2.50909         1.13938
LJ          -2.68845       0.0967923         1.22879
LJ          -2.24021       -0.831288        0.543959
LJ          -2.29066       -0.970262          1.5463
LJ          -2.49115        -1.51357         3.50564
LJ         -0.878519       -0.878502        0.372626
LJ         -0.940395       -0.940431         1.44571
LJ          -1.69729       0.0730982        0.990823
LJ         0.0731956        -1.69733        0.990751
LJ           1.96282         1.10673         1.96284
LJ           1.83941         -3.0931        0.708663
LJ          0.708686        -3.09311         1.83941
LJ           1.51152       -0.311136         1.51149
LJ          -2.57134         0.16877         0.16883
LJ          -2.11719         2.19778      0.00170426
LJ          -2.50908         1.13936         1.13934
LJ          -2.11721      0.00167599         2.19775
LJ           1.10677          1.9629         1.96286
LJ          -3.09308         1.83941        0.708669
LJ         -0.311133         1.51148         1.51149
LJ          -3.09305        0.708662         1.83939
LJ           5.28135         5.28135         5.28135
LJ           1.35642         1.35642        -1.49124
LJ          -1.49125         1.35642         1.35643
LJ           1.35642        -1.49125         1.35641
