108
#Comment!
LJ            -1.701          -1.701          -1.701
LJ          -2.00881        -2.00881        -3.33876
LJ          -3.33876        -2.00881        -2.00881
LJ          -2.00881        -3.33876        -2.00881
LJ          -1.86346         -3.0829         -3.0829
LJ          0.120953        -2.37832        -3.88385
LJ          -1.00355          -2.305          -2.305
LJ          0.120953        -3.88385        -2.37832
LJ          0.640353        -2.87415        -2.87415
LJ           1.79531        -1.71768        -2.87198
LJ          0.985094        -2.06517        -2.06517
LJ           1.79531        -2.87198        -1.71768
LJ           -3.0829        -1.86346         -3.0829
LJ          -2.37832        0.120953        -3.88385
LJ          -3.88385        0.120953        -2.37832
LJ            -2.305        -1.00355          -2.305
LJ         -0.943009       -0.943009        -2.62524
LJ         -0.137163       -0.137163        -2.62644
LJ          -1.00719       -0.071648        -1.84633
LJ         -0.071648        -1.00719        -1.84633
LJ           1.30219        -1.19805         -3.8827
LJ           2.00669        0.786104        -3.08324
LJ           1.22952      -0.0739155        -2.30695
LJ           2.80583        -1.19785        -2.37812
LJ          -2.87415        0.640353        -2.87415
LJ          -1.71768         1.79531        -2.87198
LJ          -2.87198         1.79531        -1.71768
LJ          -2.06517        0.985094        -2.06517
LJ          -1.19805         1.30219         -3.8827
LJ          0.786104         2.00669        -3.08324
LJ          -1.19785         2.80583        -2.37812
LJ        -0.0739155         1.22952        -2.30695
LJ          0.933279        0.933279        -3.34019
LJ          0.625325        0.625325        -1.70212
LJ          0.933051         2.26273        -2.00968
LJ           2.26273        0.933051        -2.00968
LJ           -3.0829         -3.0829        -1.86346
LJ            -2.305          -2.305        -1.00355
LJ          -3.88385        -2.37832        0.120953
LJ          -2.37832        -3.88385        0.120953
LJ         -0.943009        -2.62524       -0.943009
LJ         -0.071648        -1.84633        -1.00719
LJ          -1.00719        -1.84633       -0.071648
LJ         -0.137163        -2.62644       -0.137163
LJ           1.30219         -3.8827        -1.19805
LJ           2.80583        -2.37812        -1.19785
LJ           1.22952        -2.30695      -0.0739155
LJ           2.00669        -3.08324        0.786104
LJ          -2.62524       -0.943009       -0.943009
LJ          -1.84633       -0.071648        -1.00719
LJ          -2.62644       -0.137163       -0.137163
LJ          -1.84633        -1.00719       -0.071648
LJ         -0.976836       -0.976836       -0.976836
LJ         -0.100654       -0.100654       -0.975913
LJ         -0.975913       -0.100654       -0.100654
LJ         -0.100654       -0.975913       -0.100654
LJ          0.766661        -1.00714        -1.00714
LJ           1.54814       -0.135072       -0.941223
LJ          0.768826      -0.0708745      -0.0708745
LJ           1.54814       -0.941223       -0.135072
LJ           -3.8827         1.30219        -1.19805
LJ          -2.37812         2.80583        -1.19785
LJ          -3.08324         2.00669        0.786104
LJ          -2.30695         1.22952      -0.0739155
LJ          -1.00714        0.766661        -1.00714
LJ         -0.135072         1.54814       -0.941223
LJ         -0.941223         1.54814       -0.135072
LJ        -0.0708745        0.768826      -0.0708745
LJ           1.22943         1.22943        -1.00358
LJ           2.00688         2.00688        -1.86362
LJ           1.30162         2.80634        0.120601
LJ           2.80634         1.30162        0.120601
LJ          -2.87415        -2.87415        0.640353
LJ          -2.06517        -2.06517        0.985094
LJ          -2.87198        -1.71768         1.79531
LJ          -1.71768        -2.87198         1.79531
LJ          -1.19805         -3.8827         1.30219
LJ        -0.0739155        -2.30695         1.22952
LJ          -1.19785        -2.37812         2.80583
LJ          0.786104        -3.08324         2.00669
LJ          0.933279        -3.34019        0.933279
LJ           2.26273        -2.00968        0.933051
LJ          0.933051        -2.00968         2.26273
LJ          0.625325        -1.70212        0.625325
LJ           -3.8827        -1.19805         1.30219
LJ          -2.30695      -0.0739155         1.22952
LJ          -3.08324        0.786104         2.00669
LJ          -2.37812        -1.19785         2.80583
LJ          -1.00714        -1.00714        0.766661
LJ        -0.0708745      -0.0708745        0.768826
LJ         -0.941223       -0.135072         1.54814
LJ         -0.135072       -0.941223         1.54814
LJ           1.22943        -1.00358         1.22943
LJ           2.80634        0.120601         1.30162
LJ           1.30162        0.120601         2.80634
LJ           2.00688        -1.86362         2.00688
LJ          -3.34019        0.933279        0.933279
LJ          -2.00968         2.26273        0.933051
LJ          -1.70212        0.625325        0.625325
LJ          -2.00968        0.933051         2.26273
LJ          -1.00358         1.22943         1.22943
LJ          0.120601         2.80634         1.30162
LJ          -1.86362         2.00688         2.00688
LJ          0.120601         1.30162         2.80634
LJ          0.987296        0.987296        0.987296
LJ           1.79586         1.79586        0.640368
LJ          0.640368         1.79586         1.79586
LJ           1.79586        0.640368         1.79586
