108
#Comment!
LJ           1.30157        -1.30708        0.753465
LJ           3.10466        -1.60893         2.79332
LJ          -2.20279        0.197942         1.07668
LJ          -0.97764         5.30816        0.279134
LJ           1.88652        -1.59102      -0.0230973
LJ           2.24183         1.68004        -1.68314
LJ           1.54017       -0.102047         1.54007
LJ           2.54058        0.383085        0.148832
LJ           2.31921        -1.73978         1.06134
LJ         0.0452601        -1.33599        -2.09706
LJ         -0.974999         2.74657       0.0581058
LJ           1.72925         1.71268         1.25349
LJ         -0.806936        -3.26057       -0.132338
LJ            2.1705       -0.311691        -1.12178
LJ          -2.38832        0.943579         2.37412
LJ          0.461319         1.51213         1.96183
LJ          0.594326      -0.0849973        -2.68161
LJ        -0.0326671        0.105646        0.592436
LJ         -0.594365         1.66968         1.83374
LJ         -0.689014       -0.690959       -0.716059
LJ          0.982355        -2.53832       -0.798713
LJ           1.51886       0.0441358       -0.392295
LJ           1.44737          1.0291        -2.16234
LJ           4.34263         5.51419         0.27194
LJ          -0.62687         4.35057          6.3805
LJ          -1.94966         2.83163        0.907824
LJ          -3.44336         4.36039       0.0354019
LJ          -2.72187         5.15385        -5.28087
LJ           1.29977         1.53288         2.65199
LJ          -5.80118          2.6072         3.45888
LJ          -1.15316        0.168835         1.14746
LJ         -0.216449         -2.2345        -4.44925
LJ         0.0617526       -0.262705        -1.49587
LJ           0.23689         -1.4368       -0.796164
LJ          -1.06035         1.75129        0.536898
LJ        -0.0900973        -2.45521       -0.420955
LJ          -1.14382        -2.20804       -0.334456
LJ          0.268721          1.0491         -2.1694
LJ          -1.48163        0.992933         1.63155
LJ            1.6201        0.753631         0.64692
LJ           2.08072        -0.70718        0.423735
LJ           1.02339        -2.39534          0.7713
LJ          -1.37708        -1.25443       0.0563934
LJ         -0.790282       -0.958399        0.913479
LJ          0.352219       -0.447551         2.53911
LJ           4.08712         -3.3178         1.22122
LJ          0.608849        -1.79896       0.0541591
LJ           3.07265        -0.32328       -0.363346
LJ          -0.95831       -0.226425        0.243373
LJ           -2.4589         1.46566         1.08619
LJ           -1.0986       -0.429155         2.02569
LJ          -1.60541         1.27704       -0.641364
LJ           -0.7879        -3.73349        0.953964
LJ         -0.728647         1.99683       -0.600849
LJ          0.694303         1.43856         0.87917
LJ           2.34257         1.49585       0.0874442
LJ           1.00994       -0.905277       -0.262248
LJ          0.292149       -0.089109       -0.545236
LJ            1.2355        -1.48495        -1.12496
LJ           3.04542       -0.688364        -1.63796
LJ          -0.98905         0.46177        -1.00851
LJ          -2.66957         1.78557        -2.74787
LJ          -1.93588      -0.0840864       -0.289048
LJ          -1.25709       -0.783466        -1.54322
LJ         -0.024093         1.74558        0.198073
LJ         -0.106222         1.02086        -1.08179
LJ         -0.361972        0.357596          3.4307
LJ          0.996034         2.30975       -0.120797
LJ           6.26308        -4.66354         2.80434
LJ         -0.252853           1.084         1.02746
LJ          -4.82066       -0.110987         5.11156
LJ           1.85084        0.316181         2.66228
LJ          0.998124      -0.0983191        0.475683
LJ         -0.112348         2.50876         1.52786
LJ           -1.3732          2.2216         1.62068
LJ         -0.155284         1.60962         4.11795
LJ          0.107441         -1.4002         1.12721
LJ        -0.0849584       -0.979541        0.207673
LJ           1.75414        -3.90283        -6.44907
LJ           2.29332        -2.09613          2.1549
LJ          0.354204        0.830535      -0.0708122
LJ           1.11079        -0.45606        -1.39301
LJ          0.518405        -0.52096         1.43099
LJ          0.732312          0.5191         1.63624
LJ         -0.824754         1.62485         2.85036
LJ          -1.62493        0.792728        0.364338
LJ          0.345058         1.18405         3.22951
LJ           2.14554         2.89246        -2.33162
LJ         -0.271229        0.781592         2.20912
LJ         -0.890304        -1.67235          1.9823
LJ          -2.61918         2.21759         2.15144
LJ          0.837887         2.15434         3.63823
LJ           1.39624        -1.44373         2.18767
LJ           5.36501         3.36431         2.32309
LJ          -5.86362        -5.76545        -5.13307
LJ          -4.04923         5.97119        -1.38442
LJ         -0.679531        0.768881      -0.0613218
LJ           1.45363         1.37819       -0.665124
LJ           2.06114        0.720037         -1.1578
LJ           3.23854        -1.58222        -5.11797
LJ           3.61199         2.98532         4.29217
LJ          -1.89438         2.28024       -0.223204
LJ          -5.84151        -2.36912         4.38318
LJ          -5.45981        0.347451          4.4426
LJ          0.899252        0.710837        -1.22578
LJ         -0.287712        -2.08774        -1.40156
LJ           2.25623        -5.46139         3.07645
LJ          -3.07469         -6.2218       -0.734748
