108
#Comment!
LJ           3.06429       -0.217515         1.20935
LJ           2.89373           1.796        -2.22136
LJ          -0.49384        -2.84558        0.548601
LJ          -2.53492        0.255258       -0.456432
LJ           0.31555       0.0828236         3.44299
LJ          0.832676      -0.0696758        -2.32784
LJ           1.35345        0.572687        -1.40496
LJ           1.07476         -1.0746        -2.37775
LJ           1.40215       -0.701748         2.77526
LJ          0.310467        -1.10772         2.00318
LJ          0.217391         2.07933         1.97445
LJ          0.796487          1.1052          1.9122
LJ          -1.47961        -1.60214       -0.835737
LJ           3.88471        0.865709       -0.241812
LJ          -2.15402       -0.843176         0.40518
LJ          -1.46701       -0.770942         1.51078
LJ          -1.95283        -1.37795        -3.34719
LJ          0.921676       -0.140993         0.42712
LJ          0.389505         3.85529         4.20115
LJ         -0.512663        -1.02238       -0.754852
LJ          0.192614       -0.791422         4.43356
LJ          0.881569         2.04618       -0.772108
LJ           2.60589        0.935332       -0.603293
LJ          -5.19925        0.691533        -4.09964
LJ           3.80776         5.29766         5.36581
LJ         -0.534165         1.25221       -0.635928
LJ          -2.93242        -2.74452        -2.42887
LJ          -6.14078        -6.22927        -1.05922
LJ           2.12666         0.95587         1.24454
LJ         -0.986685        -1.15924        0.165509
LJ          0.123178        -2.03624         1.29161
LJ           6.31906         4.67002        -3.05019
LJ         -0.107592         -4.3461       -0.192724
LJ           2.07939      -0.0777927         -2.1755
LJ         0.0432147        0.666071         1.00746
LJ           2.31817       -0.448957        -1.11658
LJ           1.34247         -1.2651      -0.0277799
LJ        -0.0517257         -1.8517        -1.47501
LJ         -0.452345       -0.163369        0.362926
LJ           1.72952       -0.174182       -0.327238
LJ           1.56532         2.29231        0.125414
LJ         -0.211186       -0.352359         2.57607
LJ         -0.772473       -0.614893        -1.72872
LJ          -1.42441       -0.343325       -0.400837
LJ            2.0615        -1.17077        0.696289
LJ          -3.46034        -4.46236        -6.28456
LJ           2.29691       -0.605001         2.06728
LJ           2.23414        0.147021         0.60869
LJ          -2.26651      -0.0488711        -1.57593
LJ         -0.911937        0.193044         1.29481
LJ           0.83704         1.64923          3.0414
LJ         -0.329499         1.87147        -2.36579
LJ           5.87232        -4.04853        -1.49497
LJ          0.294789         1.64205         1.05024
LJ           1.46464        -0.23087         1.67695
LJ           3.21991        0.940863         1.20845
LJ          0.692023       0.0513217       -0.710334
LJ          0.803931        -1.31643        -1.05307
LJ          0.663505          -1.167         3.37696
LJ           3.17439       -0.270249       0.0600236
LJ           1.72446        0.937588       -0.190628
LJ      -0.000954093         4.56302        -4.23035
LJ          0.729901        -2.14695         2.14107
LJ          -1.83492       -0.416031         -3.0689
LJ           1.12195        0.851129        0.650181
LJ          0.198435       -0.591798        -1.46784
LJ           1.78398        -1.56759         3.34937
LJ           2.64836         1.32101        0.366944
LJ         -0.664837        -4.55985        -2.31598
LJ         -0.326915         1.05195         2.11885
LJ           -1.8572        0.596906         6.36254
LJ           2.66813         1.33318         2.23851
LJ          0.344668      -0.0132885         1.69967
LJ            1.4239         1.90907         1.32239
LJ          -2.00292      -0.0124913         1.00892
LJ           1.26304        0.663362         3.39827
LJ          0.278547        -1.77388        0.395741
LJ          0.357545         0.88857       -0.189091
LJ          0.535592         1.92406         4.98856
LJ           1.47901        -2.27557         1.31354
LJ            1.4403       -0.518331        -1.45159
LJ          0.373272        -0.81419       -0.133976
LJ            1.7793        0.661446         2.41436
LJ          0.947087       -0.985223         1.03179
LJ           1.56363         1.71309         2.34362
LJ          -1.28802        0.835459       0.0022435
LJ          -1.12664        -1.74495         1.03465
LJ          0.090737        0.645298        -1.54824
LJ          0.755713        0.233593         2.52782
LJ         -0.381846       -0.900647         1.21074
LJ         -0.838765         1.29494        0.781337
LJ          0.436335         3.07112         2.40173
LJ         -0.124309         1.32494         3.29219
LJ          -1.36025        -1.92246         -1.9343
LJ         -0.632049        -2.06037       -0.442576
LJ           1.92102         1.28562        -2.44348
LJ         -0.356926      0.00967701        -0.69391
LJ          0.151806         2.57217       -0.165231
LJ           2.63248        -2.20508        0.667346
LJ           5.22741         1.11929        -5.59414
LJ           1.92576         5.03149        -0.10046
LJ          -1.08759        0.537064        -1.46573
LJ           1.14959         4.14653        0.724064
LJ          -2.95722        -1.27843        -4.85597
LJ           1.78256         1.95465        -1.53491
LJ        -0.0871846        -4.15212        -1.61717
LJ          0.489725        -2.17682       -0.535615
LJ           6.04354        -5.04498         1.06558
