108
#Comment!
LJ          0.422336        -1.15332       -0.266231
LJ           4.44134        0.680113         5.08107
LJ          -2.04502        0.686053       -0.068049
LJ         -0.352995        -4.52343        -2.18022
LJ           1.36162        -2.01973       -0.676538
LJ          0.861531          2.3515       -0.554665
LJ           1.57954       -0.825383         1.44416
LJ           2.69883        -1.71229        0.943645
LJ           1.19996        -1.78126        0.351893
LJ           1.24884       -0.318801        -1.84477
LJ          -0.86092         2.30927       -0.283172
LJ            1.6885         1.42869         2.05046
LJ         -0.185755        -1.58336        -2.26972
LJ           2.26335        -1.11013        -1.32784
LJ          -1.71773         0.95497         3.15348
LJ           1.21461          3.6917         1.86624
LJ          0.110142         1.66103        -1.77894
LJ          -0.42788       -0.538137        0.679388
LJ         -0.714929         1.86973         1.38272
LJ         -0.323343        -1.02174        -1.28077
LJ          0.273152        -2.32737        -1.45688
LJ           1.23915       -0.112255        0.740739
LJ         -0.341113          2.2035        -2.56597
LJ           2.60864         5.81701        -2.17062
LJ           2.99694        0.688402        -4.37663
LJ          -1.23756         3.53057        0.505865
LJ          -2.19805         2.63802        0.450998
LJ          -4.60696         3.69044        -3.39395
LJ           1.37394         1.80183        0.884322
LJ           5.20939         4.77839        -6.41776
LJ          -1.41094       0.0752408         2.60178
LJ          0.818835        -1.18954        -2.30693
LJ         0.0262473        0.208518        -1.29148
LJ          0.921276        -1.14951         -1.2777
LJ         -0.921153         1.27264        0.313579
LJ        -0.0436041       -0.435977        -2.09603
LJ         -0.688613        -2.22323       -0.564344
LJ          -1.01805         1.54509        -1.98466
LJ          -1.40938        0.783064         1.12968
LJ           2.44762        0.510755         1.02809
LJ          0.591711        -1.00466        0.951092
LJ          0.498352        -1.98248         1.36048
LJ          -1.86277        -1.36929        0.283218
LJ         -0.811217       0.0858397         1.56859
LJ          0.697367       -0.888497         2.01118
LJ           5.62023        -2.19099       -0.602904
LJ          0.985643        -2.97633          1.0913
LJ           2.17642       -0.544076        0.428669
LJ         -0.641665        -1.04606       -0.284564
LJ          -1.94185          1.8876       -0.177423
LJ         -0.275996       -0.278957         2.52539
LJ            -1.433        0.503799       -0.938965
LJ           0.16818        -2.49364        0.215053
LJ         -0.599333         1.25845       -0.747072
LJ          0.905013        0.556002         1.50225
LJ           1.33392        0.975694       0.0195777
LJ            1.5628        -1.03985        -0.35071
LJ          0.817008       -0.118493       -0.633882
LJ           1.46722        -1.97677        -1.93648
LJ           1.84823        -1.07429        -2.61628
LJ         -0.890727      -0.0961472        -1.61518
LJ          -2.77437         1.20498        -2.14563
LJ          -2.97127       0.0986092        0.149103
LJ          -1.59483        -1.87942       -0.726666
LJ          0.344706         1.72754         1.07244
LJ         -0.604732        0.174918       -0.391883
LJ         -0.868432        0.943719         2.14648
LJ          0.594861          2.6181         0.48869
LJ           4.07105        -5.57668       -0.738654
LJ         -0.366842         0.81124        0.994796
LJ          -3.94108         3.98339         5.33793
LJ           5.05452         1.60968         3.96965
LJ           0.22316       -0.146467         1.44173
LJ         -0.331375         2.79938         0.84547
LJ          -1.37117         2.80583         1.15461
LJ           1.03442        0.455892         3.11617
LJ         -0.498774        -2.51782         1.18387
LJ         -0.777186        -1.65801        0.638254
LJ           2.02866        -1.70021        -6.27297
LJ           2.64018       -0.908132         2.46199
LJ          0.255776         0.46184        0.210973
LJ           2.06766        0.132941       -0.520036
LJ         -0.243697        -1.28995         1.46619
LJ           1.40756     -0.00350008         2.23196
LJ         0.0514312         2.52335         2.04501
LJ          -1.76445       -0.154544         1.61974
LJ          0.655137         1.73115         2.11085
LJ           2.84463         1.99577       -0.555875
LJ          -0.26604       -0.630277          3.5629
LJ          -1.12942       -0.862065         1.94691
LJ          -1.87201         1.62338        0.889123
LJ           0.23634        0.726673         2.21453
LJ           1.68441        -1.95328         1.46129
LJ          -5.27713        0.881247         4.01107
LJ            5.9455        -2.95387        -1.41957
LJ          -5.35021         4.95133        -1.77176
LJ          -1.37797      -0.0924928        0.461213
LJ         0.0856959         1.60788      -0.0296695
LJ           1.76907          1.6587       -0.629738
LJ           2.94836        -2.29718         -4.3753
LJ           4.05854         3.02603        -5.88831
LJ          -1.98259         1.46885        -1.37329
LJ          -3.03325        -4.47862        -6.38125
LJ           6.04775         1.84978         3.27016
LJ          0.609693         1.07257       -0.861166
LJ          -1.67302       -0.733193        -1.78047
LJ           5.63151         2.61203        0.453541
LJ           6.30505        -5.66907         5.14133
