108
#Comment!
LJ          -2.07565         -2.2853       -0.210434
LJ          -4.69224        -5.61441         4.07365
LJ           6.46177        -6.45963        -4.24116
LJ           5.40727         6.32708        -3.46377
LJ           2.70012        -2.28374       -0.053189
LJ         -0.772895        0.981018        -2.15822
LJ          0.644029        -1.69165       -0.597248
LJ          0.480509        -2.58067        0.104707
LJ         0.0279092        -2.30948        -1.48392
LJ           1.27503        0.728394       -0.205787
LJ           3.18613         2.53791         2.66796
LJ          0.755449        -1.59649         1.91085
LJ         -0.823557        -1.38007        -2.18717
LJ          0.172405         3.12476        -1.45268
LJ          -1.01892          1.3217      -0.0960725
LJ         -0.560131         2.29869        -1.33127
LJ          -1.50746        0.161998        -1.10479
LJ          0.670999        0.222416        0.525332
LJ          -1.87966         1.61392       -0.929569
LJ         -0.937684       -0.717168        -1.29745
LJ           1.12232       -0.579762        -2.20814
LJ           1.01676       -0.927778        -1.15607
LJ           0.24615        -1.23716        -1.80679
LJ           3.45328        -1.12519         3.52388
LJ         -0.476837         3.49267         4.02491
LJ          0.891478         3.02124         -2.3568
LJ          0.649779          2.3449       -0.992727
LJ           3.36397        0.428012         3.62902
LJ          -0.39646         2.39536         -2.4086
LJ          -0.93726         3.27714         -1.7691
LJ          -1.00112         2.61646          4.7143
LJ         -0.296947        0.147808        -1.55295
LJ          0.665225         1.90929        -2.29214
LJ          0.244104        0.685136        -2.29778
LJ          0.147758         1.42739        -1.55409
LJ          -1.15472     -0.00807246        -2.23068
LJ          -1.24999        -2.04862        -1.22855
LJ          -1.99542       -0.851297         1.52063
LJ          -1.46327        0.853431        0.641582
LJ          0.549768        -2.33653         1.17421
LJ          -1.02707        -1.37318       -0.145565
LJ          -1.06861        -3.12368       -0.932083
LJ          -2.28861        -1.19004        0.396969
LJ         -0.443977       -0.620631        0.412676
LJ         -0.201829        -3.37277         0.51991
LJ             6.364         1.80513        -1.54098
LJ         -0.372406        -1.58136       -0.837049
LJ            1.8351        -1.77009       -0.765765
LJ         -0.930777        0.177868       -0.172893
LJ         -0.992881         1.15502        -1.17603
LJ        -0.0278813      -0.0243248         1.30052
LJ          -2.86836       0.0132099       -0.563727
LJ          0.149039       -0.473315       -0.463861
LJ           1.06371         0.99552        -1.69435
LJ           1.40055        0.224131         1.42607
LJ          0.942316       -0.785752         1.14803
LJ           1.36946       -0.374646        0.032992
LJ          0.775018       0.0785657        -1.28125
LJ           1.84263       0.0652535       -0.974007
LJ          0.984938        -1.65018        0.380706
LJ          -1.78915        -1.05337        -1.17621
LJ           4.06422         4.88582         3.53766
LJ          -2.17352        0.564725       -0.120564
LJ          -1.79543        -0.44464       -0.241555
LJ          0.515534         1.25722        0.286273
LJ         0.0142137        0.597596       -0.589662
LJ         -0.407477        0.634344        0.548107
LJ        -0.0714519          1.9458        -0.42087
LJ           3.36833         5.76956         3.17407
LJ           3.52772         3.20381         3.47812
LJ          -4.59993         2.26884         6.23841
LJ            1.2096        -4.64784        -6.43941
LJ         -0.945421        -2.44595        0.101439
LJ           3.15592         1.80857         1.72371
LJ         -0.514572         0.85022         1.56015
LJ           0.67471       0.0505263         2.22843
LJ          -1.49067        -3.16864        0.873579
LJ          -1.08993         -1.3496        0.859256
LJ         -0.424508         4.78691         4.29206
LJ          -1.72636        -2.01972          1.5277
LJ         -0.131398        -1.72735        0.296792
LJ           2.10772        -1.26872        0.257822
LJ         -0.614435        -2.34312         1.17061
LJ          -0.16515        -1.24865         1.48328
LJ          -2.41247       0.0103112        0.864538
LJ          -1.40024       -0.176019        0.688827
LJ          -1.10637        -3.53043         2.00249
LJ          -5.70711       -0.806212         4.08667
LJ         -0.140626       -0.615314         2.70279
LJ         -0.913799        -1.60267         2.15937
LJ          -1.35367         1.98815        0.649848
LJ           0.50367        -1.47165         3.86857
LJ        -0.0130504        -2.31516          2.2299
LJ           1.72315         5.93805        -5.16226
LJ          -4.90941         6.03582         1.96423
LJ          -6.29496         2.34411        -5.56066
LJ         -0.957953       -0.651838         1.59375
LJ          -1.27794         2.42279       -0.365681
LJ          0.840287         2.42483       0.0497737
LJ         0.0470625        -4.52435       -0.439458
LJ           4.40878         5.30865         4.77078
LJ           6.45911          2.5194        -4.24585
LJ           2.09765         4.61733         3.80987
LJ           5.35576        -4.89034         3.18647
LJ           2.50958         3.18731         4.36761
LJ          -2.64175        -1.49126       -0.949394
LJ            5.4014        -1.50272        -5.10615
LJ           1.07788         5.20633        -1.33956
