108
#Comment!
LJ          0.393984        -1.50829       -0.297298
LJ           4.65086        0.970839         5.48168
LJ          -2.06042        0.792843       0.0571855
LJ         -0.267818        -4.10107        -2.49381
LJ           1.11321        -2.06362       -0.699068
LJ          0.763266         2.39538       -0.356466
LJ           1.47905        -1.07069         1.08646
LJ           2.53754        -2.05634         1.06363
LJ           1.15064        -1.89919        0.544607
LJ           1.16019       -0.255464        -1.72305
LJ         -0.608183         2.06184         0.05237
LJ            1.8007         1.18805         1.82037
LJ          -0.13337        -1.59872        -2.39783
LJ           2.01236         -1.1665        -1.51106
LJ          -1.52292         1.12849         3.02386
LJ          0.964724         3.91624          1.9111
LJ         -0.134673         1.44547        -1.93238
LJ         -0.288922       -0.273264        0.526275
LJ          -1.00607         1.70848         1.40446
LJ         -0.276273       -0.903112        -1.23411
LJ          0.380919        -2.06639        -1.51303
LJ           1.12751       -0.330376         0.38762
LJ         -0.371503         2.26787        -2.84135
LJ           2.38529          5.8589        -2.48333
LJ           3.46757        0.206807        -4.08872
LJ          -1.24064         3.63645        0.129606
LJ          -1.99129         2.83139        0.194596
LJ          -4.85806         3.50855        -3.13491
LJ           1.75259         2.05896         1.06001
LJ            4.9691         5.04121        -5.97492
LJ          -1.08541     -0.00608432         2.66871
LJ          0.977202        -1.12055        -2.46081
LJ          0.149301        0.367755        -1.30085
LJ          0.965027        -1.21261        -1.33576
LJ         -0.864039        0.798989         0.12266
LJ         0.0968142       -0.384801        -2.21071
LJ         -0.430818        -1.91022       -0.673377
LJ          -1.20532         0.94636        -2.17105
LJ          -1.61697        0.814575         1.15316
LJ           1.99953        0.279032        0.969592
LJ          0.427803        -1.00432        0.730592
LJ            0.4201        -2.06013         1.66774
LJ          -2.09452        -1.68576       0.0402646
LJ         -0.873066       0.0470027         1.54179
LJ          0.525024       -0.997178         2.17813
LJ           5.68964        -1.65135       -0.517255
LJ          0.962991        -2.97033         1.06456
LJ           2.15823       -0.662629        0.453929
LJ         -0.858716        -0.94305       -0.198949
LJ           -1.5525          1.6641       -0.601752
LJ        -0.0165467       -0.296619         2.52864
LJ          -1.38787        0.719763        -1.02649
LJ          0.243415        -2.41288        0.618151
LJ         -0.430806         1.12978       -0.806165
LJ           1.04334        0.976554         1.02684
LJ             1.488        0.653817        0.123238
LJ            1.6003        -1.06499       -0.412287
LJ          0.941436      -0.0652075       -0.640908
LJ           1.40422        -2.02389        -1.99808
LJ           2.01448       -0.748848        -2.47278
LJ         -0.990444       0.0296222        -1.83463
LJ          -3.23079         1.20272        -2.13121
LJ           -2.9871        0.351526        0.259334
LJ          -1.55316        -1.98953        -1.01894
LJ          0.110488         1.91493         1.42495
LJ         -0.609566       0.0503418       -0.620681
LJ         -0.821669        0.939315         2.17532
LJ          0.704411         2.51144        0.670894
LJ           3.78075        -5.69298        -1.20644
LJ        -0.0882241        0.749214         1.23577
LJ          -3.84736         4.51434         5.34654
LJ           5.55659         1.88936         4.20451
LJ          0.346442      -0.0650465         1.53126
LJ         -0.374303          2.8724         1.06237
LJ          -1.61511         2.75708         1.61022
LJ           1.00114        0.429215         3.26961
LJ          -0.57327        -2.69711         1.22226
LJ         -0.634563        -1.75791         0.59813
LJ           1.98392        -1.45661        -6.36045
LJ            3.0778       -0.973351         2.54065
LJ          0.304063        0.516769       0.0275408
LJ           2.45928       -0.245818       -0.519591
LJ         -0.366396        -1.14169         1.44998
LJ           1.33905       -0.215158         1.82158
LJ         -0.328722         2.69521         2.27761
LJ           -2.1183        -0.14285         1.79475
LJ          0.851354         1.67601         2.33086
LJ           2.81655         2.48889       -0.491325
LJ         -0.360225        -0.60306         3.66859
LJ          -1.15585       -0.964757          2.1988
LJ          -1.85024           1.889        0.808101
LJ          0.217048        0.816371         2.51339
LJ           1.55343        -2.10676         1.53152
LJ          -5.17469        0.495044         4.18855
LJ           5.92019        -2.98243        -1.25536
LJ          -5.49957         4.82791        -1.84001
LJ          -1.39997      -0.0905666        0.275506
LJ          0.289222         1.52482        0.290404
LJ           1.70419         1.65314       -0.260547
LJ           2.98277        -2.33589        -4.15015
LJ           4.13381         3.04413        -5.53916
LJ          -2.20428         1.45229        -1.47596
LJ           -2.6685        -4.75484        -6.09869
LJ           5.98231          2.1078         3.10396
LJ          0.787628         1.58925        -1.05036
LJ          -2.14261       -0.643282         -1.5798
LJ           6.06885         1.97703        0.110723
LJ           5.82711        -5.61667         4.22962
