108
#Comment!
LJ         -0.761418        -1.93088      -0.0275553
LJ          -5.55758         4.90175        -1.93958
LJ           1.53375         3.57194        -2.75992
LJ           1.70432          2.5064        -3.30946
LJ           1.12198        -1.52128       -0.632746
LJ         0.0857184         2.33152       -0.281095
LJ           1.13712        -1.77166        0.394747
LJ          0.669275        -2.61648        0.861311
LJ           1.34712        -2.65268       -0.386328
LJ           1.71058      0.00910584       -0.529567
LJ           1.47076         1.62839        0.645413
LJ           1.14047       -0.895962          1.9885
LJ          -1.30108       -0.780926        -1.89654
LJ          0.420992          1.6035        -1.65376
LJ         -0.159712         1.92677         0.70505
LJ         -0.432246         3.47591         1.09719
LJ          -1.05224         1.22988        -1.10701
LJ         -0.115411      -0.0428501        0.513686
LJ         -0.500187         3.15187      -0.0283768
LJ         -0.127937       -0.520128        -1.17461
LJ          0.937294       -0.708453        -1.47372
LJ          0.232023        -1.12266        -0.17719
LJ         -0.926647        0.448699        -2.10712
LJ          0.714383         4.34734          4.3643
LJ          -3.28434        -6.39135       -0.360927
LJ         -0.481966         2.02461        -1.93186
LJ           0.43003          2.3807        -2.70911
LJ           4.66005         1.71165        0.972392
LJ          0.623528         3.84357       -0.615927
LJ           1.94799         5.64519        -1.69252
LJ          -1.72781        0.406805         1.44078
LJ          0.324709        0.657025        -2.31925
LJ         -0.301195        0.570199        -3.52856
LJ          0.898802        0.667013          -1.365
LJ          0.274177         1.02652        0.284086
LJ         -0.230116        0.534779        -1.38969
LJ          -1.29077        -2.52787       -0.846073
LJ          -3.03241         -0.2772       -0.349951
LJ          -1.17181         1.40614        0.139826
LJ          0.983243        -1.76301         1.43815
LJ         -0.718727       -0.986188        0.695862
LJ         -0.521334        -2.84945        0.491407
LJ          -1.66114        -1.45495        0.169575
LJ         -0.795484       -0.272518         1.51582
LJ         -0.142025        -3.76571         1.08927
LJ          -5.89352        -5.47337        0.436472
LJ          0.330619          -2.329       -0.230037
LJ           1.71409        -2.50253         1.04557
LJ         -0.660533       -0.539514       -0.332334
LJ         -0.891171         2.23686       -0.734635
LJ          0.234292       -0.144441         1.60052
LJ          -1.86929        0.545795       -0.363522
LJ          0.146061        -1.82766        -1.05259
LJ         -0.162844         1.44763       -0.722678
LJ           1.11508         0.32012        0.515995
LJ           1.89472       -0.617198         1.11321
LJ           1.31763       -0.721668        0.223631
LJ          0.477524       0.0155724       -0.292611
LJ           2.52917       0.0566639        -1.43703
LJ           3.04532        0.238952       -0.481983
LJ          -1.25244      -0.0606956        -1.09728
LJ          -6.20086         3.34796         1.28237
LJ          -2.24503          1.7016       -0.239499
LJ           -1.3036        -1.17923       -0.844049
LJ         -0.234967         1.75754         1.95321
LJ          -0.46135         0.49547       -0.292221
LJ         -0.549082        0.945028         1.15691
LJ           1.88699         2.66674       0.0113153
LJ             2.786          6.3357        -6.22146
LJ          0.637313        0.791198         1.26533
LJ          -3.75455        -1.54823         5.93017
LJ          -2.06506         5.14268        -5.61279
LJ         0.0412931        -1.83482        0.720537
LJ           1.09088         1.03334       -0.301514
LJ          -1.10206         1.06774         2.32837
LJ         0.0955404        0.905531         2.41833
LJ          -1.23067        -3.33884         1.32445
LJ          -1.23419        -2.08503         1.06497
LJ           1.37909         1.76971         5.38715
LJ          -5.64105        -1.81844         2.29428
LJ           0.47713       -0.851633        0.923694
LJ           2.38487        -1.79665       -0.559135
LJ         -0.353126        -2.50875         1.62892
LJ        -0.0388125         -1.3166         1.71302
LJ          -2.55283         0.49751        0.601034
LJ          -1.19944       0.0744778        0.384902
LJ          0.953305        -2.94089         1.85486
LJ          -2.37821         3.09002         2.68488
LJ            1.1646       -0.384349         3.42109
LJ          -1.35305        -1.16629         1.84947
LJ          -1.06274         2.43116        0.446734
LJ          0.570898        -1.13007         2.84565
LJ          0.390758        -2.17716         2.35179
LJ          -2.70268        -4.34402         6.06437
LJ            5.7424         -4.9697       -0.319718
LJ           6.33905         2.89432        -3.83807
LJ          -1.75851       -0.842908        0.978696
LJ          0.656812         2.70435        0.909845
LJ           1.73537         3.80191        0.665911
LJ            2.7291        -2.84492       -0.514944
LJ           5.12075         3.49593        -0.81635
LJ          -4.73339         1.03357        -2.50395
LJ         -0.520806         5.74132        -1.07134
LJ           5.76749         5.41604         2.50111
LJ           1.78669        0.687286         1.07223
LJ           -1.9929       -0.498593       0.0031422
LJ          -1.40174          6.3153        -4.04043
LJ          -2.27838        -2.05036         6.12201
