108
#Comment!
LJ          -1.65935       -0.788321        -1.08487
LJ          -3.55104        -3.51469        -5.01019
LJ            -4.879        -3.33796        -3.39094
LJ          -3.49644        -5.06491         -3.5288
LJ          0.808322        -3.64897        -2.50062
LJ         -0.524993       -0.250707        -2.70901
LJ           1.02719        -1.81575        -1.09655
LJ           1.25622        -2.60675       -0.109663
LJ          0.125253        -1.51085        -2.08738
LJ           1.68956       -0.431753       -0.544493
LJ           4.90943           3.712         3.94793
LJ           1.23663        -1.04981         1.32609
LJ          -1.79837       -0.831669        -2.94881
LJ         -0.209911         2.30568        -2.55818
LJ          -2.32976         1.10547        0.910618
LJ          -1.16539         1.11632        -1.18993
LJ           -1.3345      -0.0495343         -1.8781
LJ          0.219958     -0.00061887      -0.0492418
LJ          -1.46152        0.212705        -2.98064
LJ         -0.754699        -1.00122        -1.62853
LJ           1.19944        -2.13956        -2.01746
LJ           1.04567        -1.05025        -1.70383
LJ          0.125924       -0.278967         -1.8279
LJ            5.8932        -3.74471        -5.91151
LJ          -1.71097         1.01042        -3.73761
LJ          0.413331         1.83557       -0.681985
LJ        -0.0426443         2.78791       -0.167818
LJ           4.29314        -6.24968         4.42522
LJ         -0.776076         1.36554        -3.06713
LJ          -1.26198         2.10143        -2.28066
LJ          -3.74644         5.89047        -5.90855
LJ         -0.420023        0.654078        -2.21368
LJ         0.0940428        0.721994        -3.58947
LJ          0.786158         1.02612        -1.82474
LJ         -0.313902         1.61362        -1.73517
LJ          0.831657       0.0643369        -2.67493
LJ          -1.15552        -2.58346       -0.284537
LJ          -1.42496       -0.849618         1.10078
LJ          -2.25262        0.121898         1.53679
LJ          0.466138        -2.82105        0.771976
LJ         -0.989531         -1.5265       -0.690064
LJ         -0.140513        -2.46051        -1.28956
LJ         -0.776606        -2.76964        0.792576
LJ       -0.00611978       -0.927868        0.357093
LJ           1.18096        -2.92285        -1.37008
LJ           5.88962        -5.91441         -3.7501
LJ         0.0697429        -1.52947       -0.740604
LJ           2.03573        -1.34354       -0.727435
LJ          -1.31975        0.121309       -0.916425
LJ          -1.33311         1.01248        -2.22023
LJ         -0.549892      -0.0806482        0.983528
LJ          -1.76289        -1.72284        0.435113
LJ         -0.372623       -0.552174       -0.661125
LJ          0.971011         0.74666       -0.425333
LJ           0.46838        0.480756          1.1959
LJ            1.1893       -0.505267        0.439982
LJ          0.733487       -0.635592       -0.747517
LJ           1.17936        0.233729        -1.28748
LJ            2.0044        0.192387        -1.89219
LJ           0.92041        -1.39024       0.0380623
LJ          -2.92192        0.352415       -0.565834
LJ          -5.90969         5.89173         -3.7445
LJ          -2.25113         1.69824       -0.505291
LJ          -2.22884        0.362272        -1.46439
LJ         0.0414778         1.24934        0.151603
LJ         0.0846651         0.75634        -1.03134
LJ         -0.697114        0.654493       -0.277685
LJ         -0.976705         1.67423       -0.147869
LJ           3.63887         4.51953         1.37094
LJ           4.77114           4.586         3.13092
LJ          -2.80374         3.98327          5.1671
LJ           3.97968        -2.81058         5.16711
LJ           -1.7715        -3.32546          0.8522
LJ           3.97446         3.70596         4.69739
LJ         -0.529386        0.637071          2.4061
LJ          0.873341       -0.266685         1.94412
LJ         -0.892861        -3.47372         1.62077
LJ         -0.751402         -1.6629         1.01946
LJ          -3.74909        -5.91139         5.89014
LJ          -1.91339        -2.36414         1.32771
LJ         -0.258598        -2.01547        0.182999
LJ           1.35691        -2.03852        0.901544
LJ         -0.116172        -2.27438         1.78911
LJ          0.387032        -1.56879         1.09421
LJ          -1.89404       -0.313529       -0.203518
LJ          -1.06498       -0.804694        0.128853
LJ          -3.00363        -2.53144         0.89495
LJ          -5.91077        -3.74386         5.89215
LJ          -1.19606       -0.232986         1.85412
LJ          -1.28381        -1.65395         1.94825
LJ         -0.526094         1.06505         1.00819
LJ         -0.225547       -0.827179         1.58075
LJ           2.36267        -0.41108         3.33715
LJ            3.9891          5.1615         -2.8036
LJ          -2.80692         5.16629         3.98184
LJ           5.08245         2.82197          5.2553
LJ          -1.46031        0.377854        0.863129
LJ          -1.74882        0.776268       -0.139123
LJ          -1.86719         2.08162         0.32575
LJ          -3.02267       -0.626082         1.18473
LJ           1.80621         4.61773         4.40212
LJ            5.1723         4.00009        -2.78092
LJ           2.78143         4.38798          4.6675
LJ           5.16755        -2.79978         3.98613
LJ           3.64313         4.41875         3.72044
LJ           6.16626         5.54978        -2.02984
LJ           -1.4203          5.6201         5.81059
LJ          -6.08187        -1.45307         5.98126
