108
#Comment!
LJ          -1.95565        -2.40917      -0.0792599
LJ          -4.71737        -5.71298         3.83393
LJ           6.25371          6.2262          -4.221
LJ           5.26105         6.29764         -3.4254
LJ           2.76128        -2.20915       -0.245576
LJ         -0.752808         1.10354         -2.2574
LJ          0.615205        -1.76808       -0.598016
LJ          0.569861        -2.57636       0.0360099
LJ          0.111687        -2.40407        -1.35488
LJ           1.28392        0.728022       -0.307541
LJ           3.12196         2.45005         2.53811
LJ          0.742147        -1.54383         2.03243
LJ          -1.06762        -1.37708         -2.0137
LJ          0.242117         3.18055        -1.53198
LJ         -0.934922         1.39563       -0.139882
LJ         -0.612141         2.15904        -1.35488
LJ          -1.61568        0.236694         -1.1198
LJ          0.610372        0.299245         0.45504
LJ          -1.83166         1.84487       -0.857769
LJ         -0.718657       -0.631721        -1.35353
LJ           1.08549       -0.305775        -1.97051
LJ           1.19554        -0.89271       -0.958277
LJ           0.27428        -1.06149         -1.7061
LJ           3.32862       -0.891677         3.26448
LJ          -0.53912         3.68018         3.80137
LJ          0.931387         3.06149        -2.51625
LJ          0.689832         2.33799       -0.987568
LJ           3.20025        0.654761         3.55987
LJ         -0.390266         2.49705        -2.50854
LJ          -0.94276         3.28171        -1.76329
LJ         -0.753039         2.45741         4.53492
LJ         -0.232352        0.358028        -1.48003
LJ          0.735703         1.98685        -2.41436
LJ          0.318017        0.612515        -2.30718
LJ          0.173969         1.45629        -1.45609
LJ           -1.1037      -0.0707815        -2.16653
LJ          -1.34228        -1.94387        -1.22366
LJ          -2.03807       -0.820173         1.37427
LJ          -1.44213        0.854923        0.832157
LJ          0.490986        -2.42677         1.08364
LJ          -1.15339        -1.37666       -0.241211
LJ          -1.10861        -3.03221       -0.714077
LJ          -2.14479        -1.42765        0.480425
LJ         -0.478873       -0.506639        0.231057
LJ         -0.255563         -3.2816        0.675905
LJ           6.39926         1.49844        -1.45431
LJ         -0.355886        -1.44864       -0.948521
LJ           1.68566        -1.99648        -0.59302
LJ          -1.05736        0.343093       -0.268146
LJ         -0.938479         1.08857        -1.12711
LJ         0.0890321       -0.122336         1.35666
LJ          -2.75316      -0.0622235       -0.660156
LJ           0.31508       -0.611508       -0.529503
LJ           1.28052        0.942084        -1.60851
LJ           1.40759        0.171517         1.38929
LJ           1.03874       -0.794959         1.17648
LJ           1.34388       -0.432263        0.074718
LJ          0.681784        0.106219          -1.128
LJ           1.80299       0.0350194        -1.07046
LJ           1.16118        -1.64765        0.532431
LJ          -1.86424        -1.01559        -1.45169
LJ           4.02311         4.95909         3.33722
LJ          -2.15715        0.785172       0.0437061
LJ          -1.84145       -0.649265       -0.414027
LJ          0.474294         1.31136        0.244686
LJ        -0.0157328        0.624449       -0.415471
LJ         -0.393053        0.574244        0.557081
LJ          -0.11812         1.98798       -0.398796
LJ           3.36776         5.77105         3.35873
LJ           3.42638         3.14582         3.44882
LJ          -4.68976         2.17055         6.32956
LJ           1.03077        -4.73103        -6.33377
LJ          -0.96992         -2.5597        0.208997
LJ           3.14927         1.82612         1.67864
LJ         -0.587072        0.883311         1.61339
LJ          0.548119        0.160714         2.23704
LJ          -1.67331        -2.94922        0.925479
LJ          -1.08369        -1.45859        0.884882
LJ         -0.246071         4.59552         4.21115
LJ          -1.69897        -2.12277         1.43125
LJ         -0.111898        -1.64702        0.290374
LJ            2.2121        -1.38036         0.17726
LJ         -0.601681        -2.47013         1.20984
LJ         -0.136292         -1.5483          1.4236
LJ          -2.40267       0.0902526        0.915932
LJ          -1.42951       -0.373235        0.758953
LJ         -0.908873        -3.42363         1.98976
LJ          -5.56789       -0.636972         4.03001
LJ        -0.0526321       -0.631433         2.66668
LJ          -1.09696        -1.73083         2.22444
LJ          -1.59816         1.94969        0.624585
LJ          0.549171        -1.51755         3.87863
LJ         -0.084551        -2.35292         2.19535
LJ           1.58178         6.00181        -5.29067
LJ           -5.0205         6.10747         1.84055
LJ          -6.21556         2.33296        -5.38435
LJ         -0.925667       -0.532062         1.72529
LJ          -1.21111         2.50505       -0.273509
LJ          0.976901         2.42197        0.130623
LJ          0.293118        -4.46441       -0.477686
LJ           4.59428         5.13548         4.60102
LJ          -6.35968         2.42661        -4.36921
LJ           1.85666         4.64482          3.6993
LJ           5.37161        -4.98867         3.16265
LJ           2.42982         3.13336         4.43009
LJ          -2.87139        -1.27757       -0.767628
LJ           5.09914        -1.16895        -5.07991
LJ           1.44583         4.84275        -1.04008
