108
#Comment!
LJ           3.79675       -0.749753        0.989351
LJ          -1.72142          2.9922        -1.91403
LJ          0.564836        -1.82785          1.5612
LJ         -0.611369         2.57926        -1.36719
LJ          0.640804        0.588456         3.34469
LJ          0.115473        -2.55952        -0.65811
LJ          0.524858        0.131229        -1.23813
LJ           1.77966        -1.69515       -0.999675
LJ           1.73369        -2.08813         2.35313
LJ         0.0857294       -0.812122         1.96685
LJ         0.0996867         1.58958         3.27585
LJ          0.464392        0.856872          1.0059
LJ         -0.109007       -0.644923       -0.636458
LJ           2.07799         5.32985        -1.59077
LJ          0.668353        -3.39905      -0.0706498
LJ         -0.327432        -2.03391         0.04906
LJ           5.99857        -1.53094        -5.62504
LJ          0.841755          1.5952        0.162939
LJ         -0.153396         4.74229        -5.07291
LJ          0.734605       -0.879443        -1.35996
LJ          -1.79639        0.313009         4.04437
LJ          0.628764         1.62179        -2.20489
LJ            3.4208       0.0545071       -0.410984
LJ          -2.85024        -2.08885        -1.65445
LJ          0.747042       -0.544685         5.15086
LJ          0.181575         1.79712        -1.16888
LJ         -0.961847        0.123317        -1.77405
LJ          -1.66645         5.93952        -1.63487
LJ            2.0528         2.25929         1.85596
LJ           0.51971        -2.30236        0.622299
LJ           1.82299        -1.51304         4.19578
LJ            4.2305         1.20193         4.75371
LJ          0.944322        -3.66018        -1.54872
LJ          0.870604       -0.303561        -2.20139
LJ        -0.0200855         2.14053        0.956505
LJ             2.628        0.694161       -0.787605
LJ           1.60001        -1.30471        0.572603
LJ           1.21417        -3.62969        -2.63455
LJ          0.727036        0.343475        0.133971
LJ           1.42746         0.69223        -1.94643
LJ           1.14931         2.44857       -0.608434
LJ         -0.904356        -1.34732          1.7228
LJ           0.79869        -2.09803        -1.57283
LJ         -0.225257        0.322033        0.448381
LJ           2.36689        -1.06082         3.33251
LJ           5.79738        -4.68205        -3.97733
LJ           3.34426        -0.61826         2.05388
LJ           2.90594        -1.54857         2.53844
LJ           1.66763        -1.01242        -2.53825
LJ             -1.54         1.65847         1.48583
LJ            1.2442        0.552278         2.00929
LJ          0.261726         2.62269         -2.3391
LJ           1.73122        -5.81697        -2.59418
LJ         -0.193797         1.41036         1.97604
LJ           2.61939       -0.772187         1.31202
LJ           2.13876       -0.762237       -0.136694
LJ           1.85536        0.317591        -0.19547
LJ           1.18858        -2.75837       -0.809176
LJ          0.790213       -0.468453          3.4528
LJ           4.22415         0.32679        0.983846
LJ          0.613604         0.95911       -0.687632
LJ           -4.8066         5.79786        -4.80494
LJ           1.32938       -0.247091         2.53927
LJ        -0.0942051         3.77295        -1.93143
LJ            2.7289       -0.168912        0.389477
LJ           1.13438        -0.51359       -0.368132
LJ           1.33944         -1.3938         3.18576
LJ           1.37718         1.63617        -1.26673
LJ           1.06135         3.12305        -3.07617
LJ          0.823477         1.55408         2.47323
LJ           1.10232         1.55925        -6.09687
LJ           1.85868         1.26325         2.59076
LJ           0.35615        -1.21919        0.509803
LJ           1.53966         1.01741         1.03361
LJ         -0.386409        -0.65643        0.979496
LJ          0.561766       -0.269602         1.05325
LJ           1.65743       -0.172124        0.659743
LJ          -0.35772         1.39254      -0.0748633
LJ           2.41111         -1.0956         5.18345
LJ           1.27844       -0.944724         1.52908
LJ            2.0332       -0.148267        -1.57591
LJ          0.674886        -1.68226       -0.451416
LJ           2.28566        0.233877         1.42316
LJ           2.60038        -2.17899         1.61175
LJ          0.805615          1.8734         1.53308
LJ          -1.42973       0.0230246         1.00864
LJ          -1.00483        -2.84966         1.52389
LJ         -0.325334        0.993608        -1.73473
LJ          0.325042        0.100142          2.3341
LJ           -0.2525        -2.00793         2.41955
LJ          0.156774         2.59171       0.0117159
LJ         -0.694019         1.32516        0.881121
LJ         -0.519149        0.702477         2.64075
LJ          0.117754        -1.15391        -2.47686
LJ         -0.236131        -1.63775        -1.38633
LJ           1.11347         1.53654        -4.02695
LJ         -0.592719        0.264561       -0.653225
LJ          0.141277         2.76527         1.77885
LJ         -0.887056        -5.64918         3.70232
LJ           5.52442          3.2415        -6.15296
LJ         -0.872708         4.38794       -0.172397
LJ         -0.073836     -0.00543824        -2.49004
LJ           0.98107         2.66993        -1.53594
LJ          -6.45092       -0.263712        -3.20203
LJ          0.328768         3.40192        -0.87857
LJ          -1.32036        -3.02045        0.316881
LJ            1.5067        -2.23126         1.09933
LJ          0.413307        -2.94458         2.05573
