108
#Comment!
LJ         -0.643893         -1.8557       -0.124593
LJ          -5.64261         4.74922         -2.3622
LJ           1.26369         3.32709        -2.71844
LJ           1.12561         2.13689        -3.09568
LJ           1.18828        -1.46376       -0.690434
LJ          0.348124         2.28056       -0.169118
LJ           1.18443        -1.80165        0.392976
LJ          0.637009         -2.8655        0.945652
LJ           1.56191        -2.51912       -0.261323
LJ           1.74639        0.198478       -0.487978
LJ           1.10214         1.59482        0.460828
LJ           1.17367       -0.583596         1.67499
LJ          -1.21467        -0.80318        -2.03721
LJ          0.624728         1.52111        -1.39794
LJ        -0.0742056         1.79996        0.839587
LJ         -0.630333         3.59409         1.14051
LJ          -1.34638         1.18499        -1.37216
LJ         -0.133716        -0.14814        0.645383
LJ        -0.0157726         3.33439        0.193696
LJ         -0.356231       -0.867896       -0.982525
LJ          0.806519       -0.837404        -1.55247
LJ          0.260628         -1.1688       -0.204216
LJ          -0.90829        0.787961        -2.33887
LJ          0.694272         4.54502         4.83598
LJ          -3.67946        -5.99732       -0.564391
LJ          -0.59211         1.77592        -1.75398
LJ           0.15015         2.37999        -2.67926
LJ           4.85801         1.79503        0.722832
LJ          0.615852         3.81614       -0.528167
LJ           2.07802         5.81829        -1.82728
LJ          -1.74095        0.597159         1.47184
LJ          0.238822        0.894004        -2.29998
LJ         -0.334661        0.509107        -3.64143
LJ           1.12958        0.320929        -1.49944
LJ        -0.0608425        0.757583        0.272642
LJ        -0.0720886        0.460806        -1.34625
LJ          -1.32046        -2.19654       -0.757524
LJ          -3.00361       -0.022344       -0.577554
LJ          -0.98606         1.37335       0.0473749
LJ          0.918454        -1.73788         1.64933
LJ         -0.721132        -1.18206        0.980765
LJ         -0.418642        -2.71778        0.575817
LJ          -1.83736        -1.54637      -0.0670214
LJ         -0.885309       -0.247872         1.40841
LJ          -0.08378        -3.48943         1.35201
LJ           -6.0039        -6.03387        0.519508
LJ           0.37375        -2.32381      -0.0770123
LJ           1.74081        -2.34783         1.21621
LJ         -0.969589        -0.80328      -0.0783487
LJ         -0.844046         2.10065        -0.74075
LJ          0.193791        -0.23132         1.71115
LJ          -1.75641        0.725679       -0.509911
LJ            0.2784        -1.69706        -1.20934
LJ         -0.147663          1.3671        -0.61481
LJ           1.06376       0.0550863        0.566806
LJ           2.11326       -0.410997        0.979314
LJ           1.72795       -0.730209       0.0399068
LJ          0.429051       -0.123372       -0.738696
LJ           2.49683       -0.025984        -1.53687
LJ           3.21937        0.179679       -0.625014
LJ          -1.22798      -0.0121155        -1.17796
LJ          -5.95787          3.1566         1.04826
LJ          -2.18324         1.49145        0.137351
LJ          -1.29268        -1.17469        -1.03083
LJ         -0.446119         1.79824         1.96017
LJ         -0.674888         0.17478       -0.322875
LJ          -0.63288        0.811064         1.22036
LJ           1.76942         2.82928        0.231225
LJ           2.75208         6.36424        -5.98049
LJ          0.467084        0.754321         1.22125
LJ          -3.56701        -1.87492          5.8011
LJ          -2.39234         4.93934        -5.80504
LJ          0.282014        -1.74003        0.813458
LJ           1.06596         1.06999       -0.516959
LJ          -1.27244         1.07985         2.34262
LJ          0.215895        0.633841         2.19773
LJ          -1.13063        -3.10045         1.55149
LJ          -1.24995        -2.07611         0.82995
LJ           1.42076         1.57129         5.46911
LJ          -5.89446        -1.76632          2.3161
LJ          0.738874        -0.89458         0.82162
LJ           2.15712        -1.79862       -0.604046
LJ         -0.181639        -2.39031         1.60909
LJ       -0.00710574        -1.23536         1.80914
LJ          -2.68044        0.888623        0.848905
LJ          -1.36424        0.359008        0.430276
LJ           1.05003        -2.74552         2.06637
LJ          -2.11791         3.34977         2.56169
LJ           1.06298       -0.495278          3.4641
LJ         -0.994048        -1.21955         2.00512
LJ          -0.91927         2.50712        0.569309
LJ           0.38931        -1.06348         2.90696
LJ          0.257116        -2.17383         2.56447
LJ          -3.06216        -4.14529         6.03584
LJ           5.75665        -4.81571       -0.418127
LJ           6.28049         2.93841        -3.65745
LJ          -1.68062       -0.624725        0.769699
LJ           0.53739         2.67508         1.00679
LJ           1.87416         3.70041         0.77889
LJ           2.90823        -2.74948       -0.725922
LJ           5.09818         3.47136        -1.12451
LJ          -4.61573         0.94282        -2.39684
LJ         -0.498837         5.82392        -1.45529
LJ           5.80131          5.2004         2.43585
LJ           1.97543        0.707185        0.989751
LJ          -1.81647       -0.390758       -0.317214
LJ          -1.74602        -6.08063        -3.79277
LJ          -1.63592        -2.48168        -6.19972
