108
#Comment!
LJ            2.5636        0.500009         1.58027
LJ           2.42906        -3.37851        -1.26427
LJ         -0.627847        -1.16228        0.665242
LJ          -2.39558        0.568676       -0.286416
LJ            1.5289        -1.85641         2.52125
LJ           2.18737          1.6508        -1.57881
LJ           2.66197          1.5133         0.55292
LJ           1.52614        0.196438        -1.59176
LJ           1.05671       -0.446626         1.10181
LJ          0.934676        -3.05888        0.771532
LJ          -1.99579         1.94761          2.2418
LJ           1.62459         1.62563         2.84601
LJ         -0.923038        -1.01685       -0.404758
LJ           2.52402        -1.18205       -0.458886
LJ          -1.02278       0.0657919         2.73496
LJ         -0.220345        0.841988         2.14927
LJ          0.227075        -2.65431        -1.63711
LJ         -0.492193         1.03179        0.337811
LJ          0.762197         2.30378         2.73786
LJ          -0.52691        0.153757        -1.41782
LJ          0.826698        -2.66262         1.88499
LJ           0.96142         1.11837        -1.14549
LJ           2.20109        -1.51147        -1.53292
LJ          -6.22547         2.71917         5.77054
LJ            6.2113      -0.0964276          5.2257
LJ          -2.03742         1.94015      0.00567264
LJ          -3.08533        -5.59576        -1.16875
LJ          0.144899        -5.46231      -0.0598044
LJ           2.57198         2.25093         2.54993
LJ          -3.16736        0.368986         1.42199
LJ         -0.434742       -0.362438         1.79822
LJ          -4.29467        -6.07617          1.2274
LJ          0.167134        -1.55991        -1.58156
LJ           1.70219       -0.644769       -0.907544
LJ          -1.67598         2.11868         1.01378
LJ          0.931126        -1.53244       -0.602871
LJ          0.233836        -1.98819         1.00628
LJ          0.852519        -1.54334        -2.63817
LJ          -1.98072       -0.243836         1.86922
LJ           1.42888         1.01294       -0.106401
LJ           1.47487         1.48447         1.16602
LJ          0.397614         -1.2435         1.83548
LJ          -1.02209       -0.801788        -1.74613
LJ          -2.06333        -0.33166        0.139872
LJ           1.51215        0.400917         1.48206
LJ         -0.604944        -4.25047         4.86843
LJ           1.92996        -1.19062        0.442447
LJ           2.34994        0.217054        0.598704
LJ          -1.80673      -0.0104407       -0.928774
LJ          -1.15359         0.37335         1.49145
LJ         -0.431986         1.76569         2.75263
LJ         -0.576943         1.50343       -0.903904
LJ          -3.83633        -3.11294       -0.467997
LJ         -0.450038         2.59275        -1.06657
LJ          0.667649         1.56541         1.85139
LJ           2.11124        0.043115         2.51043
LJ          0.573166        0.323109        0.111818
LJ           0.46277        -0.42699        -1.87091
LJ           1.52863        -1.54364         1.32925
LJ            3.4782        0.413795        0.803401
LJ          0.551916         1.41307        0.150673
LJ           3.75176         3.57169        -3.72047
LJ        -0.0993429        -2.01254         2.13537
LJ          -1.47273        0.153208         -2.1727
LJ         -0.963193         1.91105      -0.0144666
LJ         -0.267763        0.176428        -2.74471
LJ           2.38948       -0.589428         1.40052
LJ           2.39095         1.51145         1.70903
LJ          -3.82178         0.70026        -4.49092
LJ          -0.54552         2.06992         1.24065
LJ          -3.81749       -0.247516         6.44966
LJ           3.47814       -0.318817         1.46005
LJ          0.341175        0.788727         1.02367
LJ           0.61264         2.44147         1.04456
LJ          -2.38502        0.915496         1.90123
LJ           1.48159       -0.160318          3.3402
LJ        -0.0156512       -0.581383        -0.38899
LJ         0.0769325        0.792022       -0.654029
LJ          0.280286         4.18471          4.7796
LJ          0.515835        -0.97444        0.308479
LJ          0.286992        0.758963        -1.82663
LJ          0.689694      -0.0461408       -0.887329
LJ           1.66432       -0.860917         2.40185
LJ         -0.199322       -0.165958         0.64341
LJ           1.61117         2.41299         1.97175
LJ          -1.95986        0.770903         0.67403
LJ         -0.863952        -1.32915         1.94038
LJ         -0.812737        0.971895        -2.05667
LJ          0.625429       -0.138237         2.08266
LJ         -0.108957       -0.647519         2.73677
LJ          -1.12439         1.31799          2.0597
LJ          0.631594         1.17669         3.24564
LJ          0.941412        -1.01952         3.27903
LJ          0.160703        -3.94297        -2.66768
LJ          -3.74495        0.384949         0.39463
LJ           2.53861        -2.37388       -0.576162
LJ         -0.870424        0.129924        -0.33961
LJ           1.23428         2.13805       -0.677783
LJ           1.62802       -0.193694       0.0303302
LJ           4.45708       0.0959121        -5.39918
LJ           1.81907         2.37202        0.754483
LJ           -1.3383        0.988242       -0.356582
LJ           3.06124         3.65592        0.615667
LJ          -3.16527        -1.32874         5.96533
LJ           2.25647       -0.602348        -1.88135
LJ           1.12223        -2.31749        -1.30463
LJ           -5.9274         5.32125        -4.43605
LJ          0.601565         5.52489         -1.0039
