108
#Comment!
LJ           2.76694        0.115478         1.23794
LJ           2.95398        -1.61071        -2.40815
LJ         -0.727384        -2.30462        0.305753
LJ          -2.38698         1.15657       -0.581838
LJ           1.50055       -0.391296          2.9539
LJ           1.85127        0.846614        -1.43128
LJ           2.05711         1.62316        -0.15549
LJ           1.24318         0.35047        -2.46029
LJ           1.18431       -0.722721         1.87517
LJ          0.779053        -1.71756         1.37906
LJ         -0.953276         2.53682         3.12112
LJ           1.58151          1.4912         2.57957
LJ          -1.21224        -1.27984        -0.99618
LJ           3.32965       -0.529255       -0.124247
LJ          -1.14035       -0.365188         2.03107
LJ         -0.732028        0.544989         2.39184
LJ         -0.524892        -2.94466        -2.33572
LJ         -0.460167        0.768477        0.181109
LJ          0.909408         2.37913         2.62436
LJ         0.0578452       -0.612464        -1.42323
LJ          0.192296        -1.79143         2.39812
LJ          0.890219         1.30439         -1.1051
LJ           2.93818       -0.891839        -1.31446
LJ          -5.77405          1.9169        -5.89069
LJ           5.21966         2.09514         5.25295
LJ           -1.4728         1.51879        0.110535
LJ          -2.93107        -4.90797        -1.38731
LJ          -2.20722        -5.71574       -0.829591
LJ           2.32367          2.3061         2.20531
LJ          -2.26524       -0.545327        0.836861
LJ         -0.130333        -1.09223        0.848721
LJ          -5.25026         5.94766       -0.511662
LJ          0.440627        -1.89325     -0.00910875
LJ           1.77358       -0.637715        -1.92343
LJ          -1.73426         1.87997          1.0936
LJ           1.80638        -1.22307        -1.01234
LJ         -0.047518        -2.39918         1.30291
LJ          0.944682        -1.99635        -1.33116
LJ          -1.13833       -0.719511        0.514537
LJ           1.25737        0.980801       -0.219089
LJ           1.46865         1.33684         0.72956
LJ          0.420695       -0.728488         2.75541
LJ          -1.19511       -0.648933        -2.03194
LJ          -1.86517       -0.613127       -0.272925
LJ           1.49345        0.245433         1.46123
LJ          -1.76617        -4.34426         5.58988
LJ           1.86154        -0.70967         1.13698
LJ           0.73504        0.493966        0.767426
LJ          -1.50694       -0.101659        -1.16409
LJ          -0.57097       0.0811187        0.990183
LJ           0.37987         1.24295         3.16303
LJ         -0.849392         2.09824        -1.35433
LJ          -5.16916        -3.47735       -0.884219
LJ         -0.302063         2.27476       -0.101588
LJ          0.981106         1.21584         1.78375
LJ           3.64716        0.792313         1.95278
LJ          0.238342        0.417251       -0.515603
LJ          0.854409       -0.939561        -2.04829
LJ           1.18155        -1.58623         2.60355
LJ           2.02025        0.318807        0.517326
LJ          0.307633         1.49409         0.20641
LJ            2.2267         3.98212        -3.93669
LJ         -0.488287        -2.66088         2.38968
LJ          -2.26752     -0.00783943        -2.21499
LJ         -0.660198         1.65657        0.766459
LJ          0.280103      0.00200111        -2.47459
LJ            2.2158        -1.31019         2.69859
LJ           2.23426        0.934809          1.8732
LJ          -2.83936        -1.68569        -3.76821
LJ        0.00399812        0.997389         1.55166
LJ          -3.04622        0.342029         6.37947
LJ           3.59707       -0.472374         1.72884
LJ          0.342907       -0.183625         1.57278
LJ          0.277856         1.93961         1.24161
LJ          -1.42191        0.720368          1.4781
LJ           1.37552         1.00842         3.52718
LJ         -0.444505        -1.30444       -0.173382
LJ         -0.142849         1.44298       -0.793813
LJ        -0.0748508         2.96311         4.26527
LJ           0.74645         -1.0301        0.377024
LJ          0.875311        0.226854        -1.46013
LJ          0.877756       -0.537009       -0.670516
LJ            2.4329       0.0137004         2.42114
LJ         0.0896888        -0.20935        0.253279
LJ           1.29068         2.28898         1.64607
LJ          -1.63126        0.497887        0.376795
LJ          -1.22197        -1.61132        0.978934
LJ         -0.533114        0.360915        -1.31755
LJ           1.20517        0.482572         2.47555
LJ         -0.256997       -0.940625         1.82925
LJ          -1.12462         1.58666         2.14538
LJ           1.33869         2.18109         3.69801
LJ          0.554139       0.0776193         3.38284
LJ         -0.792005        -1.97293        -2.96794
LJ          -2.01002        -1.48524        0.176604
LJ           2.75521        -2.05451        -1.43281
LJ         -0.864132       -0.183228       -0.270464
LJ             1.131         2.29535       -0.194523
LJ           1.71011       -0.587489       -0.067127
LJ           4.75113        0.498147        -5.47059
LJ            1.9537         3.78964     -0.00216458
LJ          -1.42337         1.08892        -1.06739
LJ           2.50464         4.21084        0.863077
LJ          -3.06661         -1.5487        -6.12325
LJ           2.91278        0.658226        -2.01189
LJ          0.754201        -3.75151        -1.49346
LJ           4.45013        -5.42501          -2.908
LJ           2.46062        -6.08112      -0.0393912
