108
#Comment!
LJ          -2.19231        -1.71777       -0.413215
LJ          -4.47096        -4.69739         6.31358
LJ          -5.38375        -4.72103        -3.98491
LJ          -5.27778        -5.76651        -4.33694
LJ           1.64118         -2.8839       -0.768169
LJ          -0.58502        0.737818        -2.65133
LJ          0.905949        -1.74911         -1.0037
LJ          0.613327        -2.49867       -0.259218
LJ         0.0742941        -1.54824        -1.97392
LJ           1.76675        0.308947       0.0671471
LJ           4.33118         3.00307         3.29701
LJ           1.69751        -1.38494          1.4551
LJ          -1.68215          -1.172        -2.43565
LJ        -0.0588569          2.5305        -1.76736
LJ          -2.04197        0.645121        0.174617
LJ         -0.919835         1.75406       -0.756968
LJ          -1.40821      -0.0416484        -1.41939
LJ          0.463373         0.19884      -0.0420821
LJ          -2.04276         1.48536        -2.73467
LJ         -0.984347       -0.886213        -1.23971
LJ           1.04108        -1.53844        -2.57934
LJ           1.15686       -0.913381        -1.69747
LJ        -0.0126192       -0.580193        -1.23223
LJ           4.61219        -2.46122         5.80444
LJ         -0.743187         2.04217         -6.3175
LJ           1.01236         1.83361        -2.00397
LJ          0.434977         2.23694       -0.904704
LJ           4.91677        -2.50753         4.35125
LJ         -0.503911         1.86139        -2.44467
LJ          -1.24736         2.31354        -1.62196
LJ          -2.46176         4.38856         5.91586
LJ         -0.340178        0.391407        -1.53711
LJ          0.302406         1.06902        -3.22518
LJ          0.430383        0.857054        -2.16443
LJ        -0.0844307         1.43337        -1.43047
LJ         -0.120646       -0.433157        -2.37634
LJ         -0.991078        -1.98333        -1.13904
LJ          -2.06206       -0.742709         1.69041
LJ          -2.32761        0.629972         1.49858
LJ          0.551857        -2.39094        0.877262
LJ          -1.13214        -1.20639       -0.180154
LJ        0.00734571        -2.56834        -1.43729
LJ          -1.16906        -1.81383        0.803252
LJ        -0.0864856       -0.694879        0.209998
LJ          0.752731        -3.53432        -0.48351
LJ            6.0224         4.64435        -2.45952
LJ        -0.0981292        -1.55236        -0.72008
LJ           2.00998       -0.770348       -0.384206
LJ          -1.22226        0.809579       -0.692187
LJ          -1.15423         1.19394        -1.66907
LJ          0.199389       0.0600982         1.32437
LJ          -2.05317        -1.17243        0.659112
LJ         -0.662318      -0.0579536        -0.50914
LJ          0.996189        0.883481       -0.815382
LJ           1.20838         0.38143        0.943977
LJ          0.942578        -0.54486        0.892958
LJ          0.824173        -0.71692       -0.572763
LJ          0.796474       0.0987726        -1.59142
LJ           1.89971        -0.10997        -1.68118
LJ          0.739995        -1.45946        0.168136
LJ          -1.97508        -1.14353        -1.34643
LJ           5.32252         5.11264        -6.36642
LJ          -2.22709        0.775063        -1.34669
LJ          -1.84146       -0.413603       -0.489505
LJ           1.21032         1.29673        0.296368
LJ         0.0485349         1.04771       -0.311994
LJ         -0.420177        0.369693        0.440208
LJ          -1.15619         1.33061        0.425215
LJ           3.45552         5.31461         2.02639
LJ           4.11834         4.17967         3.70145
LJ          -3.80353         3.20006          5.4284
LJ           2.88583        -3.87784         5.50171
LJ          -1.24157        -2.47274       -0.130813
LJ           3.19888         2.52648         3.21697
LJ         -0.683542         0.87184         1.27588
LJ           0.61665       -0.621895          2.1193
LJ          -1.19194        -3.21837         1.21737
LJ         -0.595139       -0.978196         1.33983
LJ          -2.09683         5.96492         5.00695
LJ           -2.1744        -2.21962         1.32606
LJ          -0.22051        -1.85854        0.301348
LJ           1.76011        -1.47655        0.389317
LJ         -0.348045        -2.07421         1.87842
LJ          0.369314         -1.3809         1.08509
LJ          -2.25181       -0.203801        0.583835
LJ           -1.2224       -0.353909        0.433898
LJ           -2.4097        -3.28166         1.26042
LJ           5.85012        -2.37951         4.61967
LJ         -0.392229       -0.338724         2.39192
LJ          -1.31944        -1.51028         1.96985
LJ          0.109806         1.48472        0.586839
LJ        0.00110019       -0.947311         3.24081
LJ          0.671053        -1.79778         2.11831
LJ            3.0423          5.3488        -3.96952
LJ           -3.8717         5.37853         3.13796
LJ           5.87813          2.5465         6.30095
LJ           -1.3089       0.0315162         1.75559
LJ          -1.91157         1.75133       -0.419045
LJ         -0.191427         2.35195      -0.0118867
LJ          -2.14406        -2.92013        0.253354
LJ           2.74915         5.45166         4.79969
LJ            5.5479         3.31811        -3.61323
LJ            3.3632         4.39933         4.35993
LJ           5.20535        -3.97121         3.41955
LJ           2.93107         3.59092         3.64619
LJ          -4.61576        -4.57818        -1.81271
LJ           -4.7127        -4.67686        -5.30287
LJ          -2.37583        -4.38333        -4.13352
