108
#Comment!
LJ          -3.19641        -3.19641        -3.19641
LJ          -2.15121        -2.15121        -3.16231
LJ          -3.16231        -2.15121        -2.15121
LJ          -2.15121        -3.16231        -2.15121
LJ          -1.07707        -3.17956        -3.17956
LJ      -0.000223431        -2.15124        -3.16211
LJ          -1.07693        -2.15042        -2.15042
LJ      -0.000223431        -3.16211        -2.15124
LJ           1.07448        -3.17962        -3.17962
LJ            2.1024        -2.15169        -3.17962
LJ           1.07321        -2.15042        -2.15042
LJ            2.1024        -3.17962        -2.15169
LJ          -3.17956        -1.07707        -3.17956
LJ          -2.15124    -0.000223431        -3.16211
LJ          -3.16211    -0.000223431        -2.15124
LJ          -2.15042        -1.07693        -2.15042
LJ          -1.07698        -1.07698        -3.16188
LJ      -0.000240039    -0.000240039        -3.16188
LJ          -1.07689    -0.000325985        -2.15039
LJ      -0.000325985        -1.07689        -2.15039
LJ           1.07402          -1.077        -3.16211
LJ           2.10234    -0.000152297        -3.17956
LJ           1.07321    -0.000293517        -2.15042
LJ           2.08488          -1.077        -2.15124
LJ          -3.17962         1.07448        -3.17962
LJ          -2.15169          2.1024        -3.17962
LJ          -3.17962          2.1024        -2.15169
LJ          -2.15042         1.07321        -2.15042
LJ            -1.077         1.07402        -3.16211
LJ      -0.000152297         2.10234        -3.17956
LJ            -1.077         2.08488        -2.15124
LJ      -0.000293517         1.07321        -2.15042
LJ             1.074           1.074        -3.16231
LJ           2.11919         2.11919        -3.19641
LJ             1.074         2.08509        -2.15121
LJ           2.08509           1.074        -2.15121
LJ          -3.17956        -3.17956        -1.07707
LJ          -2.15042        -2.15042        -1.07693
LJ          -3.16211        -2.15124    -0.000223431
LJ          -2.15124        -3.16211    -0.000223431
LJ          -1.07698        -3.16188        -1.07698
LJ      -0.000325985        -2.15039        -1.07689
LJ          -1.07689        -2.15039    -0.000325985
LJ      -0.000240039        -3.16188    -0.000240039
LJ           1.07402        -3.16211          -1.077
LJ           2.08488        -2.15124          -1.077
LJ           1.07321        -2.15042    -0.000293517
LJ           2.10234        -3.17956    -0.000152297
LJ          -3.16188        -1.07698        -1.07698
LJ          -2.15039    -0.000325985        -1.07689
LJ          -3.16188    -0.000240039    -0.000240039
LJ          -2.15039        -1.07689    -0.000325985
LJ          -1.07686        -1.07686        -1.07686
LJ      -0.000358972    -0.000358972        -1.07686
LJ          -1.07686    -0.000358972    -0.000358972
LJ      -0.000358972        -1.07686    -0.000358972
LJ           1.07318        -1.07689        -1.07689
LJ           2.08466    -0.000240038        -1.07698
LJ           1.07318    -0.000325986    -0.000325986
LJ           2.08466        -1.07698    -0.000240038
LJ          -3.16211         1.07402          -1.077
LJ          -2.15124         2.08488          -1.077
LJ          -3.17956         2.10234    -0.000152297
LJ          -2.15042         1.07321    -0.000293517
LJ          -1.07689         1.07318        -1.07689
LJ      -0.000240038         2.08466        -1.07698
LJ          -1.07698         2.08466    -0.000240038
LJ      -0.000325986         1.07318    -0.000325986
LJ           1.07321         1.07321        -1.07693
LJ           2.10234         2.10234        -1.07707
LJ           1.07402         2.08489     -0.00022343
LJ           2.08489         1.07402     -0.00022343
LJ          -3.17962        -3.17962         1.07448
LJ          -2.15042        -2.15042         1.07321
LJ          -3.17962        -2.15169          2.1024
LJ          -2.15169        -3.17962          2.1024
LJ            -1.077        -3.16211         1.07402
LJ      -0.000293517        -2.15042         1.07321
LJ            -1.077        -2.15124         2.08488
LJ      -0.000152297        -3.17956         2.10234
LJ             1.074        -3.16231           1.074
LJ           2.08509        -2.15121           1.074
LJ             1.074        -2.15121         2.08509
LJ           2.11919        -3.19641         2.11919
LJ          -3.16211          -1.077         1.07402
LJ          -2.15042    -0.000293517         1.07321
LJ          -3.17956    -0.000152297         2.10234
LJ          -2.15124          -1.077         2.08488
LJ          -1.07689        -1.07689         1.07318
LJ      -0.000325986    -0.000325986         1.07318
LJ          -1.07698    -0.000240038         2.08466
LJ      -0.000240038        -1.07698         2.08466
LJ           1.07321        -1.07693         1.07321
LJ           2.08489     -0.00022343         1.07402
LJ           1.07402     -0.00022343         2.08489
LJ           2.10234        -1.07707         2.10234
LJ          -3.16231           1.074           1.074
LJ          -2.15121         2.08509           1.074
LJ          -3.19641         2.11919         2.11919
LJ          -2.15121           1.074         2.08509
LJ          -1.07693         1.07321         1.07321
LJ       -0.00022343         2.08489         1.07402
LJ          -1.07707         2.10234         2.10234
LJ       -0.00022343         1.07402         2.08489
LJ           1.07321         1.07321         1.07321
LJ            2.1024          2.1024         1.07448
LJ           1.07448          2.1024          2.1024
LJ            2.1024         1.07448          2.1024
