108
#Comment!
LJ          -3.22291        -3.22291        -3.22291
LJ          -2.15349        -2.15349        -3.21457
LJ          -3.21457        -2.15349        -2.15349
LJ          -2.15349        -3.21457        -2.15349
LJ          -1.07717        -3.21872        -3.21872
LJ      -7.98926e-05        -2.15345        -3.21443
LJ          -1.07711         -2.1532         -2.1532
LJ      -7.98926e-05        -3.21443        -2.15345
LJ           1.07642         -3.2188         -3.2188
LJ           2.14158        -2.15363         -3.2188
LJ           1.07603        -2.15324        -2.15324
LJ           2.14158         -3.2188        -2.15363
LJ          -3.21872        -1.07717        -3.21872
LJ          -2.15345    -7.98926e-05        -3.21443
LJ          -3.21443    -7.98926e-05        -2.15345
LJ           -2.1532        -1.07711         -2.1532
LJ          -1.07713        -1.07713        -3.21428
LJ      -8.51365e-05    -8.51365e-05        -3.21428
LJ           -1.0771    -0.000115802        -2.15315
LJ      -0.000115802         -1.0771        -2.15315
LJ           1.07624        -1.07714        -3.21443
LJ            2.1415    -5.44326e-05        -3.21872
LJ           1.07599    -0.000105286         -2.1532
LJ           2.13721        -1.07714        -2.15345
LJ           -3.2188         1.07642         -3.2188
LJ          -2.15363         2.14158         -3.2188
LJ           -3.2188         2.14158        -2.15363
LJ          -2.15324         1.07603        -2.15324
LJ          -1.07714         1.07624        -3.21443
LJ      -5.44326e-05          2.1415        -3.21872
LJ          -1.07714         2.13721        -2.15345
LJ      -0.000105286         1.07599         -2.1532
LJ           1.07628         1.07628        -3.21457
LJ           2.14569         2.14569        -3.22291
LJ           1.07628         2.13735        -2.15349
LJ           2.13735         1.07628        -2.15349
LJ          -3.21872        -3.21872        -1.07717
LJ           -2.1532         -2.1532        -1.07711
LJ          -3.21443        -2.15345    -7.98926e-05
LJ          -2.15345        -3.21443    -7.98926e-05
LJ          -1.07713        -3.21428        -1.07713
LJ      -0.000115802        -2.15315         -1.0771
LJ           -1.0771        -2.15315    -0.000115802
LJ      -8.51365e-05        -3.21428    -8.51365e-05
LJ           1.07624        -3.21443        -1.07714
LJ           2.13721        -2.15345        -1.07714
LJ           1.07599         -2.1532    -0.000105286
LJ            2.1415        -3.21872    -5.44326e-05
LJ          -3.21428        -1.07713        -1.07713
LJ          -2.15315    -0.000115802         -1.0771
LJ          -3.21428    -8.51365e-05    -8.51365e-05
LJ          -2.15315         -1.0771    -0.000115802
LJ          -1.07709        -1.07709        -1.07709
LJ      -0.000126341    -0.000126341        -1.07709
LJ          -1.07709    -0.000126341    -0.000126341
LJ      -0.000126341        -1.07709    -0.000126341
LJ           1.07594         -1.0771         -1.0771
LJ           2.13706    -8.51366e-05        -1.07713
LJ           1.07594    -0.000115802    -0.000115802
LJ           2.13706        -1.07713    -8.51366e-05
LJ          -3.21443         1.07624        -1.07714
LJ          -2.15345         2.13721        -1.07714
LJ          -3.21872          2.1415    -5.44326e-05
LJ           -2.1532         1.07599    -0.000105286
LJ           -1.0771         1.07594         -1.0771
LJ      -8.51366e-05         2.13706        -1.07713
LJ          -1.07713         2.13706    -8.51366e-05
LJ      -0.000115802         1.07594    -0.000115802
LJ           1.07599         1.07599        -1.07711
LJ            2.1415          2.1415        -1.07717
LJ           1.07624         2.13721    -7.98926e-05
LJ           2.13721         1.07624    -7.98926e-05
LJ           -3.2188         -3.2188         1.07642
LJ          -2.15324        -2.15324         1.07603
LJ           -3.2188        -2.15363         2.14158
LJ          -2.15363         -3.2188         2.14158
LJ          -1.07714        -3.21443         1.07624
LJ      -0.000105286         -2.1532         1.07599
LJ          -1.07714        -2.15345         2.13721
LJ      -5.44326e-05        -3.21872          2.1415
LJ           1.07628        -3.21457         1.07628
LJ           2.13735        -2.15349         1.07628
LJ           1.07628        -2.15349         2.13735
LJ           2.14569        -3.22291         2.14569
LJ          -3.21443        -1.07714         1.07624
LJ           -2.1532    -0.000105286         1.07599
LJ          -3.21872    -5.44326e-05          2.1415
LJ          -2.15345        -1.07714         2.13721
LJ           -1.0771         -1.0771         1.07594
LJ      -0.000115802    -0.000115802         1.07594
LJ          -1.07713    -8.51366e-05         2.13706
LJ      -8.51366e-05        -1.07713         2.13706
LJ           1.07599        -1.07711         1.07599
LJ           2.13721    -7.98926e-05         1.07624
LJ           1.07624    -7.98926e-05         2.13721
LJ            2.1415        -1.07717          2.1415
LJ          -3.21457         1.07628         1.07628
LJ          -2.15349         2.13735         1.07628
LJ          -3.22291         2.14569         2.14569
LJ          -2.15349         1.07628         2.13735
LJ          -1.07711         1.07599         1.07599
LJ      -7.98926e-05         2.13721         1.07624
LJ          -1.07717          2.1415          2.1415
LJ      -7.98926e-05         1.07624         2.13721
LJ           1.07603         1.07603         1.07603
LJ           2.14158         2.14158         1.07642
LJ           1.07642         2.14158         2.14158
LJ           2.14158         1.07642         2.14158
