108
#Comment!
LJ          -1.87887        -1.87887        -1.87887
LJ          -1.25169        -1.25169        -3.00349
LJ          -3.00349        -1.25169        -1.25169
LJ          -1.25169        -3.00349        -1.25169
LJ          -1.78068        -2.67822        -2.67822
LJ          0.744367        -3.11469         -4.0303
LJ         -0.637501        -2.28044        -2.28044
LJ          0.744367         -4.0303        -3.11469
LJ          0.281914        -3.04068        -3.04068
LJ           1.95833        -1.34642        -3.02684
LJ          0.835356        -1.89493        -1.89493
LJ           1.95833        -3.02684        -1.34642
LJ          -2.67822        -1.78068        -2.67822
LJ          -3.11469        0.744367         -4.0303
LJ           -4.0303        0.744367        -3.11469
LJ          -2.28044       -0.637501        -2.28044
LJ            -1.156          -1.156        -1.93165
LJ         0.0442501       0.0442501        -1.87101
LJ          -1.09314    -0.000452413        -1.90107
LJ      -0.000452413        -1.09314        -1.90107
LJ           2.01629        -1.80873        -4.01172
LJ           1.65388        0.731007        -2.71856
LJ           1.05073       -0.395919        -2.19118
LJ           2.94087        -1.80654        -3.09428
LJ          -3.04068        0.281914        -3.04068
LJ          -1.34642         1.95833        -3.02684
LJ          -3.02684         1.95833        -1.34642
LJ          -1.89493        0.835356        -1.89493
LJ          -1.80873         2.01629        -4.01172
LJ          0.731007         1.65388        -2.71856
LJ          -1.80654         2.94087        -3.09428
LJ         -0.395919         1.05073        -2.19118
LJ          0.111189        0.111189        -2.89075
LJ          0.765078        0.765078        -1.80136
LJ          0.255466         1.99709        -1.33107
LJ           1.99709        0.255466        -1.33107
LJ          -2.67822        -2.67822        -1.78068
LJ          -2.28044        -2.28044       -0.637501
LJ           -4.0303        -3.11469        0.744367
LJ          -3.11469         -4.0303        0.744367
LJ            -1.156        -1.93165          -1.156
LJ      -0.000452413        -1.90107        -1.09314
LJ          -1.09314        -1.90107    -0.000452413
LJ         0.0442501        -1.87101       0.0442501
LJ           2.01629        -4.01172        -1.80873
LJ           2.94087        -3.09428        -1.80654
LJ           1.05073        -2.19118       -0.395919
LJ           1.65388        -2.71856        0.731007
LJ          -1.93165          -1.156          -1.156
LJ          -1.90107    -0.000452413        -1.09314
LJ          -1.87101       0.0442501       0.0442501
LJ          -1.90107        -1.09314    -0.000452413
LJ         -0.949722       -0.949722       -0.949722
LJ        -0.0758698      -0.0758698       -0.813193
LJ         -0.813193      -0.0758698      -0.0758698
LJ        -0.0758698       -0.813193      -0.0758698
LJ          0.609072        -1.03189        -1.03189
LJ          0.911716       0.0401857        -1.12191
LJ          0.768838      -0.0122356      -0.0122356
LJ          0.911716        -1.12191       0.0401857
LJ          -4.01172         2.01629        -1.80873
LJ          -3.09428         2.94087        -1.80654
LJ          -2.71856         1.65388        0.731007
LJ          -2.19118         1.05073       -0.395919
LJ          -1.03189        0.609072        -1.03189
LJ         0.0401857        0.911716        -1.12191
LJ          -1.12191        0.911716       0.0401857
LJ        -0.0122356        0.768838      -0.0122356
LJ           1.02684         1.02684       -0.609259
LJ           1.62022         1.62022         -1.7731
LJ           2.02305         2.94798        0.737421
LJ           2.94798         2.02305        0.737421
LJ          -3.04068        -3.04068        0.281914
LJ          -1.89493        -1.89493        0.835356
LJ          -3.02684        -1.34642         1.95833
LJ          -1.34642        -3.02684         1.95833
LJ          -1.80873        -4.01172         2.01629
LJ         -0.395919        -2.19118         1.05073
LJ          -1.80654        -3.09428         2.94087
LJ          0.731007        -2.71856         1.65388
LJ          0.111189        -2.89075        0.111189
LJ           1.99709        -1.33107        0.255466
LJ          0.255466        -1.33107         1.99709
LJ          0.765078        -1.80136        0.765078
LJ          -4.01172        -1.80873         2.01629
LJ          -2.19118       -0.395919         1.05073
LJ          -2.71856        0.731007         1.65388
LJ          -3.09428        -1.80654         2.94087
LJ          -1.03189        -1.03189        0.609072
LJ        -0.0122356      -0.0122356        0.768838
LJ          -1.12191       0.0401857        0.911716
LJ         0.0401857        -1.12191        0.911716
LJ           1.02684       -0.609259         1.02684
LJ           2.94798        0.737421         2.02305
LJ           2.02305        0.737421         2.94798
LJ           1.62022         -1.7731         1.62022
LJ          -2.89075        0.111189        0.111189
LJ          -1.33107         1.99709        0.255466
LJ          -1.80136        0.765078        0.765078
LJ          -1.33107        0.255466         1.99709
LJ         -0.609259         1.02684         1.02684
LJ          0.737421         2.94798         2.02305
LJ           -1.7731         1.62022         1.62022
LJ          0.737421         2.02305         2.94798
LJ          0.758404        0.758404        0.758404
LJ           1.95826         1.95826        0.278347
LJ          0.278347         1.95826         1.95826
LJ           1.95826        0.278347         1.95826
