108
#Comment!
LJ          -3.27936         -3.2305        -3.26226
LJ           -1.4247        -1.40873        -4.55905
LJ          -4.54955        -1.36968        -1.39369
LJ          -1.40538        -4.57129        -1.41319
LJ         -0.626465        -2.23386        -2.07591
LJ          0.758833       -0.630766        -2.97094
LJ          0.273923       -0.995482        -1.08874
LJ          0.886018        -2.97579       -0.648872
LJ           1.63178        -2.14808        -2.05804
LJ           1.81353        0.325426       -0.797141
LJ           -6.4202               5         5.00039
LJ            1.7834       -0.914474         0.37718
LJ          -1.94996       -0.917622        -2.06995
LJ         -0.543914        0.807621        -2.82553
LJ          -2.87416        0.686418       -0.605351
LJ          -1.10583        0.301298       -0.985598
LJ         -0.848709         -0.8319        -3.10015
LJ       -0.00814542       0.0685872       -0.742155
LJ          -1.57672        0.677441        -2.48264
LJ          0.494913        -1.56881        -2.47667
LJ           2.04832         -1.1925        -2.56601
LJ           1.18461        -1.12037        -1.76433
LJ         -0.390466        -1.01528        -2.01277
LJ           5.92248        -3.71505        -4.55279
LJ          -2.07446         1.70572        -2.20054
LJ           0.35131         1.83422        -1.02683
LJ         -0.884698         1.76767        0.307557
LJ           4.99822        -6.41778         4.99804
LJ          -1.23601         1.99426        -2.60107
LJ          -1.07118         1.26752         -1.8113
LJ          -3.71532         5.92294        -4.55278
LJ         -0.991733      -0.0579348        -1.96316
LJ        -0.0490968       -0.138125        -2.42883
LJ            0.7101         0.73925        -2.32162
LJ         -0.127482         1.69898         -2.1148
LJ           1.54317       -0.068524         -2.4046
LJ           -1.9878        -2.18493       -0.788802
LJ          -1.14025       -0.971109        0.319681
LJ          -2.89985        -0.69735        0.654552
LJ         -0.618886        -2.88274        0.837391
LJ          -0.80416        -3.06441       -0.811017
LJ          0.551944        -2.44303        -1.54479
LJ           -1.5891        -2.44985        0.684677
LJ       -0.00329756       -0.783152       0.0215675
LJ           2.07654         -2.6173        -1.23129
LJ           5.92261        -4.55296        -3.71556
LJ          -0.34915        -1.88355        -1.07348
LJ           1.19401         -1.7799        -1.07926
LJ          -3.19652       -0.785997       -0.800043
LJ          -2.42873        0.590462        -1.56228
LJ         -0.674485        0.114492        0.100962
LJ           -2.3693        -1.62442        0.516804
LJ         -0.727198       -0.668857        -0.67174
LJ          0.902566         0.94471       -0.127035
LJ        -0.0716087        0.840028        0.813219
LJ          0.938436      -0.0961969        0.964698
LJ          0.939531       -0.243187       -0.191724
LJ          0.942664       -0.193536        -1.25993
LJ           1.73654       -0.820322       -0.781892
LJ          0.915369        -1.33712       -0.215189
LJ          -2.57905         2.05275        -1.22467
LJ          -4.55269         5.92269        -3.71517
LJ          -1.81626         1.32022        -1.15504
LJ           -2.0438       -0.281497        -1.03625
LJ         -0.213325         1.04229       -0.258656
LJ         -0.271287        0.965002        -1.31807
LJ          -1.32392        0.952965       -0.259168
LJ         -0.796735         1.79363       -0.839793
LJ           3.26805         3.27049         2.36995
LJ           3.90811         3.90823         1.79397
LJ          -1.27865         3.22804         -5.9278
LJ           3.22761        -1.27862        -5.92802
LJ          -2.03959        -2.20113         1.65516
LJ           4.99972         4.99916        -6.41932
LJ         -0.788232        0.341864           1.763
LJ          0.337779        -1.02883          1.8158
LJ          -1.24492        -2.64614          2.0573
LJ         -0.952829        -1.90602       -0.147035
LJ          -3.71559        -4.55299         5.92296
LJ          -1.07989        -1.80416         1.25555
LJ        -0.0882459         -2.5922       -0.117276
LJ           1.55237        -2.27092      -0.0826757
LJ         -0.117812        -2.20673         1.67416
LJ          0.789045        -2.34294        0.738021
LJ          -2.53741        -1.18005         2.04809
LJ          -2.00245        -1.03062       -0.399794
LJ          -1.78289        -1.11639         1.28909
LJ          -4.55262        -3.71506         5.92239
LJ         -0.174443       -0.301905        0.985853
LJ         -0.791149        -0.79495         1.77388
LJ          -1.25243       -0.211412        0.979305
LJ         -0.286231        -1.34639        0.897942
LJ           3.26962         2.36762         3.26916
LJ           3.22873        -5.92918        -1.27893
LJ          -1.27894        -5.92846         3.22817
LJ           3.90783         1.79152          3.9077
LJ          -2.31272      -0.0682786      -0.0339811
LJ          -2.25853         1.65845       -0.119563
LJ          -2.33818        0.843027        0.803176
LJ          -2.43453       -0.102895         1.56484
LJ           2.36946         3.27098         3.26799
LJ            -5.925         3.22604        -1.27928
LJ           1.79404          3.9084         3.90843
LJ          -5.92714        -1.27882         3.22788
LJ           5.53281         5.49092         5.51805
LJ           3.06511         3.04142       -0.378404
LJ         -0.401458         3.07018         3.08461
LJ           3.08518       -0.350397         3.01459
