108
#Comment!
LJ           4.06674       -0.780183          1.7265
LJ         -0.431014         3.32178        -0.65952
LJ          0.344245        -1.93509         1.25443
LJ         -0.634109          1.4679         -1.8892
LJ          0.765914        0.911566         3.26313
LJ          0.342307        -2.33364        -1.26396
LJ         0.0268915        0.550789        -1.00573
LJ          0.892748        -1.51639        -1.58827
LJ           1.39845        -1.37421         2.76855
LJ           0.50808       -0.810494         1.67304
LJ         -0.222984          1.9311         3.41706
LJ          0.292928        0.770259         1.29492
LJ         -0.173963       -0.449275       -0.195321
LJ           2.11326         3.62943       -0.354764
LJ        -0.0177508        -2.71654       -0.195399
LJ         -0.831215         -1.4063        0.275623
LJ          -5.86963        -1.26896        -4.78822
LJ          0.765525         1.10174        0.323052
LJ        -0.0179547         4.53903        -5.98583
LJ          0.375851       -0.610561         -1.3317
LJ          -1.16965        0.217363         4.70472
LJ            1.0456         1.60523        -1.89647
LJ           3.40512        0.508702       -0.315783
LJ           -3.6406        -1.39707        -1.95291
LJ           1.49345         -2.4184         5.53582
LJ          0.099611         1.99521        -1.33255
LJ         -0.782673       -0.531959        -1.16286
LJ          0.438387         6.14361        -1.49376
LJ            1.7824         2.16902         1.71334
LJ          0.254703        -1.73775        0.256634
LJ          0.498802        -1.55169         3.73651
LJ           4.43076         2.27332          5.8562
LJ          0.218961        -3.44189       -0.939672
LJ           1.02598       -0.325005        -2.39547
LJ         0.0633329         1.90717        0.809429
LJ           2.38907        0.530376       -0.973452
LJ            1.7667        -1.27691       -0.574413
LJ           1.13864        -3.12368          -1.486
LJ          0.657551       -0.126221        0.750127
LJ           1.40884        0.590532        -1.71224
LJ           1.05811         1.72792       -0.635737
LJ         -0.626684       -0.839964         1.63645
LJ        -0.0530393        -2.81513        -2.27362
LJ         -0.341506        0.483703          0.4359
LJ            2.8182        -1.25943          2.7008
LJ          -6.21381        -4.63052        -4.55486
LJ            3.0052       -0.382962         2.08086
LJ            3.2582        -1.54747         1.70228
LJ          0.680803         -1.7437        -2.74219
LJ          -1.67569          1.2884          2.0588
LJ            1.2338        0.820533         2.19271
LJ         -0.155508         1.99665        -2.96687
LJ           2.80806        -5.34905        -2.34807
LJ         -0.714961         1.89193         1.82844
LJ           2.28214       -0.397577         1.20243
LJ           2.88905       -0.228922        0.107652
LJ           1.84087       0.0308596       -0.184575
LJ           1.05435        -2.18988       -0.537321
LJ           0.50844       -0.925653         2.69599
LJ            3.8714       -0.582891        0.405003
LJ           1.23247        0.744247       -0.645667
LJ          -3.60969         5.48873        -4.66443
LJ           2.07509       -0.753744         2.18735
LJ         -0.571238         2.63353        -1.84993
LJ           2.57766        0.831052        0.112522
LJ          0.707126       -0.138013       -0.450529
LJ          0.404921        -2.16765         2.64228
LJ           1.95101         1.47629       -0.982529
LJ          0.833832         3.72253        -2.71496
LJ           0.15215         1.33822         2.41326
LJ          0.363487         1.17732         -6.3345
LJ           2.07979         1.85325         2.84787
LJ         -0.136582       -0.874622        0.770436
LJ           1.77564         1.52366        0.111615
LJ          -1.10594       -0.377142         0.61108
LJ           1.26992      -0.0505317         1.64079
LJ           1.47904       -0.848164        0.426659
LJ         -0.146144         1.25059       -0.241942
LJ            1.3007        -0.96926         4.17041
LJ            1.3003        -1.37006          1.4542
LJ           1.39285       -0.374879        -1.28689
LJ          0.686163        -1.14301       -0.432611
LJ           1.76539        0.631512        0.746679
LJ           2.41826        -1.81216        0.981518
LJ           1.01618         1.61875         1.33784
LJ           -1.4153        0.720638        0.642747
LJ         -0.955536        -2.63001         1.42476
LJ          0.256225        0.833274         -2.0496
LJ          0.356456        0.183307         2.32692
LJ         -0.391736        -1.82734         1.99165
LJ          0.146277         2.36813       -0.171704
LJ         -0.918793         1.91055        0.134288
LJ         -0.407576        0.899041         3.54771
LJ         -0.406374        -1.51442        -2.07853
LJ         -0.172884        -1.45109         -0.9242
LJ          0.921647         1.66822        -3.02379
LJ          -1.28609        0.641672       -0.668644
LJ          0.108137         2.91055         2.65729
LJ          0.148752        -5.13527         2.98443
LJ            5.7738         2.50982        -5.83416
LJ          -0.19484         4.38008       0.0605827
LJ        -0.0231192       -0.189309        -2.16799
LJ           1.24194         2.53137        -1.35314
LJ          -4.75073       -0.300191        -3.88832
LJ           1.16663         3.21645       -0.437398
LJ         -0.423654        -3.71833        0.463205
LJ           1.40095        -2.03518        0.578741
LJ         -0.963559         -3.2979         2.72831
