108
#Comment!
LJ          -2.00998          -1.069       -0.260869
LJ          -4.42677        -4.42449         -5.6797
LJ          -5.08294        -4.32227        -4.06444
LJ          -4.58954        -5.31138         -4.4135
LJ           1.31916        -2.64591        -1.51355
LJ          -0.65764        0.380899        -2.45508
LJ           1.07901        -1.77148        -1.09513
LJ          0.911601         -2.7832       -0.430984
LJ       -0.00538244         -1.5752        -2.11078
LJ           1.58811       0.0522232       0.0534263
LJ           4.39537         3.14801         3.50197
LJ           1.65924        -1.15415         1.48289
LJ          -1.58915        -1.02983        -2.36466
LJ         0.0411044         2.65055        -2.31092
LJ          -2.37882        0.735008        0.519858
LJ          -1.13702         2.16747       -0.675519
LJ          -1.33218      -0.0512512        -1.84305
LJ          0.615697        0.257618        0.302479
LJ          -1.43905        0.819985        -2.91938
LJ           -1.0392       -0.943033        -1.42345
LJ          0.944607        -1.76972        -2.55621
LJ           1.03852       -0.854003        -1.61141
LJ         0.0614679       -0.581817        -1.29773
LJ            5.0921        -2.85606          6.1999
LJ         -0.945973         1.62153        -5.46071
LJ          0.855852         1.81817         -1.7157
LJ         0.0863264         1.88906       -0.542476
LJ           4.47715        -3.70799         4.51316
LJ         -0.684802         1.53189        -2.57762
LJ           -1.0868          2.3291        -1.86809
LJ          -2.84914          4.9611         6.21616
LJ         -0.119682        0.423773        -1.52944
LJ         -0.101368        0.844584        -3.39838
LJ          0.323045         1.00664        -2.39684
LJ         -0.229436         1.50498        -1.54657
LJ          0.476208       -0.261542        -2.39988
LJ         -0.845513        -2.25072       -0.785221
LJ          -1.98387        -0.91688         1.52033
LJ          -2.20992        0.268428         1.59634
LJ          0.655777        -2.39952        0.846262
LJ         -0.894986        -1.20161       -0.508198
LJ          0.226715         -2.5903           -1.35
LJ          -0.63442        -2.25725         1.21215
LJ        0.00624424       -0.592327        0.136344
LJ          0.875168        -3.84895       -0.711571
LJ           5.88851         5.49698        -2.83957
LJ          0.078751          -1.552       -0.915654
LJ           1.87933       -0.884962       -0.761029
LJ          -1.28178        0.883628       -0.902798
LJ            -1.371         1.14185        -1.84063
LJ        -0.0211472      -0.0848272         1.14635
LJ          -1.36774        -1.53477        0.610907
LJ         -0.692301       -0.127771        -0.61104
LJ           1.06418        0.996304       -0.668222
LJ          0.952301        0.530153         1.30903
LJ            1.0507       -0.796985        0.544808
LJ          0.808969        -0.65265       -0.435999
LJ          0.942687        0.187103        -1.34394
LJ           1.88557       -0.205897        -1.58707
LJ          0.756137        -1.60695       0.0725288
LJ          -2.74995       -0.944368        -1.17349
LJ           5.89687         5.33996        -5.32363
LJ           -2.5057         1.25887        -1.47026
LJ          -1.86213       -0.267543       -0.939834
LJ          0.907805         1.28092        0.330891
LJ        -0.0259848          0.9054       -0.605444
LJ         -0.393975        0.397353         0.29228
LJ          -1.03629         1.32029        0.129047
LJ           3.50096         5.08626         1.75906
LJ           4.46384         4.36847         3.42554
LJ          -3.49885           3.546         5.18532
LJ           3.46479        -3.61311         5.17116
LJ          -1.35263        -2.54337        0.187598
LJ           3.47061          2.7319         3.79528
LJ         -0.720419         1.03131          1.6979
LJ          0.610574       -0.355633         1.83687
LJ          -1.20789        -3.29212         1.21819
LJ         -0.751574       -0.891232         1.24572
LJ           -2.6587         6.24794          5.2771
LJ          -2.21376         -2.0218         1.50982
LJ         -0.404947        -1.72385         0.21983
LJ           1.62352        -1.92609         0.58883
LJ       -0.00405474        -2.08516         2.17974
LJ          0.338084        -1.35625         1.12378
LJ          -2.39385       -0.392651        0.527027
LJ          -1.30824       -0.495393        0.168013
LJ          -2.47283        -3.13796          1.1766
LJ           6.23149        -2.79537         5.10411
LJ         -0.656367        -0.21907         2.01543
LJ          -1.20014          -1.545          1.9657
LJ         0.0913468         1.01811         0.97409
LJ         -0.336267        -1.03228         2.71041
LJ          0.872891        -1.72968         2.51935
LJ           3.47002         5.15788        -3.58736
LJ          -3.53313           5.168         3.52466
LJ           5.63485         2.62484         5.98074
LJ          -1.22768        0.274994        0.976854
LJ          -2.08347         1.60576        -0.11943
LJ         -0.404093         2.53169       0.0476693
LJ          -2.87874        -2.17504        0.408633
LJ           2.34586         5.29288         4.70623
LJ           5.28065          3.6339        -3.35653
LJ           3.14417         4.38116         4.70408
LJ           5.12378        -3.56291         3.60072
LJ           3.25648         3.94124         3.42429
LJ          -5.22512        -5.51824        -2.09663
LJ          -3.68276         -5.6949        -5.59958
LJ          -3.50383        -3.31975        -5.03495
