108
#Comment!
LJ          -2.97454        -2.97454        -2.97454
LJ         -0.923046       -0.923041        -3.28232
LJ          -3.28232       -0.923053       -0.923045
LJ          -0.92304        -3.28233       -0.923048
LJ          -1.09042         -2.2911        -2.29109
LJ          0.301784        -1.26355        -3.60078
LJ         -0.592653        -1.45251        -1.45251
LJ          0.301785        -3.60078        -1.26355
LJ          0.444966        -2.04291        -2.04291
LJ           2.16848        0.219199        -1.28383
LJ           2.21088         5.09998         5.09998
LJ           2.16847        -1.28383        0.219192
LJ           -2.2911        -1.09041        -2.29112
LJ          -1.26355        0.301786        -3.60079
LJ          -3.60078        0.301792        -1.26355
LJ          -1.45251       -0.592643         -1.4525
LJ         -0.713387       -0.713387        -2.27842
LJ        -0.0210769      -0.0210746        -1.51391
LJ          -1.50226       -0.196896        -2.67598
LJ         -0.196918        -1.50226        -2.67598
LJ           1.13823      -0.0549531         -2.8373
LJ           1.95268        -1.00511        -1.93257
LJ          0.505082       -0.790862         -2.2513
LJ           2.92064       -0.958747        -2.18912
LJ          -2.04291        0.444988        -2.04291
LJ           0.21919         2.16847        -1.28383
LJ          -1.28382         2.16848         0.21919
LJ           5.09998         2.21088         5.09998
LJ        -0.0549615         1.13822        -2.83729
LJ           -1.0051         1.95269         -1.9326
LJ         -0.958752         2.92066        -2.18913
LJ         -0.790854        0.505077        -2.25131
LJ         -0.091786      -0.0917949        -2.95399
LJ          0.748255        0.748261        -1.85654
LJ          0.302275         2.11399        -2.48876
LJ           2.11399        0.302262        -2.48874
LJ          -2.29108        -2.29109        -1.09042
LJ           -1.4525        -1.45249        -0.59263
LJ          -3.60078        -1.26354        0.301783
LJ          -1.26356        -3.60079        0.301791
LJ         -0.713384        -2.27842       -0.713385
LJ         -0.196911        -2.67597        -1.50226
LJ          -1.50225        -2.67598       -0.196909
LJ        -0.0210727        -1.51392      -0.0210741
LJ           1.13821         -2.8373      -0.0549625
LJ           2.92066        -2.18913       -0.958759
LJ          0.505092        -2.25131       -0.790858
LJ            1.9527        -1.93258        -1.00508
LJ          -2.27843       -0.713391       -0.713383
LJ          -2.67598       -0.196904        -1.50226
LJ          -1.51391      -0.0210803      -0.0210841
LJ          -2.67598        -1.50226       -0.196904
LJ         -0.730576        -0.73059       -0.730586
LJ          0.522225        0.522277       -0.796731
LJ         -0.796724        0.522251        0.522228
LJ          0.522253       -0.796762        0.522279
LJ          0.392624       -0.697935       -0.697944
LJ           1.16854       -0.161265        -1.72148
LJ           1.49018       -0.844314       -0.844315
LJ           1.16855        -1.72148       -0.161263
LJ           -2.8373         1.13822      -0.0549603
LJ          -2.18913         2.92066       -0.958749
LJ           -1.9326         1.95268         -1.0051
LJ          -2.25131        0.505071       -0.790854
LJ         -0.697992        0.392623       -0.697979
LJ         -0.161269         1.16854        -1.72147
LJ          -1.72147         1.16853       -0.161274
LJ         -0.844313         1.49017       -0.844311
LJ           1.46178         1.46178        0.682588
LJ           1.28624         1.28624       -0.388269
LJ           1.44016         2.35521        -2.89682
LJ           2.35521         1.44016        -2.89682
LJ          -2.04292        -2.04292        0.444974
LJ           5.09998         5.09998         2.21088
LJ          -1.28382        0.219194         2.16849
LJ          0.219189        -1.28383         2.16846
LJ        -0.0549698         -2.8373         1.13822
LJ         -0.790855         -2.2513        0.505073
LJ          -0.95876        -2.18914         2.92067
LJ          -1.00508        -1.93258          1.9527
LJ        -0.0917935        -2.95402      -0.0917963
LJ           2.11399        -2.48876        0.302264
LJ          0.302274        -2.48877         2.11399
LJ          0.748255        -1.85652        0.748261
LJ          -2.83731       -0.054954         1.13822
LJ          -2.25129       -0.790863         0.50508
LJ          -1.93259        -1.00511         1.95268
LJ          -2.18912       -0.958747         2.92064
LJ          -0.69797       -0.697957        0.392623
LJ          -0.84431       -0.844312         1.49017
LJ          -1.72147       -0.161259         1.16854
LJ         -0.161269        -1.72148         1.16855
LJ           1.46176        0.682591         1.46176
LJ           2.35521        -2.89682         1.44016
LJ           1.44016        -2.89682         2.35521
LJ           1.28626       -0.388253         1.28624
LJ          -2.95399      -0.0917962      -0.0917869
LJ          -2.48875         2.11399         0.30226
LJ          -1.85655        0.748261        0.748252
LJ          -2.48875        0.302255         2.11399
LJ          0.682593         1.46179         1.46178
LJ          -2.89682         2.35521         1.44016
LJ          -0.38826         1.28623         1.28624
LJ          -2.89681         1.44016         2.35521
LJ           4.59143         4.59143         4.59143
LJ           1.96787         1.96787        -1.23671
LJ          -1.23671         1.96787         1.96787
LJ           1.96788        -1.23671         1.96788
