108
#Comment!
LJ           2.79678        0.617963         1.67772
LJ           2.54937        -3.50008       -0.921926
LJ         -0.747128        -1.05423        0.559999
LJ          -2.56122        0.785006       -0.344457
LJ           1.43459         -2.0588         2.39553
LJ            1.8535         1.71988        -1.57243
LJ           2.28441         1.21646        0.698231
LJ           1.51921        0.374967        -1.62595
LJ           1.13425        -0.26534        0.905669
LJ          0.836771        -3.61546        0.397089
LJ          -2.36368         2.02779         1.90032
LJ           1.56066         1.54753         2.89756
LJ          -1.10702        -1.22803       -0.435961
LJ           2.59619        -1.13252       -0.354822
LJ         -0.719054        0.128295         2.83637
LJ         0.0426828        0.741322         2.19673
LJ          0.186828        -2.64466        -1.68411
LJ         -0.365828        0.968268        0.637593
LJ          0.519292         1.99778          2.7291
LJ         -0.615119        0.164276        -1.29508
LJ          0.800378         -2.6865         1.81678
LJ           1.14732         1.11516       -0.998626
LJ           2.15972        -1.75055        -1.43004
LJ            -6.324         2.87932          5.5031
LJ           6.42115       -0.547613         5.22758
LJ          -2.41364         1.65086        0.231186
LJ          -3.11193        -5.74039        -1.11469
LJ          0.273989        -5.06626         0.20052
LJ           2.47546         2.24794           2.656
LJ          -3.19417        0.175653         1.24618
LJ         -0.437215      -0.0364856         1.79682
LJ          -4.09328        -5.88611         1.58643
LJ        -0.0356018        -1.07144        -1.70902
LJ           1.64979       -0.880479        -1.13517
LJ          -1.50468         2.28069        0.917728
LJ          0.578488        -1.30073       -0.617822
LJ           0.37441        -2.25451        0.892808
LJ          0.416811        -1.27845        -2.58735
LJ          -2.04206      -0.0602602         2.21717
LJ           1.73319        0.844659      -0.0620925
LJ           1.24685         1.24262        0.764851
LJ          0.502192        -1.25524         1.55564
LJ          -1.04247       -0.969979        -1.42082
LJ          -1.70288       -0.276236        0.147223
LJ           1.61563        0.493565         1.41088
LJ         -0.362624         -4.2292         4.71655
LJ           1.63503        -1.23725        0.263184
LJ           2.56882        0.212096        0.474569
LJ          -1.68319       0.0168802       -0.956217
LJ          -1.11452        0.452236         1.08483
LJ         -0.463576          1.8593         3.02332
LJ         -0.605398            1.17        -1.10737
LJ          -3.55342        -3.03892       -0.381622
LJ         -0.515383         2.37527        -1.02565
LJ          0.955476         1.29936         2.05037
LJ           1.83542        0.331539         2.44366
LJ          0.656071        0.342579        0.233136
LJ          0.592579       -0.275285        -2.12053
LJ           1.74119          -1.588         1.44141
LJ           3.61037        0.432464        0.740577
LJ          0.510468         1.50855       -0.012746
LJ           4.06914         3.48519        -3.67432
LJ         -0.198757        -2.04833         2.08749
LJ          -1.29691      -0.0782972        -2.03746
LJ         -0.870422         2.07285       0.0162079
LJ         -0.390616        0.527633        -2.80479
LJ           2.20193       -0.396094         1.39641
LJ           2.21972         1.91224         1.59941
LJ          -4.02173         1.19476        -4.65091
LJ          -0.38649         2.30892         1.48609
LJ          -3.90226       -0.528689         6.42702
LJ           3.38026       -0.622018         1.68859
LJ          0.536371        0.597456         1.34284
LJ          0.653515         2.07415         1.01647
LJ          -2.38613        0.881808         2.01419
LJ           1.17121       0.0164713         3.39481
LJ         0.0206745       -0.471335       -0.181442
LJ          0.135992        0.655237       -0.608492
LJ          0.357816         4.42375         4.87015
LJ          0.537088        -1.13743        0.431203
LJ          0.261827        0.739949        -1.79145
LJ          0.844579       -0.172574       -0.833216
LJ           1.41207       -0.811794         2.11952
LJ         -0.111627      -0.0463183        0.816898
LJ           1.43785         2.40704         2.12862
LJ          -2.01657        0.846665        0.649918
LJ         -0.816776       -0.908451            2.35
LJ         -0.719619         1.26753        -2.18756
LJ          0.825577       0.0410877          2.1712
LJ          0.164968       -0.510884         2.81173
LJ          -1.09911         1.36149         2.04069
LJ          0.275037         1.00907         3.14707
LJ          0.903163        -1.34582         2.95292
LJ           0.39828        -4.28524         -2.4651
LJ          -3.72946         1.04507        0.483571
LJ           2.18858        -2.37565       -0.479404
LJ         -0.932295        0.270156       -0.205091
LJ           1.27709         2.12342       -0.794553
LJ            1.5836       -0.307657       -0.120135
LJ           4.39788       0.0133064        -5.38716
LJ           1.96252         2.38946        0.664377
LJ          -1.51344         1.22589       -0.467414
LJ           3.08091         3.42152        0.549606
LJ           -3.2625        -1.12067          5.8425
LJ           2.09556       -0.497246        -2.00467
LJ           1.34368        -2.25908        -1.13317
LJ          -5.39661         4.86667        -4.75442
LJ          0.568093         4.91679        -1.30895
