108
#Comment!
LJ             3.907       -0.528952         1.66157
LJ          0.140824         3.56491        -1.06363
LJ          0.376441        -1.83409         1.29732
LJ          -0.61752        0.815323        -1.82213
LJ          0.798768        0.905516         3.02052
LJ          0.252146        -2.08416        -1.71826
LJ           0.61115        0.699425        -1.48926
LJ          0.568616       -0.971567        -1.99989
LJ           1.15286         -1.4646          2.9664
LJ          0.593417       -0.765439         1.54404
LJ         -0.181968         1.94546          3.0087
LJ          0.208613        0.818718          1.5062
LJ         -0.509219       -0.673224       -0.134971
LJ           2.29903         2.75549        0.179959
LJ          -0.55459        -2.77432       -0.119194
LJ         -0.983432        -1.55461        0.280462
LJ          -5.28767        -1.08027        -4.33552
LJ          0.773054         0.88674        0.218529
LJ         0.0466104         4.43982        -6.41579
LJ         0.0321101        -0.56049        -1.19106
LJ         -0.893034        0.128625         5.05854
LJ           1.02457          1.6926        -1.38713
LJ            3.8066        0.724366       -0.564037
LJ          -4.00203        -1.06182        -2.09714
LJ           1.86185        -3.24567          5.5164
LJ        -0.0603963         1.84955        -1.34298
LJ          -1.11199       -0.684113        -1.24569
LJ           1.43866         6.21676        -1.41493
LJ           1.97448         2.04372         1.71153
LJ         0.0365809        -1.91574        0.407878
LJ         -0.402585        -1.72826         3.29966
LJ           4.58061         2.78414         6.42678
LJ       -0.00717982        -4.14353       -0.580895
LJ           1.13963       -0.174028        -2.17672
LJ          -0.25109         1.22497        0.546708
LJ           2.23571        0.160205        -1.04119
LJ           1.92831        -1.52577       -0.564912
LJ           1.03346        -2.90905       -0.872466
LJ          0.882647      0.00364516        0.826236
LJ            1.7739        0.816783        -2.04254
LJ          0.922024         1.78768       -0.324627
LJ         -0.672838       -0.266581         2.04758
LJ         -0.546399        -2.76757        -2.63937
LJ           -0.3124        0.276126        0.162728
LJ           3.39142        -1.17015         2.45028
LJ          -5.77965        -4.60507        -4.82854
LJ           2.86592       -0.564019         1.65729
LJ           3.27921        -1.51174         1.13892
LJ          0.103264        -1.70597         -2.7758
LJ          -1.15995         1.02896         1.93574
LJ           1.36889         1.16302         2.14205
LJ         -0.291446         1.67306        -2.53833
LJ           3.30671        -5.11597        -2.22578
LJ         -0.262342         1.76947         1.56421
LJ            1.7857       -0.455865          1.2574
LJ           3.10548       -0.279703        0.355079
LJ           1.41732     -0.00185268       -0.152584
LJ          0.932821         -1.8385        -0.54011
LJ          0.284571       -0.815476         2.88976
LJ           4.04242        -1.02433         0.74923
LJ           1.42323        0.904432       -0.745881
LJ          -3.04289         5.34259        -4.59794
LJ           2.04709       -0.567681         2.54502
LJ          -1.07732         2.31776        -2.00305
LJ           2.25401        0.729736       -0.183469
LJ          0.476528        0.156778       -0.480579
LJ          0.534844         -2.1735         2.33192
LJ           2.37843         1.25387        -1.08347
LJ          0.572358         4.20308        -2.48992
LJ         -0.190528         1.09316         2.48465
LJ        0.00886052          0.9918        -6.45622
LJ           1.71872         1.83079         2.81588
LJ         -0.361486       -0.945302         1.02548
LJ           1.67921          2.1353        0.581933
LJ          -1.06134       -0.304418        0.630737
LJ           1.28213      0.00639858         1.99782
LJ           1.24258        -1.08639        0.527591
LJ         0.0776505         1.18849       -0.404402
LJ          0.782065       -0.603378         3.85526
LJ           1.52982        -1.45598         1.62516
LJ           1.11893       -0.509001        -1.06809
LJ          0.433744       -0.901058       -0.227126
LJ           1.85086        0.579266        0.783318
LJ           2.29131        -1.34497        0.709892
LJ           1.10738         1.43665         1.15479
LJ          -1.24684        0.998925         0.94104
LJ         -0.487754        -2.30935          1.1724
LJ          0.374037         0.73816         -2.5427
LJ          0.304743        0.168453         2.46888
LJ         -0.500888        -1.65961         2.08756
LJ         -0.141008         2.22371       -0.111511
LJ         -0.956457         2.90564        0.374029
LJ         -0.110096        0.571661         3.44083
LJ          -0.41166        -1.19317        -1.92358
LJ          -0.29709        -1.58938       -0.846996
LJ           1.07475         1.60461        -2.79715
LJ         -0.872415        0.422504       -0.910466
LJ        -0.0585083         3.24098         2.56211
LJ          0.631343        -4.86357          2.6354
LJ           5.83533         2.15837        -5.73278
LJ          0.187091         4.14117        0.151734
LJ          -0.25143       -0.131554        -2.21414
LJ           1.39763         3.16256          -1.278
LJ          -4.02199        -0.38702        -4.26128
LJ          0.944691         2.86858       -0.054244
LJ           0.20432        -3.50373         0.76188
LJ           1.04259        -2.13907        0.529928
LJ          -1.94252         -3.6166         2.49881
