108
#Comment!
LJ         -0.720301        -2.04254        -0.14162
LJ          -5.50698         4.99286        -1.68586
LJ            1.6829         3.64535        -2.80573
LJ           1.99498         2.77809        -3.38432
LJ           1.24705        -1.61754       -0.952632
LJ          0.148718         2.47484       -0.203337
LJ           1.12154        -1.84369        0.190677
LJ           0.63001        -2.67713        0.814469
LJ           1.39175        -2.66885       -0.416145
LJ           1.60028       -0.100327       -0.565058
LJ           1.51134         1.63105        0.675763
LJ           1.12121       -0.882032         1.99434
LJ          -1.28125       -0.742338         -1.8178
LJ          0.416562         1.56053        -1.84771
LJ         -0.203057         2.01067        0.757575
LJ         -0.282332           3.279        0.976635
LJ          -1.17615         1.18346       -0.933955
LJ        -0.0320257       0.0439656        0.727738
LJ         -0.719925          3.2678       -0.176466
LJ         0.0109582        -0.53768         -1.3708
LJ           1.08945       -0.673702        -1.39376
LJ          0.204744        -1.03638         -0.2383
LJ          -1.07547        0.154745        -2.25072
LJ          0.726452         4.22814         4.08114
LJ          -3.04749         6.29879       -0.238837
LJ          -0.52849         2.14043        -1.96802
LJ          0.605772         2.32242        -2.64722
LJ           4.54029         1.66215         1.12088
LJ          0.596427         3.79696       -0.619872
LJ           1.86795         5.53858        -1.61129
LJ          -1.76526        0.375698           1.377
LJ          0.341452        0.571176        -2.38446
LJ         -0.267403        0.614025         -3.3732
LJ          0.867542        0.730031        -1.25773
LJ           0.23813         1.04698        0.476273
LJ         -0.223776        0.638035        -1.35134
LJ          -1.23399        -2.68492       -0.817244
LJ          -3.11601       -0.328941       -0.220488
LJ          -1.17082         1.31459        0.165352
LJ          0.961315         -1.8674         1.50165
LJ         -0.639313       -0.946994         0.60534
LJ         -0.553429        -2.95792        0.450509
LJ          -1.62692        -1.56253        0.299472
LJ         -0.810694       -0.378728         1.53281
LJ          -0.17711        -3.78516        0.960843
LJ          -5.84535        -5.13013        0.375759
LJ          0.270722        -2.38188       -0.086363
LJ           1.75513        -2.51211         0.81899
LJ         -0.577173       -0.404968       -0.321009
LJ         -0.951625         2.30574       -0.641416
LJ          0.310426      0.00822809          1.6986
LJ          -1.75288         0.54587       -0.318718
LJ        -0.0598392        -1.63538        -1.13968
LJ         0.0541167         1.49184       -0.738318
LJ          0.991526        0.364785        0.436294
LJ           1.74889       -0.660086         1.11146
LJ           1.05098        -0.68645        0.155079
LJ          0.344042       0.0230614       -0.503768
LJ            2.4045       0.0849528        -1.39769
LJ            2.9169        0.281128       -0.300765
LJ          -1.20864       0.0753554         -1.0915
LJ          -6.34798         3.46309         1.42248
LJ          -2.20641         1.77899       -0.428192
LJ          -1.31636        -1.18972       -0.692411
LJ         -0.210028          1.8264         1.73372
LJ          -0.51588        0.659071       -0.287138
LJ         -0.579078          0.9529         1.11296
LJ           1.87002         2.51828      -0.0706538
LJ           2.80628         6.31851        -6.36605
LJ          0.724009         1.02171         1.50905
LJ          -3.84427        -1.36048         6.00947
LJ          -1.86721         5.26706        -5.49419
LJ        -0.0867635        -1.78789        0.787374
LJ            1.3709         1.08412        -0.34134
LJ         -0.904794         1.01665         2.15713
LJ         0.0669869        0.803532         2.47979
LJ          -1.18334        -3.37216         1.15233
LJ          -1.09997         -1.9346         1.12684
LJ            1.3538         1.88875         5.33719
LJ          -5.48883        -1.84969         2.28112
LJ          0.508773       -0.937696         1.01429
LJ            2.3656        -1.74365       -0.494844
LJ         -0.452887        -2.70959         1.55126
LJ         -0.166594        -1.29261         1.79855
LJ          -2.42691        0.213008        0.516383
LJ          -1.07872       0.0290532        0.527663
LJ          0.835115        -3.13499         1.75474
LJ          -2.53043         2.93118         2.75543
LJ            1.2202        -0.31955         3.35395
LJ          -1.35298        -1.27627         1.93946
LJ          -1.28914         2.34807        0.388779
LJ          0.475891        -1.11308         3.01088
LJ          0.394134        -2.20672         2.29796
LJ          -2.48654        -4.46098          6.0817
LJ           5.75225        -5.06947       -0.249803
LJ            6.3745         2.86801        -3.94579
LJ          -1.97105       -0.651843         1.12488
LJ          0.668186         2.66793        0.738465
LJ           1.62214         3.82088        0.580367
LJ           2.56745        -2.90814       -0.372884
LJ           5.13464         3.51006       -0.630441
LJ          -4.80343         1.08809        -2.56775
LJ         -0.532084         5.68871       -0.840422
LJ           5.74762         5.54487         2.53955
LJ           2.04523        0.832205         1.47745
LJ          -1.95216       -0.523221      -0.0458244
LJ           -1.1965         5.99447        -4.19203
LJ          -2.68703        -1.78566         5.75698
