108
#Comment!
LJ        -0.0788659         -1.9526       -0.104892
LJ          -6.32208         3.65135        -4.45342
LJ         -0.914659         3.17451         -1.1111
LJ          0.751562        0.100224        -3.91952
LJ           1.21107        -1.83626        -1.03075
LJ          0.336737          1.9827        -1.06216
LJ           1.54076        -2.08623        0.140212
LJ           1.35295        -1.66809         1.44168
LJ           2.17281        -3.01726        0.168717
LJ           1.69651        0.441952       -0.695732
LJ        -0.0361524           1.743        0.129621
LJ           1.56137       -0.141056         1.32969
LJ         -0.437252       -0.522317        -2.09417
LJ           1.72941       0.0101529        -1.78535
LJ         -0.666884         1.26466         1.38469
LJ          -0.83234         3.22127         1.16535
LJ          -1.10548         1.04602        -1.69939
LJ         -0.227239        -0.93558        0.136803
LJ          0.383271         3.09207         1.10588
LJ         -0.123726       -0.645616        -1.09158
LJ          0.916476         -2.0089        -2.01067
LJ          0.638766          -1.017       -0.295841
LJ          -1.26559         1.22248        -3.02901
LJ          0.595106         5.57245        -5.63337
LJ          -5.78749        -3.94701        -1.60515
LJ        -0.0740919         2.11139        -2.18136
LJ          -1.68454         2.22582        -1.69494
LJ           5.90326         2.26312        -0.60907
LJ           1.60089         3.37803        0.338446
LJ            2.7228        -6.22874        -2.52658
LJ          -1.53744          1.0862         2.20883
LJ          0.734767        0.354575        -2.16613
LJ         -0.381217        0.764415        -2.65062
LJ          0.854364       -0.999334        -1.50676
LJ         -0.121929        0.252469        0.735986
LJ         -0.173643        0.412248        -1.47323
LJ          -1.16495        -1.98016       -0.810473
LJ          -2.00965        0.634797        -1.34395
LJ         -0.966678         1.26242        0.390029
LJ           1.46153        -1.13578        0.485676
LJ         -0.663684        -1.42372        0.953704
LJ         -0.677599        -2.34506          1.5448
LJ          -2.02559        -1.14719       -0.487893
LJ          -1.16393       -0.610861         1.49262
LJ          0.456292        -2.40096           1.466
LJ           6.25472         3.95635        0.947198
LJ           0.89454        -2.71311       -0.364472
LJ           2.40218         -1.7393        0.982971
LJ         -0.994945       -0.930496       -0.523492
LJ         -0.778883         1.79445        -1.03955
LJ         -0.121027       -0.665395         1.43348
LJ          -1.14425         0.91088       -0.587421
LJ           0.15763        -1.72068        -1.10569
LJ        -0.0440264        0.992842       -0.518413
LJ          0.782203        0.838851        0.581896
LJ           1.86227       0.0182544        0.242298
LJ           1.55449       -0.622385       -0.651043
LJ          0.614656        0.166851       -0.424681
LJ           1.84728        -1.31904        -1.69359
LJ           2.53072       -0.143827       -0.880794
LJ          -1.16961     -0.00016239        -1.21256
LJ          -4.73886         2.15259       -0.176655
LJ          -1.83707         1.33812         1.03819
LJ           -2.6215       -0.902631         -1.7305
LJ         -0.716548         2.08545         2.22396
LJ         -0.454943       0.0818773       -0.251741
LJ         -0.618255        0.267097         1.96083
LJ          0.939429         2.33707        0.165204
LJ           2.56664        -6.41826        -4.72609
LJ          0.521474        0.364119         1.74598
LJ          -3.08133        -4.07071         5.42208
LJ          -4.09134           3.888         6.12816
LJ          0.582137         -1.4508        0.883112
LJ           1.02848         1.13044       -0.391976
LJ          -1.52576       -0.118514         2.38631
LJ         -0.604152         1.10648         2.84671
LJ           -1.5343        -1.72809         1.65932
LJ          -1.38294        -1.78033        0.268928
LJ           1.62777        0.528738         5.87182
LJ           5.71527        -1.49484         2.42784
LJ          0.923834       -0.271272        0.525464
LJ           2.61264        -1.20672        0.127876
LJ         -0.149373        -1.60045         2.03292
LJ           1.03217       -0.888038          1.9477
LJ          -3.01144          1.6263          1.9801
LJ          -1.48084        0.406613         1.19779
LJ           1.26652        -1.35843         2.96425
LJ         -0.319492         4.32767          1.3224
LJ          0.265527       -0.924417         2.93312
LJ         -0.661539       -0.707537         2.57028
LJ         -0.540011         2.31266        0.907534
LJ          0.356298        0.432637         2.79048
LJ          0.153031        -1.98167         2.98824
LJ          -4.38129          -2.611         5.61822
LJ           5.93881        -4.08183       -0.893062
LJ           6.29374         3.49846        -2.71702
LJ           -1.2258       -0.531176        0.489499
LJ          0.357565         1.82489         1.52479
LJ           1.64424          3.5531         1.49273
LJ           2.61583        -2.01149        -1.68637
LJ            4.9064         3.28643        -2.78156
LJ          -3.89688        0.462887        -1.77816
LJ         -0.356875         6.22492        -3.44718
LJ           6.02648          4.1457         2.02546
LJ           2.08103         1.27178       -0.165633
LJ          -1.77349      -0.0376579       -0.420781
LJ          -3.53414         -3.3286         -2.4978
LJ           1.64679        -4.72895        -3.07126
