108
#Comment!
LJ          -1.78702        -2.24779       0.0717264
LJ          -4.81752        -6.08425         2.93224
LJ           5.36722         5.31566        -4.05945
LJ           4.84838         6.21632        -3.37266
LJ           2.52659        -1.94678       -0.953439
LJ         -0.230531         1.46943        -2.02076
LJ          0.927224         -2.0161        -0.47834
LJ           0.61264        -2.84651        0.159459
LJ           0.21966        -2.94373        -1.03627
LJ           1.45735         1.21443       -0.204485
LJ           2.90318         2.26823         2.38132
LJ           1.11507        -1.62248         2.31159
LJ          -1.16883        -1.19619        -1.79399
LJ          0.430149          3.1419        -1.68917
LJ         -0.776063         1.64263        0.341752
LJ          -1.00818         2.09785        -1.31621
LJ          -1.81942        0.680382        -1.49872
LJ          0.364348       -0.100509       0.0709598
LJ          -1.57474         2.06111       -0.412916
LJ         -0.558408       -0.270741        -1.00295
LJ           1.33329        0.172152        -1.69426
LJ           1.69911        -1.37309         -1.1103
LJ          0.342182       -0.630236        -1.72121
LJ           2.83569        0.122681          2.3444
LJ         -0.892826         3.81322         2.89715
LJ          0.651518         2.95561        -2.80592
LJ            1.3866         2.42246        -1.40213
LJ           2.61608         1.43955         3.19295
LJ         -0.479775         2.40409        -2.50199
LJ         -0.700488         3.29521        -1.62949
LJ           0.18019         2.03973         3.77618
LJ          0.119212        0.451213        -1.63097
LJ          0.591429         2.11525        -2.22274
LJ           0.81891        0.746278         -2.4746
LJ          0.132171         1.33003       -0.964715
LJ         -0.977256      -0.0786992        -1.88972
LJ          -1.58059        -1.79103        -1.02677
LJ          -2.24711       -0.558322         1.48957
LJ          -1.48956        0.964854         1.22193
LJ          0.266202        -2.61672         1.16476
LJ          -1.12851        -1.47787        0.133772
LJ         -0.667395        -2.98336       -0.328639
LJ          -2.14423        -1.30086        0.603709
LJ         -0.639018       -0.449992        0.147388
LJ          -0.38487        -3.29601        0.697996
LJ          -6.39736        0.374297        -1.13812
LJ          -0.34382        -1.80184       -0.707327
LJ           1.74793        -2.76096     -0.00187204
LJ          -1.47019      -0.0198787       -0.344031
LJ          -1.06645         1.00161       -0.825411
LJ      -0.000748857       -0.423493        0.993398
LJ          -2.77269         0.14151        -1.02673
LJ          0.374173       -0.818673       -0.642475
LJ           1.20695         1.36949         -1.3065
LJ          0.730751        0.210691        0.971992
LJ          0.921837       -0.839026         1.29577
LJ           1.16683       -0.930038        0.237007
LJ          0.846093        0.539152       -0.692763
LJ           1.85677       0.0215938       -0.581203
LJ           1.19622        -1.99744        0.571839
LJ          -2.20477        -0.74303        -1.77359
LJ           4.21557         4.93871         2.98122
LJ          -1.87957         1.11571      -0.0693477
LJ          -2.06043       -0.852267       -0.739459
LJ          0.582686         1.01304        0.460891
LJ         -0.297701        0.717677       -0.236346
LJ         -0.529219        0.459773        0.721073
LJ          0.326456         2.36129       -0.972935
LJ           3.17265         5.98929         3.98679
LJ           2.81273          2.8806         3.46417
LJ          -5.03062         1.79158        -6.25131
LJ          0.379877         -5.0513        -5.94171
LJ         -0.456065        -2.16826        0.332706
LJ             3.094         1.74712         1.37267
LJ           -0.6316        0.682428         1.90727
LJ           0.49957        0.227429         2.02245
LJ          -1.45613        -3.13292        0.744996
LJ         -0.951246        -1.10882         1.15994
LJ          0.541854         4.24798           4.135
LJ          -2.51904        -2.18025         1.84558
LJ         0.0414597         -1.2353        0.326802
LJ           2.08965        -1.61843       0.0788388
LJ         -0.723376        -2.47769         1.31209
LJ         0.0361272        -1.52432         1.40721
LJ          -2.47868        0.192277        0.501553
LJ          -1.57711       -0.465363        0.664694
LJ         -0.102343        -3.26239         1.79597
LJ          -5.05712      -0.0160285         3.82233
LJ        -0.0885143       -0.704083         2.08923
LJ          -0.76774        -1.48997         2.11213
LJ          -2.50299         1.83023        0.903908
LJ           0.65942        -1.63385         3.65865
LJ          0.119319        -2.25359         2.20218
LJ           1.05887         6.25019        -5.76696
LJ           -5.4237         6.38099         1.41017
LJ          -5.78337         2.23258          -5.668
LJ          -1.29531       -0.190824         1.59147
LJ         -0.776557         2.79125      -0.0680323
LJ           1.13864         2.01669        0.320099
LJ           1.12833        -4.01237       -0.537913
LJ           5.06601         4.50814         3.65412
LJ          -6.09481         2.16366        -3.90166
LJ           1.02169         4.73338         3.26404
LJ            5.4303        -5.35455         3.07602
LJ           2.33462         2.97105         4.38201
LJ          -2.95433       -0.592852        0.117863
LJ           3.99134        0.055656        -4.98359
LJ           2.76949          3.4702       0.0484055
