108
#Comment!
LJ          0.380744        -1.47198        0.145396
LJ           3.91877       -0.274894         4.10211
LJ          -2.21049         0.95011        0.398434
LJ         -0.571791        -5.61205        -1.32968
LJ           1.41612        -2.00639       -0.306893
LJ          0.868431         1.85075        -1.04979
LJ           1.91875       -0.146743          1.1959
LJ           2.68173       -0.843537        0.804541
LJ           1.99871        -1.74397        0.728302
LJ           1.21283        0.120121        -1.94975
LJ          -1.27884         2.66209       -0.277651
LJ           2.31554         1.06814          2.4201
LJ         -0.260576        -2.14444        -1.64727
LJ           1.93695       -0.807238        -1.43307
LJ          -2.26809         0.99394         3.35808
LJ           1.23051         2.94104         1.64352
LJ           0.30051        0.753816        -1.88134
LJ         -0.132533       -0.339356        0.369159
LJ         -0.755844         1.57777         1.42388
LJ         -0.239103        -1.00291        -0.74462
LJ          0.675168        -2.05047        -1.00914
LJ            1.3005        0.193741        0.219585
LJ          0.233526         2.10488        -2.43179
LJ           3.21006         5.71103        -1.32932
LJ           1.73577         1.96434        -5.13555
LJ           -1.5689         3.44207        0.589729
LJ          -2.61943         3.12177         0.59775
LJ          -3.94719         4.19273        -4.05858
LJ           1.97929         1.93848          1.4452
LJ            5.8263         4.04621         5.33779
LJ          -1.33827        0.191607         1.93938
LJ          0.933762        -1.38975         -2.1802
LJ          0.265166       -0.163703        -1.36529
LJ          0.883771       -0.916849        -1.23343
LJ          -1.21153         1.72976        0.439301
LJ        -0.0442168       -0.998704        -1.81082
LJ         -0.827962        -1.96932       -0.387156
LJ         -0.282402          1.9974         -1.3005
LJ          -1.71187          1.1758          1.2865
LJ           1.91869        0.922549         0.75633
LJ           1.16313       -0.744629        0.645115
LJ          0.943116        -1.86743        0.981219
LJ          -1.90864        -1.37925         0.77397
LJ          -1.10142       -0.664737         1.13097
LJ          0.549226       -0.836983         2.17419
LJ           5.10193        -2.57042       0.0432582
LJ          0.738339        -2.88344        0.320465
LJ           2.53622        -0.42278       -0.166883
LJ           -1.1974       -0.477967       0.0259551
LJ          -2.27885         2.13783        0.494077
LJ         -0.521548       -0.656972         2.13134
LJ           -1.5069        0.462493       -0.517521
LJ       -0.00910205        -2.77913       -0.569801
LJ         -0.696011         1.21317       -0.487508
LJ          0.778051         1.01739         1.10436
LJ           1.16949         1.24292      -0.0505268
LJ           1.69583       -0.924853       -0.330492
LJ          0.679257        -0.47343       -0.327315
LJ           1.85067        -1.92669        -1.76867
LJ           2.18474       -0.911645        -2.45854
LJ          -1.21091       -0.428255        -1.30999
LJ          -1.20363         1.11543        -2.19519
LJ          -2.34652      -0.0796168         0.14091
LJ           -2.1237        -1.04325        -1.08664
LJ         0.0150548         1.65266        0.857002
LJ         -0.188747        0.150531       -0.511724
LJ          -1.03718         1.27315         2.40837
LJ           1.04096         2.20685        0.305861
LJ            4.8398        -5.26912        0.501163
LJ         -0.173465        0.469729         1.42086
LJ          -4.19426          2.5646         5.31241
LJ           3.78861         1.04983          3.3555
LJ          0.682353     0.000984374         1.17098
LJ         -0.673309         2.76819        0.615725
LJ          -1.55338         2.27624         1.25032
LJ          0.232898         1.40115         3.14155
LJ           0.20994        -2.34436         1.52512
LJ         -0.876346         -1.5308        0.623815
LJ           2.22059        -2.36421        -5.90517
LJ           2.24291        -1.35883         2.63635
LJ          0.177082        0.650217         0.29536
LJ           1.53611       0.0500569       -0.932709
LJ          0.104981       -0.960963         1.28596
LJ           1.37727        0.525729         1.86247
LJ         0.0750094         2.45065         1.77336
LJ          -1.70648        0.194303        0.859976
LJ         0.0635011         1.41246         2.07611
LJ           2.81675         1.04422       -0.758519
LJ          0.120664       -0.523903         3.37926
LJ          -1.43849        -1.46034         1.83885
LJ           -2.5475         1.90742         1.51249
LJ          0.437646        0.342637         2.35674
LJ           1.57029        -1.12116         1.62041
LJ           -5.7981         1.96834          3.4639
LJ           6.33386        -3.93748        -2.72982
LJ          -4.94049         5.26062        -1.61432
LJ         -0.833373        0.538595        0.522089
LJ          0.201997         1.72371       -0.265539
LJ           1.37748         1.04746        -1.77034
LJ            2.7694        -2.16066        -5.08311
LJ            3.8826         3.00323         6.09481
LJ          -1.89884         1.78146       -0.714609
LJ          -4.00788        -3.74344         5.79199
LJ           6.34665         1.10466         3.67556
LJ          0.684609         0.73597        -0.75843
LJ          -1.23605        -1.76631        -1.22689
LJ           4.45995         4.30151         1.37062
LJ          -5.34646        -5.81127        -5.35317
