108
#Comment!
LJ           2.60978        0.040692         1.33621
LJ           2.67897        -2.13217        -2.33648
LJ         -0.269588         -1.9725        0.419792
LJ          -2.68159        0.926739       -0.222967
LJ            1.6726       -0.790045         3.09455
LJ           1.98057        0.569531        -1.23141
LJ           2.46629         1.79715        0.211146
LJ           1.59046         0.55235        -2.24817
LJ           1.14122       -0.510213         1.75299
LJ          0.788783        -1.80694        0.696776
LJ          -1.26423         2.49726         3.00651
LJ           1.73271         1.57454         2.66176
LJ          -1.17748        -1.19629        -0.89789
LJ           2.94544       -0.605892       -0.269137
LJ          -1.11337       -0.238599         2.04165
LJ         -0.430268        0.620677         2.29609
LJ         -0.328263        -3.05167        -2.04496
LJ         -0.475212        0.831357        0.120357
LJ          0.985986         2.26203         2.36527
LJ         -0.279075       -0.766625        -1.39216
LJ          0.472583        -2.21032         2.25636
LJ          0.939133         1.40931        -1.23074
LJ            2.6777        -1.13901        -1.28058
LJ          -5.88012         2.12379        -6.20103
LJ           5.46258         1.54337         5.23723
LJ          -1.69749         1.81393       -0.176377
LJ          -2.99315        -5.06638        -1.34864
LJ          -1.44264        -5.82033       -0.672516
LJ           2.42918         2.28991         2.13749
LJ          -2.39997       0.0361291        0.867575
LJ         -0.509872       -0.983296         1.07374
LJ          -5.01309         6.17162      -0.0752454
LJ          0.552892        -1.85271       -0.350672
LJ            1.9465       -0.325694        -1.64406
LJ           -1.7334         1.64926         1.19651
LJ           1.71572        -1.17998        -0.84172
LJ         -0.440028         -1.9796         1.57911
LJ           1.21715        -2.02354        -1.59977
LJ          -1.49734       -0.708757        0.821881
LJ           1.45129        0.906319       -0.357096
LJ           1.43277         1.31901        0.917212
LJ          0.449087       -0.848277         2.57744
LJ          -1.20154       -0.738098        -2.04457
LJ          -1.89457       -0.440526       -0.119387
LJ           1.55212        0.517466         1.51109
LJ          -1.47594        -4.32192         5.41028
LJ           1.92505        -0.59463        0.912501
LJ          0.928714        0.436094        0.573766
LJ          -1.57973       -0.212299        -1.13553
LJ         -0.829671        0.127501         1.13774
LJ          0.375783         1.23426         2.64494
LJ         -0.796959         2.11469        -1.33442
LJ          -4.84031        -3.38398       -0.779647
LJ         -0.374581         2.66461       -0.342667
LJ          0.883314         1.32441         1.85536
LJ           3.23453        0.400497         2.23435
LJ          0.482574        0.666113         -0.3572
LJ          0.651137       -0.795954        -2.05022
LJ            1.3217        -1.48005         2.19104
LJ           1.95193        0.543056        0.550319
LJ          0.324035         1.37509        0.538615
LJ           2.60819         3.88027        -3.88358
LJ         -0.574676        -2.76836           2.453
LJ          -2.15704       0.0383668        -2.04137
LJ         -0.771931         1.88099        0.401338
LJ         0.0513389        0.141473        -2.45479
LJ           2.50439        -1.28348         2.34799
LJ           2.41297        0.983689         1.87209
LJ          -3.09168        -1.09105        -3.94837
LJ         -0.642466         1.16005         1.36353
LJ          -3.25356        0.257861         6.39506
LJ           3.53202       -0.473029         1.74041
LJ          0.200331        0.102511         1.41711
LJ          0.463801         2.15804         1.24145
LJ          -1.60116        0.674279         1.56202
LJ           1.46155        0.438237         3.50205
LJ         -0.132924        -1.11105       -0.254397
LJ        -0.0926769         1.60861       -0.686053
LJ        0.00697793         3.29614         4.42537
LJ          0.936196       -0.748285        0.319616
LJ          0.690636        0.153773        -1.47433
LJ          0.764778       -0.363613       -0.633744
LJ           2.39287      -0.0958346         2.44829
LJ         -0.118058       -0.158579        0.441218
LJ           1.60686         2.19905         1.44874
LJ          -1.44441         0.46528        0.281865
LJ          -1.40181        -1.70471         1.05022
LJ         -0.555662        0.483635        -1.51907
LJ           1.03547        0.344468          2.4509
LJ         -0.527069        -1.10788          2.1722
LJ          -1.29749         1.55932         2.33063
LJ           1.15639         2.08466         3.51591
LJ           0.55629       -0.135644         3.45555
LJ         -0.615859        -2.41056        -3.08077
LJ          -2.23509        -1.34402        0.525116
LJ           2.84903        -2.38783        -1.17935
LJ          -0.85576       -0.122081       -0.409712
LJ           1.09959         1.86872      -0.0871365
LJ           1.85923      -0.0991177       -0.309004
LJ           4.67577        0.395774        -5.44988
LJ           1.86858         3.42538       0.0571705
LJ          -1.54679        0.950498       -0.761413
LJ           2.75146         4.18712        0.870634
LJ          -3.07661        -1.55757        -6.33977
LJ           2.69921        0.338625        -1.89972
LJ          0.841327        -3.50923        -1.48138
LJ           5.08756        -5.96997        -3.29013
LJ            1.8456        -6.26068        -0.23137
