108
#Comment!
LJ          -1.74349        -1.74233        -1.58115
LJ          -2.46348        -2.43962        -4.81398
LJ          -4.74295        -2.33117         -2.3694
LJ          -2.43135        -4.84841         -2.4512
LJ          0.184536        -3.43337        -2.39351
LJ          0.715402       -0.619281        -3.15058
LJ          0.742271        -1.09303        -1.22509
LJ           1.03276        -2.68083       -0.303472
LJ          0.545498        -2.18211        -2.43739
LJ           1.64872        0.397782       -0.500023
LJ           5.54894         4.50818         4.53466
LJ           1.23242        -1.03222        0.750008
LJ          -1.65149       -0.826686        -2.61606
LJ         -0.143914         1.50121        -2.68593
LJ           -2.6463        0.783716       -0.286928
LJ           -1.1429        0.978485        -1.27916
LJ          -0.80799       -0.445297        -2.05874
LJ       -0.00606382      -0.0253363       -0.330467
LJ          -1.34729        0.193511        -2.70561
LJ         -0.157626        -1.43709          -1.702
LJ             2.002        -1.68255        -2.88247
LJ           1.12079        -1.27562        -2.19831
LJ       -0.00871269       -0.435437        -1.38403
LJ          -6.24241        -4.30444        -5.41878
LJ          -2.15916         1.64088        -2.67755
LJ          0.710351         1.54746       -0.901229
LJ         -0.322732         1.94034        0.529285
LJ           4.64012         5.79188         4.67129
LJ          -1.22915         1.05536        -3.28215
LJ          -1.10552         1.55252        -2.18258
LJ          -4.30477        -6.24317        -5.41751
LJ         -0.436104        0.574687        -2.09003
LJ          0.165338        0.321149        -3.11628
LJ          0.719658         1.15816        -1.86052
LJ         -0.324969         1.54204        -1.43703
LJ           1.42137        0.419089        -2.63894
LJ          -2.07091        -2.93712       -0.380862
LJ          -1.34476        -1.10749        0.721735
LJ           -2.2192       -0.649942         1.08358
LJ         -0.211737        -3.16067         1.32628
LJ         -0.928391         -2.1133       -0.607247
LJ          0.418017        -2.08166        -1.00176
LJ          -1.05446        -3.11308        0.302191
LJ          0.214384       -0.779454        0.445822
LJ           1.23069        -2.99811        -1.51916
LJ          -6.24289        -5.41857        -4.30542
LJ         -0.228909        -1.16668       -0.483024
LJ           1.54456        -1.64784       -0.712472
LJ          -2.58313       -0.403536       -0.182622
LJ          -1.97018        0.728564        -1.90114
LJ         -0.744174       -0.255568        0.480843
LJ          -1.64466        -2.01629        0.254972
LJ          -1.00179       -0.253449       -0.926095
LJ          0.668775        0.788604       -0.191103
LJ         0.0494337        0.483516        0.615635
LJ           1.06356       0.0854507        0.560287
LJ          0.988185       -0.507449       -0.310355
LJ          0.810385        0.323972         -1.2838
LJ           1.89252      -0.0570417        -1.75479
LJ          0.645134        -1.61824      -0.0354735
LJ          -3.54766         1.66997       -0.872211
LJ          -5.41805        -6.24293        -4.30442
LJ           -1.7903         1.83673        -1.44768
LJ           -2.0763       -0.129173        -1.16992
LJ         -0.210627         1.31133       -0.268901
LJ         -0.144474        0.641247        -1.06204
LJ          -1.24787          0.6283       -0.277067
LJ          -1.04524         1.93339       -0.599749
LJ            3.7703         3.86423         1.41404
LJ           4.43436         4.43622         2.74836
LJ          -2.02903         3.58637          6.1135
LJ            3.5858        -2.02901         6.11322
LJ          -2.19331        -2.88695          1.0077
LJ           4.58148         4.58673         5.61921
LJ         -0.175507        0.990888         1.48004
LJ          0.571913       -0.346987         1.41875
LJ           -1.2038        -3.13214          1.6016
LJ         -0.292135        -1.68777        0.423882
LJ          -4.30535         -5.4179        -6.24307
LJ          -1.21454        -2.20817         1.16303
LJ         -0.175844        -2.71977       -0.149792
LJ           1.47992        -2.21399        0.505201
LJ        -0.0413497        -2.17901         1.86783
LJ          0.418795        -2.40605        0.846137
LJ          -3.12076         -1.1306         1.43661
LJ          -1.59659        -1.03747       -0.472909
LJ          -2.11759        -1.69309         1.37549
LJ          -5.41855        -4.30426        -6.24272
LJ         -0.534514       -0.169668         1.58382
LJ          -1.23779        -1.10345         1.76131
LJ          -1.19678        0.563874         1.24715
LJ         -0.283484        -1.13498         1.32456
LJ           3.61972         1.09668         3.69701
LJ           3.58727         6.11153         -2.0294
LJ          -2.02938          6.1127         3.58646
LJ           4.47953         2.73651          4.4789
LJ          -1.72887       0.0241553        0.468754
LJ           -2.1442         1.73824       -0.217525
LJ          -1.61645          1.5777         1.21208
LJ          -2.80416        0.335008         1.27851
LJ           1.64016         3.85963         3.83785
LJ           6.11822         3.58333         -2.0299
LJ           2.74595         4.44074         4.44051
LJ           6.11418        -2.02924         3.58631
LJ           3.74487         3.79056         3.72441
LJ            4.0603         4.02158        0.254283
LJ          0.210726         4.07633          4.1006
LJ           4.09485        0.305693         3.97711
