108
#Comment!
LJ           3.95421       -0.543837         1.70949
LJ         0.0369192         3.45473       -0.719992
LJ          0.439742         -1.7555          1.4004
LJ         -0.419295         1.01715        -1.87845
LJ          0.860744        0.903146         3.15387
LJ          0.277028        -2.08233        -1.62001
LJ          0.293775         0.65494        -1.32709
LJ          0.702084        -1.19788        -1.92541
LJ           1.18034        -1.49955         2.97434
LJ           0.49461       -0.732944         1.69152
LJ         -0.221184         1.98805           3.206
LJ          0.176795        0.780484         1.45923
LJ         -0.366509       -0.692746       -0.150913
LJ           2.26625         3.05316        0.028542
LJ         -0.395305        -2.74282       -0.112184
LJ          -1.01728        -1.50903        0.307327
LJ          -5.49849        -1.15421        -4.49213
LJ          0.773096        0.920972        0.258895
LJ          0.025111         4.47304        -6.27252
LJ          0.123658       -0.507981        -1.16398
LJ         -0.994021        0.153666         4.95198
LJ          0.955991         1.75686        -1.61436
LJ           3.74309        0.671106        -0.50072
LJ          -3.88188        -1.17426        -2.04767
LJ            1.7395        -2.97087         5.52419
LJ        -0.0763349         1.91492        -1.31712
LJ         -0.874384       -0.696775        -1.21965
LJ           1.10533         6.19361        -1.44121
LJ           1.97216         2.16187         1.77652
LJ          0.114556         -1.8505        0.190409
LJ         -0.137535        -1.56544         3.37291
LJ           4.52004         2.61617         6.22871
LJ         0.0372591        -3.95542       -0.557253
LJ           1.07381       -0.169291        -2.27553
LJ         -0.263159         1.36208        0.705574
LJ           2.19239        0.103424        -1.01691
LJ           1.98295        -1.48863       -0.386315
LJ           1.06634        -2.85169         -1.0137
LJ          0.777382      -0.0326668        0.822877
LJ           1.57454        0.703793        -1.96713
LJ          0.985758         1.83744        -0.36184
LJ         -0.582877       -0.424158          1.9878
LJ         -0.306438        -2.69318        -2.49993
LJ         -0.321526        0.328117        0.250402
LJ           3.24609        -1.26777         2.58985
LJ           -5.9244        -4.61363        -4.73733
LJ           2.88212        -0.43592         1.74188
LJ           3.30783          -1.644         1.37143
LJ          0.162639         -1.7958        -2.75812
LJ          -1.25528         1.15587         2.06526
LJ           1.33338         1.08591         2.08366
LJ         -0.343523         1.69878        -2.64765
LJ           3.14109        -5.19359        -2.26681
LJ         -0.474001            1.83         1.70339
LJ           2.06312       -0.493102         1.12045
LJ            2.8753       -0.481771        0.386038
LJ           1.64202       0.0117575       -0.112065
LJ            0.9356        -1.95288        -0.50665
LJ          0.187833       -0.940578         2.58064
LJ           4.06273        -0.89517        0.598641
LJ           1.34016        0.875398       -0.937433
LJ          -3.23185          5.3913        -4.62009
LJ           1.95069       -0.708024         2.36455
LJ         -0.786245         2.37324        -1.82707
LJ           2.39827        0.777425      -0.0374634
LJ           0.52532        0.181394       -0.434181
LJ          0.628255        -2.13654          2.4182
LJ           2.26981         1.37874        -1.06549
LJ          0.659562          4.0536        -2.57652
LJ         -0.209179         1.07125         2.46637
LJ          0.128271         1.05464        -6.41349
LJ           1.88769         1.88415         2.82786
LJ         -0.130989        -1.08875         0.88369
LJ            1.6408         1.93544        0.401757
LJ           -1.1924       -0.318315        0.623713
LJ           1.26204       0.0186563         1.80568
LJ           1.32551       -0.943511        0.486793
LJ         -0.109437          1.1966       -0.547427
LJ           1.02128       -0.798124         3.87188
LJ           1.34782        -1.29596         1.45817
LJ           1.21812       -0.485428        -1.09908
LJ          0.705251       -0.987898       -0.305388
LJ           1.71467        0.456053        0.854621
LJ            2.3709        -1.31153        0.538547
LJ           1.12067         1.34769         1.10576
LJ          -1.33145        0.967427        0.813363
LJ         -0.650804        -2.41682         1.34687
LJ          0.508865        0.678001        -2.34466
LJ          0.249458         0.12907         2.26254
LJ         -0.443224        -1.62842         2.14136
LJ       -0.00681071          2.4467       -0.180468
LJ          -1.01943         2.61895        0.297913
LJ          -0.22201        0.699879          3.4416
LJ         -0.474716        -1.30515        -2.08209
LJ         -0.166752         -1.4636       -0.814739
LJ           1.00555         1.55107        -2.85904
LJ         -0.928965         0.68945        -0.77697
LJ        0.00674176         3.18911          2.5852
LJ          0.471382        -4.95626         2.75268
LJ           5.82545         2.27326        -5.75869
LJ         0.0413012            4.16       0.0389318
LJ         -0.101689       -0.177469        -2.05999
LJ            1.3844         2.94572         -1.3261
LJ          -4.24855       -0.346393        -4.13289
LJ          0.871947         3.05824       -0.183073
LJ         0.0211735        -3.63813        0.519403
LJ           1.21566        -2.23794        0.622098
LJ          -1.62452           -3.52         2.58451
