108
#Comment!
LJ          -1.00519        -2.48791        0.159144
LJ          -5.05392         5.85444        0.696435
LJ           3.17999         4.20524        -3.25488
LJ           4.08109         5.06277         -3.6897
LJ            1.5767        -1.37943        -1.38898
LJ         -0.267792         1.70245       -0.855205
LJ          0.918225        -1.70293        0.186796
LJ          0.708031        -3.42493        0.109365
LJ          0.990054        -2.59048       -0.412209
LJ           1.43118        0.704141       -0.462868
LJ           2.27789          2.0334         1.38753
LJ           1.14498        -1.83745         2.21557
LJ          -1.17698       -0.852816         -1.3199
LJ          0.946364          2.5123        -1.69541
LJ         -0.699293         1.87372        0.533271
LJ         -0.359984         2.65292       -0.142166
LJ          -1.75921         1.08503        -1.49383
LJ         -0.556538       -0.366192       -0.106667
LJ          -1.30684          2.9341        0.327143
LJ         -0.208972       -0.486552        -1.14897
LJ          0.736718       0.0632657        -1.09395
LJ           0.16439        -1.29294       -0.401924
LJ          0.601216       -0.943233         -2.3613
LJ          0.846872         2.70667         1.46086
LJ          -1.33761         4.03725        0.967165
LJ         -0.313899         2.59054         -2.8379
LJ           2.15991         2.78767        -2.15048
LJ            3.1829         1.22053         2.52655
LJ         -0.196909         2.61214        -1.26463
LJ          0.978064         4.22285       -0.846119
LJ         -0.099875         1.80094         1.89476
LJ          0.254757        0.607276        -1.89512
LJ          0.196406         1.73282        -2.04869
LJ           1.87937        0.934639        -1.77766
LJ           0.43051         1.35427       -0.104634
LJ         -0.744714        0.871628        -1.57724
LJ          -1.01563        -2.56198        -1.01395
LJ          -2.85125       -0.566468         1.18007
LJ          -1.54406         1.11112        0.667255
LJ          0.611907        -2.03556         1.37536
LJ         -0.879235        -1.43863        0.156504
LJ         -0.292255        -3.45415       -0.125955
LJ          -1.76147        -1.36424        0.668969
LJ         -0.798017       -0.695528         1.15898
LJ        -0.0922188        -3.96301        0.796469
LJ           -6.0905        -2.17737       -0.420372
LJ        -0.0799031        -2.44946       -0.419699
LJ           1.52515         -2.6733        0.587198
LJ          -1.22584       0.0958149       -0.735054
LJ          -1.22123         2.05507        -0.67052
LJ          0.236021      -0.0693657         1.03551
LJ          -2.27941        0.233711       -0.776839
LJ         -0.457278        -1.67236        -1.47706
LJ          0.918425         1.37334        -1.24067
LJ           1.45096        0.580335        0.744768
LJ          0.964274       -0.970125         1.29336
LJ          0.791877       -0.546937       0.0165297
LJ           0.27552        0.332796       0.0785994
LJ           1.71963       -0.335138       -0.581586
LJ           1.74307       -0.979299        0.487488
LJ          -1.55412       0.0613655        -1.84249
LJ           5.14177         4.56022          2.6145
LJ          -1.89995          1.2799        -0.45545
LJ          -1.70419       -0.882451       -0.315772
LJ          0.345359          1.0534        0.839617
LJ         -0.713589         1.09658       -0.204053
LJ         -0.599073        0.637198        0.820376
LJ          0.779621         2.23236       -0.629533
LJ           2.99365         6.15541         5.21137
LJ           1.88099         2.31136         2.51471
LJ          -4.43714        0.278575         6.40844
LJ         -0.756383        -6.32058        -5.25109
LJ        -0.0955116        -2.14823        0.678611
LJ           2.63273          1.8344        0.384153
LJ         -0.330599        0.601536         2.06109
LJ           0.93719        0.819782         1.66397
LJ          -1.14658        -3.37864        0.886185
LJ         -0.942878        -1.72892          1.3916
LJ           1.12267          2.9944         4.80794
LJ          -4.04205        -2.12325         2.15048
LJ         0.0925667        -1.03696        0.650504
LJ           1.80982        -1.78072       -0.475611
LJ         -0.555401        -2.64866         1.43897
LJ       -0.00234455        -1.19372         1.81918
LJ          -2.56432        0.402537        0.391229
LJ          -1.57678     0.000779572        0.343917
LJ         -0.114856        -3.54688         1.91849
LJ          -3.88481         1.39409         3.34494
LJ           0.49426       -0.248811         2.33934
LJ         -0.675927        -1.57975         2.51144
LJ           -1.8079         2.16897        0.647353
LJ          0.494034        -1.24992         2.92578
LJ         0.0628244        -2.28478         2.24558
LJ         -0.469265        -5.57448         6.27221
LJ          -6.37149         -5.7736        0.643187
LJ           -6.2044         2.60374        -4.92522
LJ          -1.95114       -0.211502         1.49973
LJ          0.261277         2.23915        0.680721
LJ           1.07454           3.036        0.310419
LJ           2.06528        -2.80398       -0.765438
LJ            5.3021         3.66708         1.24761
LJ          -5.46333         1.61604        -3.17707
LJ        -0.0722298         5.24208         1.35002
LJ           5.57503        -6.24049         2.86143
LJ           2.24601         2.23989         3.79405
LJ           -2.7435       -0.635978       -0.150631
LJ           1.46935         2.84281        -4.75127
LJ           6.18894        0.785159          2.6715
