108
#Comment!
LJ          0.300067        -1.55578       -0.118794
LJ           5.35548         1.92345        -6.34374
LJ          -1.88619         1.13193       -0.172881
LJ         0.0248065        -2.70876        -3.34941
LJ           1.12633        -2.07348        -0.77799
LJ         -0.270778         2.62395       -0.451585
LJ            0.9414        -1.60682        0.620934
LJ           1.94464        -1.76701         1.47451
LJ           1.64352         -2.3527        0.194885
LJ           1.56946       0.0562703        -1.42808
LJ         -0.853233         1.34062      -0.0306905
LJ           1.29493        0.156031         1.54036
LJ       -0.00771861       -0.945856        -1.77505
LJ           2.04119       -0.832433        -1.63138
LJ          -0.95914         1.46385         2.28324
LJ         0.0304228         4.13929         1.88761
LJ         -0.416058         1.06768        -1.96929
LJ         -0.244021       -0.585706        0.285929
LJ         -0.532173         1.71143         1.21787
LJ         -0.153445        -0.71096       -0.683396
LJ          0.425388        -2.07811        -1.63508
LJ          0.855495       -0.667462       0.0214554
LJ         -0.516518         1.65765         -2.8411
LJ           1.76061         6.02311         -3.3848
LJ           4.82965        -1.27309        -3.19829
LJ          -0.35975         3.69035       -0.711684
LJ          -1.45563         2.93689        -0.44334
LJ          -5.68362         3.18107        -2.22601
LJ           2.10289         2.43441         1.34178
LJ           4.23546         5.79221        -4.63878
LJ          -1.26165        0.653202         2.98489
LJ             1.116       -0.950303        -2.29857
LJ          0.565081         1.00756        -1.64637
LJ          0.774485        -1.06894        -1.08722
LJ         -0.361942        0.457655        0.702787
LJ         -0.399128        0.109819        -1.49727
LJ          -0.39973        -1.79065       -0.916903
LJ          -1.69482        0.693804         -2.0317
LJ          -1.23513        0.951335         1.18465
LJ           1.76646      -0.0860786        0.575626
LJ         -0.208984        -1.51245        0.832818
LJ         0.0527288        -2.46436         1.73041
LJ          -1.63067        -1.34445       -0.776943
LJ         -0.563394       -0.579474         1.31735
LJ          0.725953        -1.42452         1.65551
LJ            5.7947        0.360823       0.0753004
LJ          0.644208        -2.76306         1.00973
LJ           2.41816        -1.07804        0.525903
LJ          -1.16676       -0.501551       -0.336729
LJ          -1.48765         1.60471        -1.11877
LJ          0.140077       -0.529498         2.09333
LJ          -1.12319        0.580834        -1.07685
LJ          0.105251        -2.70998       -0.143541
LJ         -0.286625         1.37553        -1.01049
LJ           1.48575         1.06995        0.755969
LJ            1.5828        0.283342       -0.432347
LJ           1.84383        -1.27967       -0.381827
LJ          0.670344       0.0115955       -0.909389
LJ            1.3722        -2.00589        -2.02399
LJ           2.77422       0.0119551        -2.27263
LJ          -1.38002       -0.566363        -1.49604
LJ          -3.80115         1.26115        -1.63045
LJ          -2.74275        0.965371        0.580836
LJ          -2.32574        -1.76933        -1.59043
LJ          0.196818         1.70392          1.9603
LJ         -0.153594        0.382411       -0.312604
LJ         -0.460869        0.357257         1.77511
LJ           1.03135         2.17129         1.46461
LJ           2.86504        -6.07891        -2.64679
LJ          0.396265         1.05686         1.19994
LJ          -3.56643          6.1075         5.37268
LJ          -6.13311         2.63139         4.95758
LJ          0.452809       -0.486178         1.03458
LJ        -0.0954743         2.23661        0.527738
LJ          -2.71417         1.76847         2.32089
LJ          0.180748        0.327265         3.16087
LJ         -0.969383        -2.36415          1.4033
LJ          -1.30539         -1.4012         0.89995
LJ           1.85504       -0.727065         6.31522
LJ           4.11667        -1.16869         2.54464
LJ          0.689139        0.319085        0.259155
LJ           2.43477       -0.432233       -0.630041
LJ         -0.724837        -1.43448         2.04473
LJ           1.15559        -0.59971         2.47793
LJ          -1.62521         2.37923         1.58732
LJ          -1.55021        0.307631          1.8949
LJ           1.34736         1.50587         2.19123
LJ           1.89021         3.38979       0.0090166
LJ          -0.49079       -0.664998          2.8739
LJ          -1.46359       -0.399504         2.67783
LJ          -1.64586          1.8396        0.723465
LJ          0.481634        0.521742         2.17072
LJ           1.20924         -2.3218         1.96697
LJ          -4.88342       -0.648881         4.71566
LJ           5.97816        -3.42117        -1.11537
LJ           -5.8693         4.22954        -2.17187
LJ          -1.22123      -0.0559179         0.61514
LJ           0.46094         1.31339      0.00562251
LJ           1.04583         2.81713        0.537932
LJ           3.06217        -2.39453        -3.43697
LJ           4.37561         3.12602        -4.50661
LJ           -2.4339         1.14867        -1.29132
LJ          -1.57441        -5.58417        -5.25111
LJ           5.99157         2.89066         2.66632
LJ            1.4159         1.15128       -0.810746
LJ          -2.07315        0.169733       -0.718279
LJ          -5.58818       0.0350981       -0.899244
LJ           4.39318        -5.46004         1.49515
