108
#Comment!
LJ           3.12487         0.22527         1.75353
LJ            2.4369        -3.13392        0.299338
LJ         -0.775021         -0.8818         1.20933
LJ          -3.25708          1.1609        0.332031
LJ           1.74605        -1.90719         1.65058
LJ          0.798155         2.08991        -1.73072
LJ           3.06128         1.47049        0.597646
LJ           1.53844        0.231134        -1.46782
LJ           1.25538       -0.793268        0.571777
LJ           1.25224        -3.19782       -0.896426
LJ          -2.60859         2.24735         1.25916
LJ           1.38813         1.67267         3.47098
LJ          -1.15401         -1.4165        0.361686
LJ           2.70843       -0.603544        0.203622
LJ         -0.178171        0.273592         3.11007
LJ         0.0748013        0.877933         1.27829
LJ          0.285592        -2.03044        -1.83621
LJ          0.420557         1.26542        0.253018
LJ         0.0271045         1.78837         2.76966
LJ         -0.305196        -0.05354        -1.32134
LJ          0.531774        -2.59703         1.90436
LJ           0.96127        0.699334       -0.439403
LJ           2.29885        -1.50719        -1.93548
LJ           6.30785         3.35876         4.70283
LJ          -5.86464        -1.89769         5.24144
LJ          -2.10448         2.55814       -0.461592
LJ          -3.19203        -6.16939         -0.9472
LJ         0.0366305        -5.17775         1.37797
LJ           1.92563         2.04882         2.39524
LJ          -3.06175       0.0854509        0.956251
LJ         -0.313294      -0.0279796         1.93536
LJ           -3.4873        -5.31481          2.6588
LJ         0.0977365       -0.961637        -1.63439
LJ           1.46242        -1.59393        -1.07699
LJ          -1.49552         2.22941         1.23015
LJ          0.490617        -1.09889       -0.605756
LJ          0.298521        -2.14373        0.286441
LJ         -0.154689       -0.534701        -2.88501
LJ          -1.03761        0.397527         2.52546
LJ           2.41646        0.552684       -0.201306
LJ           1.71537         1.05412        0.495026
LJ          0.900388        -1.97445         1.09362
LJ          -1.25478       -0.604127         -1.0317
LJ          -1.80523       -0.457421      -0.0117534
LJ           1.84698        0.633067          1.5536
LJ          0.365999        -4.15979         4.25375
LJ           1.17816        -1.59198      -0.0474403
LJ           2.00888       0.0397616        0.607151
LJ          -2.12921        0.622644       -0.726551
LJ          -1.31697        0.204567         1.45419
LJ           -1.0075         1.21815         3.11158
LJ         -0.872826        0.822883        -1.03349
LJ          -2.68396        -2.80239       -0.120852
LJ         -0.793521         2.07391       -0.863202
LJ          0.921147         1.42699         2.38742
LJ           2.03661        0.993934         2.60749
LJ          0.574567       -0.260397      -0.0141247
LJ          0.764218        0.113646        -2.32826
LJ           2.13473        -1.36878        0.696238
LJ           3.50715        0.460568        0.376658
LJ         0.0967747         1.44515       -0.763556
LJ           5.02057         3.22432        -3.53504
LJ         -0.291437        -2.00514         1.32182
LJ          -1.03021       -0.142047        -2.44105
LJ         -0.435917         2.02033        0.106327
LJ         -0.103287        0.850874        -2.53523
LJ           1.97853       -0.424161         1.83791
LJ           1.75134         1.73985         1.31773
LJ          -4.61175         2.70759        -5.15028
LJ         -0.701805          2.2253          2.0955
LJ          -4.37749        -1.09304        -6.39276
LJ           3.45369        -1.02989         2.27346
LJ          0.843183        0.462961        0.748901
LJ           0.67108               2         1.30373
LJ          -2.55925         1.11763         1.33387
LJ          0.884992        0.461403         3.17799
LJ         -0.543968        -0.37635      -0.0935454
LJ        -0.0047272        0.453076       -0.450513
LJ          0.590838          5.1348         5.13626
LJ          0.109544        -1.18861        0.639813
LJ          0.321888        0.741794        -1.45784
LJ          0.782935       -0.233491        -1.10609
LJ          0.466866       -0.566832         1.58003
LJ         -0.110001       -0.091945        0.812718
LJ          0.792957         2.50617         2.37637
LJ          -1.84851        0.675343        0.372067
LJ         -0.501419       -0.606553         3.67796
LJ         -0.260797         2.09065        -2.19952
LJ          0.598112        0.500245          2.0832
LJ          0.382921       -0.655027         2.65184
LJ          -1.29817         1.21621         1.87565
LJ        -0.0615542         1.28097         4.02933
LJ           0.64938        -1.55349         2.13536
LJ           1.11265        -5.21168        -1.78659
LJ          -3.69009         2.21078         1.21672
LJ            1.2313        -2.73987        0.225246
LJ         -0.690003        0.617519        0.340889
LJ           1.08182         1.89775       -0.261018
LJ           1.64409       -0.317889       -0.414805
LJ           4.22161       -0.234248        -5.35173
LJ           2.15461         1.93353        0.372057
LJ          -1.28918         1.47012       -0.200758
LJ            3.4008         2.52146        0.616735
LJ          -3.34458       -0.768949          5.2976
LJ           1.55083       -0.645458        -2.20745
LJ          0.664807        -2.26806        -0.82522
LJ          -3.81419         3.46508        -5.69846
LJ          0.453611         3.00978        -2.19723
