108
#Comment!
LJ           2.14843       -0.661127           1.308
LJ           2.17328        -1.83214         1.34256
LJ           -1.4035       -0.792402          2.0297
LJ          -3.41215         2.09091         1.53275
LJ           2.99611        -1.47404        0.545584
LJ           1.55747         1.18194       -0.921284
LJ           2.75186        0.628959         1.23412
LJ           2.47932        0.405656        -1.12019
LJ           1.54069        -1.28448        0.595512
LJ           2.41637        -1.83705       -0.915691
LJ          -2.09062         3.11101        0.730222
LJ           1.35743         1.25145         2.59674
LJ         -0.589827        -1.60257        0.224114
LJ           2.77006       -0.249444         -0.3772
LJ         -0.302826        0.986266         2.95692
LJ        -0.0594543        0.729708         1.59884
LJ          0.709715        -2.11403        -2.46536
LJ          0.454785         1.02739        0.333492
LJ         -0.988589         1.63285          2.2544
LJ         -0.385285        -0.61022        -1.08078
LJ           1.49045        -3.01164        0.799743
LJ           1.25865         0.47895       -0.201425
LJ           2.14009       -0.879707        -2.24176
LJ           5.87899         4.06097         3.53162
LJ          -4.83359        -3.79149         5.34474
LJ          -2.07437         3.51746       -0.826124
LJ          -3.30698         6.13006        -0.69696
LJ         -0.574925        -5.87287         3.25627
LJ          0.712185         2.44053         1.96148
LJ          -1.99733        0.270116          1.1181
LJ          -1.08025        0.101161         1.50812
LJ          -2.59304        -4.47518         4.22679
LJ         -0.124368         -1.6265        -1.75962
LJ          0.980999        -1.24569        -1.25445
LJ           -1.2304         2.34345        0.466586
LJ         0.0651722         -1.5418       -0.721568
LJ         -0.533086        -2.39646       -0.845962
LJ        0.00963689       -0.716574        -3.00894
LJ          -1.54093        0.532811         2.50715
LJ           2.30447        0.897186       -0.170495
LJ           1.65153         1.01497        0.591449
LJ          0.701345        -2.22161        0.831957
LJ          -1.75883      -0.0609944       -0.631272
LJ          -1.59513        -1.06249       0.0887352
LJ           1.81668        0.274688         1.83731
LJ            1.4273        -4.04217         3.52921
LJ           1.12561        -2.13498       -0.471689
LJ            2.0914        0.012139        0.358534
LJ          -1.37494        0.357386        0.246423
LJ          -1.46906          1.0619         1.55944
LJ           -1.0503        0.284155         3.36788
LJ          -1.38528        0.883665       -0.906654
LJ          -1.39286        -2.33213        0.426431
LJ          -1.27897         2.63681        -1.38903
LJ           1.25373         1.16799         1.57152
LJ            2.1224         1.82959         1.90413
LJ           1.00824       -0.452962        0.370789
LJ          0.117622      -0.0776553        -1.91526
LJ           1.90397        -2.25908        0.423203
LJ           3.55924        0.590556      -0.0307161
LJ         -0.198918         1.57506        -0.65253
LJ           6.41688         2.83995        -3.33166
LJ         -0.901428        -1.61806         1.41256
LJ          -1.07615       -0.246969        -1.86946
LJ         -0.280184         1.80767         0.30755
LJ          0.108685         1.32335        -1.78632
LJ           1.15493       -0.520858         2.10359
LJ            1.3822         2.29201        0.845578
LJ          -4.84447         5.29788        -6.27337
LJ         -0.785906          1.7338          1.1929
LJ          -4.72671        -1.90203         6.11002
LJ           2.89935        -0.56005         2.05694
LJ          0.908356         0.36311        0.978686
LJ          0.369891         1.82452          1.2357
LJ          -2.49077         1.30917          1.8927
LJ          0.323436        0.268161         3.90604
LJ         -0.694076       -0.397061        0.214674
LJ         -0.462991        0.535414       -0.361542
LJ          0.932121         6.17403         5.51966
LJ            0.2313        -1.13489        0.742123
LJ          0.391089        0.588996       -0.983348
LJ          0.720692       -0.474104       -0.583787
LJ         -0.177674       -0.639603         1.81988
LJ         0.0357301       -0.120809        0.855128
LJ          0.140339          1.5498         2.19686
LJ           -1.8283         1.49449        0.611396
LJ          0.771859       -0.676464         4.16816
LJ           1.57591         2.30499       -0.874587
LJ          0.491366        0.152464         2.49006
LJ         -0.474311       -0.527402         2.95338
LJ           -1.5982         2.35671         1.53968
LJ         0.0129115         2.02103         3.10276
LJ          0.751176        -1.39221         1.72359
LJ            2.1617         6.44966       -0.725904
LJ          -4.32486         3.50965         2.98236
LJ          -0.19364        -3.96653         0.12953
LJ         -0.491544        0.806979        0.679429
LJ          0.814426         1.70526       -0.395664
LJ           1.88801       -0.816324        -0.63182
LJ           3.96298       -0.597026        -5.29745
LJ           2.11783           1.877        0.116597
LJ          -1.40164         1.76898       -0.384221
LJ           3.92753        0.682818         1.27158
LJ          -3.88999       -0.346667         4.98666
LJ           1.30912      -0.0803539         -1.6195
LJ           0.49699        -2.42199        -1.39428
LJ          -2.13045         1.03096         6.22795
LJ         -0.483033         3.83881        -5.27006
