108
#Comment!
LJ         -0.669843         -1.9439       -0.130624
LJ          -5.43979         5.11418        -1.34718
LJ            1.8388         3.79371        -2.81237
LJ           2.39055         3.06953        -3.51894
LJ           1.35842        -1.79819        -1.29254
LJ         0.0661319           2.735       -0.309155
LJ           1.02635        -1.69893        0.273602
LJ           0.55809        -2.86882        0.773427
LJ            1.3574        -2.60796       -0.463186
LJ           1.52124        0.118725       -0.463133
LJ           1.39085         1.56161        0.689841
LJ            1.0473       -0.814509          2.0349
LJ          -1.19994       -0.901174        -1.60085
LJ          0.364465         1.42301        -1.94003
LJ         -0.512362         2.04876        0.454264
LJ         -0.131834         3.01623        0.709885
LJ          -1.17503         1.39959        -1.06094
LJ         0.0100328      -0.0326195        0.756631
LJ         -0.909654         3.34204       -0.254547
LJ         0.0809709       -0.540136        -1.59137
LJ             1.152       -0.571673        -1.38245
LJ          0.111866        -1.37868        -0.17241
LJ           -1.0886       0.0277324        -2.41535
LJ          0.742561         4.06809         3.70328
LJ          -2.73092         5.98316      -0.0763341
LJ         -0.599063         2.24874        -1.92321
LJ          0.822811         2.26679        -2.55584
LJ           4.37819         1.59627         1.31744
LJ          0.525339          3.6455       -0.550858
LJ           1.75847         5.39134        -1.50282
LJ          -1.68029         0.59107         1.48321
LJ          0.346461        0.410915        -2.27478
LJ          -0.28239        0.678034        -3.14334
LJ           1.09265         0.79499        -1.20247
LJ          0.274243         1.33284        0.404369
LJ         -0.339783        0.947485        -1.43446
LJ          -1.13891        -2.86841       -0.755908
LJ          -3.11482       -0.407978      -0.0479068
LJ          -1.28991         1.35352        0.331772
LJ          0.971325        -1.93794         1.28888
LJ         -0.614381        -1.00297        0.557965
LJ         -0.505138        -2.80294         0.32775
LJ           -1.6322         -1.5616        0.374771
LJ         -0.788754       -0.408174         1.50121
LJ        -0.0952837        -3.78256        0.929722
LJ          -5.82153         -4.6731         0.27648
LJ          0.326652        -2.38862       -0.331883
LJ           1.71478        -2.50214        0.509799
LJ         -0.660194       -0.390325       -0.380434
LJ         -0.906894         2.24386       -0.531162
LJ          0.392072      -0.0733978         1.85466
LJ          -1.70083        0.436968        -0.13733
LJ         -0.433079        -1.58287        -1.19411
LJ          0.437048         1.49662       -0.709712
LJ           1.01279         0.38227        0.356104
LJ           1.48249       -0.687006        0.931624
LJ           1.00452       -0.680836       0.0534965
LJ          0.420778       0.0268131       -0.657435
LJ           2.17511        0.123286        -1.24915
LJ           2.60387        0.315569       -0.131087
LJ          -1.13996        0.161268        -1.21662
LJ           6.38078         3.61738         1.60855
LJ          -1.95954         1.82177       -0.573336
LJ          -1.18961        -1.22772       -0.668944
LJ         -0.158547         1.72858         1.69384
LJ         -0.443902        0.785442       -0.204768
LJ         -0.574015        0.906611        0.953598
LJ           1.72375         2.26349      -0.0982781
LJ           2.83324          6.2955         6.36776
LJ          0.829797         1.39661         1.70431
LJ          -3.92411        -1.12438         6.11293
LJ          -1.58766         5.44526        -5.30856
LJ         0.0940741        -1.94229        0.768606
LJ           1.66889         1.11744       -0.275463
LJ         -0.867077        0.925469         2.08047
LJ          0.168247        0.772049         2.55196
LJ          -1.26771        -3.46819         1.01702
LJ          -0.95105        -1.84481         1.21472
LJ            1.3197         2.04764         5.26944
LJ          -5.28557        -1.89132         2.26343
LJ          0.434831       -0.957094         1.07895
LJ           2.12696        -1.75925       -0.369714
LJ         -0.276092         -2.8459         1.39161
LJ         -0.279234        -1.32508         1.86403
LJ          -2.39255       0.0134203        0.610123
LJ          -1.10149       0.0201168        0.514317
LJ          0.628813        -3.35666         1.74254
LJ          -2.73027         2.71698         2.84665
LJ           1.25149       -0.261166         3.19041
LJ          -1.36464        -1.27292          2.0786
LJ          -1.53175         2.47383        0.385201
LJ           0.22752        -1.16345          3.2423
LJ          0.227302        -2.21923         2.22795
LJ           -2.1984        -4.61615         6.10482
LJ           5.80592        -5.20228       -0.138178
LJ           6.42209         2.83273         -4.0889
LJ          -1.99987        -0.65346         1.42364
LJ           0.93337         2.55682        0.650195
LJ           1.41627         3.75983        0.424735
LJ           2.36135        -2.92134       -0.142411
LJ           5.15371         3.52835       -0.380947
LJ          -4.89651         1.16104        -2.65259
LJ         -0.545117         5.61339       -0.531793
LJ           5.72161         5.71558         2.58991
LJ           2.24633         1.02202         1.93818
LJ          -1.93331       -0.614521       -0.144484
LJ         -0.938434         5.55436        -4.42146
LJ          -3.27153        -1.41938         5.27239
