108
#Comment!
LJ           4.18116        -0.39247         1.46503
LJ          0.977167         3.01983        -1.97897
LJ          0.432135          -2.082         1.48052
LJ          -1.10269        0.915521        -1.70341
LJ            0.3493        0.448034         3.83605
LJ         -0.304862        -1.63063        -2.00435
LJ          0.821959        0.835857        -1.60369
LJ          0.773629        -0.89614        -2.18569
LJ           1.21799        -1.05951         2.49303
LJ          0.371608       -0.765694         1.75746
LJ         -0.136237         1.84473         2.78772
LJ          0.777217        0.788159         1.30183
LJ          -1.73956         -0.9454       -0.772856
LJ           2.96486          2.1074        0.142172
LJ          -1.02435        -2.53317        0.353964
LJ          -1.15601        -1.40471        0.582286
LJ          -3.27446       -0.362391        -3.42622
LJ           1.21134         0.42947        0.448463
LJ          0.181723         4.22606          5.6029
LJ          -0.57724       -0.809542        -1.24965
LJ         0.0390999       -0.224097         5.24546
LJ            1.1908         1.82327       -0.970202
LJ           3.78977        0.734302        -0.85541
LJ          -4.69839       -0.349231        -2.63397
LJ           2.63338        -4.98146         5.45917
LJ         -0.123996         1.42708        -1.38236
LJ          -2.66754        -1.60234        -2.05397
LJ            3.5481         6.35828        -1.25728
LJ           2.17519         1.98722         1.62723
LJ        -0.0129464        -1.69086        0.466488
LJ         -0.941548        -2.37094         2.31643
LJ           5.21151         3.63296        -5.13607
LJ         -0.195421        -4.70644       -0.469037
LJ           1.38839      -0.0482704        -2.43585
LJ         -0.136915         1.19899        0.637754
LJ           2.78254        0.340779        -1.14003
LJ           1.69901        -1.21508        0.229648
LJ           0.21294        -2.07231       -0.522003
LJ          0.106933        0.167699        0.116586
LJ           1.82163        0.867729        -1.57474
LJ           0.92405         1.41172        0.338016
LJ         -0.508984       -0.238006         2.16731
LJ          -1.12455        -2.11945        -3.09912
LJ          -1.04743      -0.0392078      -0.0779962
LJ            3.4491        -1.24822         1.92384
LJ          -4.86231        -4.54979        -5.40564
LJ           2.53998       -0.685726         1.70077
LJ           3.24003       -0.998483        0.801353
LJ          -1.08967        -1.10324        -2.64222
LJ          -1.27666        0.574091         2.16505
LJ          0.984496         1.02941         2.32295
LJ         -0.424772         1.49321        -2.47688
LJ           4.33779        -4.63992         -1.9564
LJ           0.14748         2.02696         1.27741
LJ           1.45388       -0.185845         1.23471
LJ           3.87713        0.410962        0.601615
LJ           1.21456       -0.341553       -0.187114
LJ          0.968082        -1.32991        -1.04059
LJ         0.0230572        -1.09913         2.75711
LJ            4.2438       -0.717924        0.431999
LJ           1.56262        0.597401       -0.567719
LJ          -1.84392         5.03333        -4.45724
LJ           2.58641        -1.21504         2.64162
LJ          -1.84055         1.13733        -2.84364
LJ           2.17139       0.0048533        0.292515
LJ          0.575986       -0.359504        -1.26089
LJ          0.492856        -2.26939         2.69207
LJ           2.63982         1.29092       -0.404426
LJ         0.0477293         5.71235        -2.32241
LJ          -0.13084         0.77952         2.46503
LJ          -0.83602         0.73505         6.33748
LJ           2.06905         1.94241         2.66624
LJ         -0.358605       -0.487675        0.946976
LJ           2.04994         1.34739        0.406908
LJ          -1.50474       -0.565903           1.386
LJ           1.43484        0.165144         3.05778
LJ          0.723373       -0.866069        0.596112
LJ          0.530713         1.07495       -0.560608
LJ          0.726313         0.71835         4.86411
LJ           1.92797        -1.91874          2.3933
LJ           1.65644       -0.161394        -1.35863
LJ          0.127684       -0.876604       -0.433997
LJ            1.9683        0.912554         1.35262
LJ           1.52741        -1.29192         1.30056
LJ           1.19502         1.78025         1.39386
LJ         -0.908257         1.26071       -0.197292
LJ         -0.514125        -2.42287         1.18274
LJ          0.193795        0.603649        -2.47341
LJ           0.45603       -0.078937         2.79524
LJ         -0.613682        -1.47074         1.67063
LJ          0.185675         2.03524        -0.33135
LJ         -0.339703         3.79112        0.742104
LJ          -0.65583          1.1401         3.40164
LJ          -1.34966        -1.86847        -1.99276
LJ          -1.14243        -1.89014       -0.789125
LJ          0.589601         1.66946        -2.15236
LJ         -0.491331         0.30547       -0.918902
LJ         -0.400205         3.10572         2.04037
LJ           1.61859        -4.18608         1.85169
LJ           5.65107         1.64497        -5.67761
LJ           1.02107         4.79077        0.548198
LJ         -0.709198       -0.101149        -2.21747
LJ           1.01274         3.97056        -0.53737
LJ          -3.29427       -0.897566        -4.75328
LJ           1.15796         2.77742       -0.256904
LJ          0.304208         -3.1782        0.641689
LJ          0.970666        -2.22845        0.463297
LJ          -3.90846        -4.18946         1.93593
