108
#Comment!
LJ          -1.09188        -2.40472        0.278029
LJ          -5.17523         5.60109       0.0127381
LJ           2.71432         4.13955        -3.08317
LJ           3.58063         4.37737        -3.69124
LJ           1.61181        -1.53431        -1.53253
LJ         -0.109773         2.03205       -0.942727
LJ          0.771033        -1.69668        0.107077
LJ          0.886617          -3.462        0.367994
LJ           1.14624        -2.42553        -0.61376
LJ           1.47301        0.638553       -0.427109
LJ            1.5526          1.5249          0.9114
LJ           1.06426        -1.29715         2.20689
LJ          -1.42894        -1.02956        -1.51785
LJ          0.949236         1.98902        -1.71813
LJ         -0.809333         1.77363        0.428927
LJ       -0.00353872         2.46306        0.117707
LJ          -1.69213         1.34216        -1.24615
LJ         -0.390408       -0.374955        0.238725
LJ         -0.903229         3.09231       0.0751606
LJ          -0.24039       -0.589556        -1.18437
LJ          0.818769       -0.259645       -0.938102
LJ        -0.0750696        -1.31225       -0.232286
LJ         -0.132896        -0.59331        -2.62844
LJ          0.811377         3.36911         2.15452
LJ          -1.51364         4.61362         0.53812
LJ         -0.345862         2.46876        -2.34874
LJ           1.87716         2.70191        -2.42928
LJ           3.64864         1.32984         2.11195
LJ         0.0184531         3.42771        -0.96302
LJ           1.27585         4.68847        -1.07573
LJ         -0.662135          1.3421         1.64066
LJ          0.385471        0.443857        -1.85156
LJ         -0.182422         1.36047        -2.20722
LJ           1.73231        0.958205        -1.36941
LJ          0.218966         1.44651        0.109673
LJ         -0.410277        0.811044        -1.33059
LJ         -0.886905        -2.81026       -0.955529
LJ          -3.02735       -0.784343        0.565034
LJ          -1.73156         1.00611        0.224121
LJ          0.835167        -1.91289         1.34264
LJ         -0.981344        -1.24436        0.632563
LJ         -0.431491        -3.44103       -0.136603
LJ          -2.02526        -1.44838        0.788956
LJ         -0.827537       -0.313437          1.2306
LJ        -0.0176637        -3.82186        0.805989
LJ          -5.98829        -2.99303       -0.188959
LJ        -0.0172417        -2.46199       -0.434459
LJ           1.35124        -2.53024        0.470371
LJ         -0.892797       0.0860498       -0.669528
LJ           -1.0145         2.19738       -0.519902
LJ          0.450927      -0.0327261        0.993935
LJ          -1.92689        0.346898       -0.677601
LJ         -0.451824        -1.72359        -1.16529
LJ           0.67196         1.21868       -0.879643
LJ            1.0605        0.728721        0.493928
LJ           1.21882       -0.731079         1.35907
LJ          0.890436       -0.577461       0.0660961
LJ         0.0846619        0.474357       -0.375889
LJ           2.01076       -0.123086        -1.05754
LJ           1.92625        -0.64774        0.640382
LJ          -1.22965        0.198158        -1.65963
LJ           5.56397         4.24875         2.31991
LJ          -2.21743         1.76557       -0.391018
LJ          -1.15793       -0.962761       -0.455283
LJ           0.37277         1.23196         1.12954
LJ         -0.857938         1.06169       -0.455665
LJ         -0.481838        0.684261        0.580638
LJ          0.999086         2.47947        -0.42008
LJ           2.94038         6.20253         5.59678
LJ           1.44466         1.93746         2.20938
LJ          -4.26814        -0.18643         6.33808
LJ          -1.03187         6.21882        -5.24408
LJ         -0.128253        -2.04679        0.627072
LJ           2.20643          1.8973       0.0454299
LJ          -0.18856        0.396109         1.68679
LJ          0.858577         1.00704         2.20019
LJ          -1.13614        -3.60306        0.747502
LJ         -0.740769        -1.77592         1.58341
LJ           1.18079         2.68479         4.97823
LJ          -4.46422        -2.05302         2.19205
LJ          0.207111        -1.09083        0.762808
LJ           1.92206        -1.74525       -0.148047
LJ         -0.269175        -2.95945         1.30715
LJ         0.0593121        -1.05426         1.76382
LJ          -2.57275        0.359535         0.74329
LJ           -1.3381      -0.0298526        0.369781
LJ          0.128492        -3.75991          2.0855
LJ          -3.50474         1.84067         3.18551
LJ          0.680628       -0.314612         2.12081
LJ          -1.02996        -1.39608         2.55612
LJ          -1.68591         2.41668        0.359133
LJ          0.114635        -1.27763         2.76953
LJ         0.0534122        -2.27782         2.12725
LJ          -1.04519        -5.24166         6.20141
LJ           6.28612        -5.59107        0.380276
LJ           -6.3084         2.68507        -4.65326
LJ           -1.9743       -0.500236          2.0047
LJ          0.806795         2.14732        0.832953
LJ           1.13542         3.19737        0.487284
LJ           2.19177        -2.79459       -0.373889
LJ           5.24519         3.60466        0.660465
LJ          -5.27111         1.45947        -2.99615
LJ         -0.500702          5.2992        0.720948
LJ           5.62284         6.37612           2.778
LJ           2.37805         1.83253         3.35197
LJ          -2.18612       -0.529124      -0.0652535
LJ          0.660498         3.73582        -4.65994
LJ          -5.58279       0.0488174         3.51424
