108
#Comment!
LJ           3.67707       -0.911824        0.718588
LJ          -2.07468         2.91734        -2.66062
LJ          0.749779        -1.86236         1.44396
LJ         -0.514029         2.78923       -0.665053
LJ          0.824683        0.220833         3.28912
LJ           0.59465        -2.84521        -0.98109
LJ          0.511176       -0.132119        -1.33483
LJ           1.79076        -1.70602       -0.537582
LJ           1.91658        -1.26802         2.05986
LJ           0.13581       -0.935039         2.28182
LJ         -0.472701         2.06139          2.7377
LJ        0.00494283        0.852457        0.945252
LJ          0.271642       -0.711787        -0.26861
LJ           1.96251         6.22764        -2.28854
LJ          0.837254        -3.77938       -0.414767
LJ         -0.306494        -1.62303        0.134975
LJ           5.44862        -1.65912        -6.05018
LJ          0.780457         1.45668      -0.0323857
LJ         -0.221911         4.84274        -4.58337
LJ           1.08176        -1.27593        -1.34862
LJ          -2.10999        0.305901          3.7289
LJ          0.774525         2.01789        -2.52938
LJ            3.1593       -0.172897         0.13203
LJ          -2.40004        -2.44453        -1.48378
LJ          0.588129         0.30076         4.45456
LJ        -0.0549362         1.99921        -1.20504
LJ          -1.10076         0.18756        -1.72311
LJ          -2.75992         5.80028        -1.69165
LJ           2.11846         1.85654         1.98254
LJ           1.13581        -2.49204        0.514056
LJ           2.07237       -0.980437         3.88513
LJ           4.11518         0.63001         4.17089
LJ           1.12687        -3.37212        -1.73074
LJ           1.06735     -0.00716919        -2.35722
LJ         -0.078739         1.88306        0.813753
LJ           2.71148        0.754306         -1.0383
LJ           1.71198         -1.6749        0.579032
LJ          0.934382        -3.63212        -2.83297
LJ          0.565037        0.289448       0.0288171
LJ           1.28408        0.574926          -1.518
LJ           1.53457         2.18092       -0.092469
LJ         -0.499292        -1.61688         1.59159
LJ          0.616969        -2.19218        -1.90735
LJ         -0.605834        0.100879        0.357031
LJ           3.01391        -0.31096          3.7279
LJ           5.31625        -4.70873        -3.67399
LJ           2.99396       -0.668848         1.90692
LJ           2.89448        -1.67512         2.54769
LJ           2.11525         -1.0512        -1.74367
LJ          -1.31175         1.88514         1.69172
LJ           1.80898        0.625699         1.66735
LJ         -0.165117         3.01264        -2.46169
LJ           1.18466        -6.10068        -2.67411
LJ          0.046271         1.57221         1.80857
LJ           2.47357        -1.08355         1.05805
LJ           2.34947        -1.05912      -0.0252629
LJ           1.62343        0.725472       -0.470311
LJ           1.73162        -2.98371        -0.31514
LJ          0.739663       -0.681774         3.91969
LJ           3.65374        0.201364         1.18239
LJ          0.619518        0.825029       -0.868674
LJ          -5.43746         5.96106        -4.87868
LJ           1.18247        -0.67213         2.79607
LJ         -0.308645         4.03036        -2.21476
LJ           2.58153        0.515108         0.93352
LJ           1.25113       -0.615655      -0.0150098
LJ           1.12457        -1.96509         2.99391
LJ           1.34291         1.75909        -1.04521
LJ           0.96019          3.2594        -2.79659
LJ           1.09863         1.37951         2.09545
LJ           1.48452         1.74248        -5.91408
LJ            2.1392        0.961032         2.66138
LJ          0.491744        -1.19509        0.605042
LJ           1.46613        0.586225        0.507785
LJ         -0.509489       -0.656167         1.13675
LJ          0.559622       -0.139044        0.910453
LJ           1.78904       -0.251447           1.076
LJ         -0.353613         1.46141       -0.175706
LJ           2.82326        -1.12452         5.37404
LJ           1.01034       -0.665224         1.69243
LJ           1.97355       -0.289915       -0.855597
LJ          0.807199        -1.82044       -0.181533
LJ           2.13932       -0.252724         2.49957
LJ            3.2665         -2.2354         1.52197
LJ           1.06771         1.60618        0.993672
LJ          -1.25258       0.0157086         1.23971
LJ         -0.795327        -2.81427         1.23103
LJ         0.0368856          0.9493        -1.71464
LJ          0.781982        0.329827         2.13246
LJ          0.248669        -2.01977         2.47109
LJ          0.370644         2.43623       -0.212349
LJ         -0.812714          1.0271         1.45331
LJ         -0.755996        0.945716         2.60328
LJ          0.367698       -0.936625        -1.97939
LJ          0.155169        -1.68702       -0.997936
LJ           1.12782         1.05447         -4.7784
LJ         -0.390419        0.485624       -0.654794
LJ           -0.2892          2.7334         1.87722
LJ           -1.4316        -5.91126         4.07639
LJ            5.3874         3.62194        -6.32768
LJ          -1.06136         4.08565       -0.485777
LJ         -0.123226       0.0471246        -2.26168
LJ          0.634662         2.90204        -1.62944
LJ           5.57315       -0.255535        -2.85493
LJ          0.316726         3.91872        -1.25429
LJ          -1.17039        -2.12469        0.403551
LJ           1.72868        -2.36286         1.40417
LJ          0.359736        -2.83531         1.15018
