108
#Comment!
LJ          -1.91258        -2.41493      -0.0541401
LJ          -4.77849         -5.9465         3.26714
LJ           5.66375         5.66644        -4.09193
LJ           5.02426         6.22641        -3.41805
LJ           2.74688        -2.08422       -0.752603
LJ         -0.347742         1.33908        -2.08076
LJ          0.808284        -1.81471       -0.599088
LJ          0.458217        -2.74429      -0.0155661
LJ          0.151862        -2.69957       -0.975414
LJ           1.45497         1.04065       -0.261246
LJ           2.98419         2.39227         2.47056
LJ          0.864785        -1.51651         2.21666
LJ          -1.10752        -1.23514        -2.04983
LJ          0.361043         3.14713        -1.72408
LJ         -0.938832         1.66615        0.267896
LJ         -0.845868         2.04636        -1.58277
LJ          -1.84186        0.443941        -1.51551
LJ          0.433361       0.0668223        0.300008
LJ          -1.68115         2.07727       -0.611496
LJ         -0.512953       -0.395409       -0.848852
LJ           1.30277       0.0686406        -1.89453
LJ           1.69859         -1.2365       -0.922149
LJ          0.308585       -0.586408        -1.53096
LJ           3.02366       -0.274142         2.67141
LJ         -0.788076         3.76846         3.20415
LJ          0.810172         3.09852        -2.73255
LJ           1.04779         2.34519        -1.48217
LJ           2.82171         1.14202         3.36054
LJ          -0.26495         2.46681        -2.49651
LJ         -0.824442         3.24953        -1.68292
LJ         -0.158616         2.17843         4.06055
LJ         -0.102342         0.35935        -1.67903
LJ          0.623808         1.95063        -2.30428
LJ          0.524122        0.982199        -2.41428
LJ          0.238036         1.36731        -1.14831
LJ          -1.00186       -0.083024        -2.03375
LJ          -1.63236        -1.92854        -1.00833
LJ          -2.26691        -0.85403         1.53734
LJ          -1.46049        0.850194         1.16109
LJ          0.437559        -2.45627         1.10469
LJ           -1.1363        -1.41121      -0.0371466
LJ         -0.884738         -3.0007       -0.527153
LJ          -2.14771        -1.49126        0.610387
LJ         -0.482139       -0.445357        0.145798
LJ         -0.257935        -3.34712        0.755337
LJ          -6.44481        0.783019        -1.25288
LJ         -0.402383         -1.7914       -0.788315
LJ           1.63412        -2.54911       -0.134815
LJ          -1.42469       0.0853581       -0.352568
LJ          -1.01713          1.0872       -0.823579
LJ         -0.135534       -0.451366         1.08556
LJ          -2.81383       0.0905031       -0.953529
LJ          0.374546       -0.851166       -0.525763
LJ           1.32926          1.1614        -1.39216
LJ           1.08394        0.239273          1.2103
LJ            0.9609       -0.908196         1.20604
LJ           1.21045       -0.819109        0.152094
LJ            0.6983        0.231928       -0.847942
LJ           1.95255       0.0324838       -0.849569
LJ           1.04547        -1.81387         0.54995
LJ          -2.18558          -0.778        -1.77313
LJ           4.13143         4.93037         3.03767
LJ          -1.90294        0.926162      -0.0709934
LJ          -1.84223       -0.871452       -0.578404
LJ          0.568938         1.22223        0.379521
LJ         -0.202386         0.83388       -0.308198
LJ         -0.526815        0.452169        0.791029
LJ          0.142206         2.39377       -0.738661
LJ           3.21697          5.9437         3.77393
LJ           3.06185          2.9798         3.42687
LJ          -4.92858          1.9462        -6.36069
LJ          0.614788        -4.92974        -6.08556
LJ         -0.509079         -2.3517         0.29681
LJ           3.12811         1.74807         1.42801
LJ         -0.526276        0.688638         1.83096
LJ          0.422177           0.396         2.14221
LJ          -1.70405        -3.18747        0.776483
LJ         -0.893996        -1.25931         1.05226
LJ          0.292512          4.4074         4.13957
LJ          -2.15644        -2.09782         1.67524
LJ          0.152141        -1.44182        0.268665
LJ            2.1366         -1.4059      0.00261952
LJ         -0.918595        -2.42555         1.33128
LJ          0.118482        -1.48653         1.41984
LJ          -2.40125        0.232464         0.74722
LJ          -1.48522       -0.436931        0.643746
LJ         -0.395557         -3.3343         1.91814
LJ          -5.24298       -0.241907         3.89785
LJ        -0.0749157       -0.745578         2.18429
LJ         -0.954532        -1.68827         2.23533
LJ           -2.2473         1.89091        0.800394
LJ          0.625696        -1.59616         3.79088
LJ       0.000695719        -2.24646         2.16184
LJ           1.25073          6.1549        -5.59233
LJ          -5.27883         6.27856         1.55951
LJ          -5.91594         2.25384        -5.58965
LJ         -0.917002       -0.279543         1.79194
LJ         -0.936268         2.73681       -0.129988
LJ           1.12751         2.22351        0.340358
LJ          0.841223        -4.23302       -0.531054
LJ           4.94155         4.72529         4.05593
LJ          -6.19357         2.25785        -4.06337
LJ           1.30135         4.68406         3.45965
LJ           5.40877        -5.22039         3.10745
LJ           2.34318         3.02944         4.43948
LJ          -3.10114       -0.849052       -0.197771
LJ           4.39408       -0.389801        -5.01868
LJ           2.29349         3.97626       -0.346187
