108
#Comment!
LJ          -1.82683        -1.94978       -0.231123
LJ          -4.57742        -5.15821         5.18491
LJ           -5.8522        -5.39298        -4.07459
LJ           6.44751        -6.40604        -3.90428
LJ           1.81635        -2.36376        0.644639
LJ         -0.658711          1.1122         -2.3513
LJ            1.3282        -1.59346       -0.769862
LJ          0.245599        -2.45981       -0.118065
LJ         -0.539373        -2.18925        -1.83664
LJ           1.28309         0.41191        -0.31434
LJ           3.42649          2.8208         3.12216
LJ           1.30897        -1.83253         1.68092
LJ         -0.735223         -1.3763        -2.53168
LJ         -0.224646         3.22692          -1.307
LJ          -1.54745        0.942886        0.232321
LJ         -0.637225         2.18767        -1.21266
LJ          -1.68308       0.0485579        -1.28176
LJ          0.449134        0.127942        0.178902
LJ          -2.38906         1.58515        -1.71081
LJ         -0.978268       -0.852897        -1.31872
LJ           1.28714        -1.24882        -2.84192
LJ           1.05602       -0.716757        -1.50138
LJ         0.0716957         -1.1393        -1.77518
LJ           4.02336        -1.86532         4.67792
LJ         -0.440526         2.70725          5.2794
LJ          0.651361         2.43408        -2.17556
LJ            1.1474         2.22983        -0.92562
LJ           4.12349       -0.958706         3.98464
LJ         -0.300916          2.0923        -2.23306
LJ          -1.10069         2.72999        -2.00726
LJ          -1.89507          3.5247         5.36553
LJ         -0.442311        0.349847        -1.42119
LJ          0.750025         1.44315         -3.2121
LJ          0.474237        0.737976        -2.35997
LJ         0.0482703         1.29664         -1.3522
LJ         -0.904596       -0.340602        -2.21376
LJ          -1.36321        -1.83909        -1.23272
LJ          -1.97903       -0.689307         1.53881
LJ          -1.90418        0.890777         1.26478
LJ          0.448551         -2.4896        0.920565
LJ         -0.974272        -1.41044      -0.0775603
LJ         -0.583401        -2.94488         -1.1112
LJ          -1.77239        -1.18738        0.518077
LJ         -0.296407       -0.557129        0.366511
LJ           0.15567         -3.5137       -0.457693
LJ            6.1994         3.23752        -1.95832
LJ        -0.0859764        -1.59002       -0.661672
LJ           2.45538       -0.891622       -0.682518
LJ         -0.868366        0.443828       -0.528069
LJ           -1.2358         1.18649        -1.28086
LJ         0.0221966       0.0598147          1.2229
LJ          -2.78466       -0.842517       -0.318217
LJ        -0.0435009        -0.55977       -0.849525
LJ           1.26673         1.22853        -1.36417
LJ           1.11072        0.426697         1.20998
LJ           1.03552       -0.560707        0.915934
LJ           1.05464        -0.60576       -0.426731
LJ          0.688842        0.235142        -1.17608
LJ           1.85188      -0.0276704        -1.37533
LJ          0.692204        -1.46102        0.186128
LJ          -2.12195        -1.13553         -1.0043
LJ           4.37672         4.75665          4.9045
LJ          -2.30677        0.852497       -0.903351
LJ          -1.50655       -0.535412       -0.334388
LJ          0.622468         1.16967        0.303962
LJ          0.086362        0.753289       -0.525143
LJ         -0.530412         0.56342        0.445768
LJ         -0.539593         1.56515       -0.146994
LJ           3.39575         5.61181         2.52001
LJ            4.0279         3.78421         3.69485
LJ          -4.20794         2.72814         5.83062
LJ           2.04518        -4.26336         5.99548
LJ         -0.780055        -2.44856      -0.0977638
LJ           3.19023         2.00197         2.30064
LJ         -0.606532        0.710876         1.74359
LJ          0.982744       -0.234032          1.9938
LJ           -1.2214          -3.333        0.961953
LJ         -0.826127        -1.10123         1.16765
LJ          -1.25416         5.42114         4.63853
LJ          -1.67707        -2.43854         1.72548
LJ         -0.264591        -1.79643        0.619811
LJ           2.04033        -1.19492         0.44299
LJ         -0.672104        -2.30188         1.57203
LJ          0.254954       -0.997152          1.4443
LJ          -2.33574      -0.0649683        0.472511
LJ          -1.30747       -0.028468        0.771654
LJ          -2.00562        -3.49282         1.78458
LJ          -6.35933        -1.59601          4.3514
LJ         0.0152569       -0.966331         2.49824
LJ           -1.4006        -1.39692         2.23947
LJ         -0.147948         1.62014        0.985309
LJ          0.213379        -1.17517          3.5426
LJ           0.36189        -2.02892         1.95869
LJ           2.38244         5.64327        -4.56498
LJ          -4.39115         5.70618         2.54871
LJ           6.25333         2.43613        -6.12612
LJ          -1.52819        0.208804         1.90249
LJ          -1.68317         2.06986        -0.54477
LJ          0.407332         2.26492        0.260567
LJ          -1.14871         -4.2415       -0.102679
LJ           3.47752         5.73355         4.98922
LJ           5.99249         2.91161        -3.93316
LJ           3.24068         4.41184         4.18785
LJ            5.2814        -4.43541         3.29902
LJ           2.77185         3.33892         3.85292
LJ          -3.66621        -3.11261        -1.39543
LJ          -6.11444        -3.06031        -5.22905
LJ         -0.648352        -6.05135        -2.73888
