108
#Comment!
LJ           1.70138       -0.802541         1.01412
LJ           3.32067        -1.60075         2.57686
LJ          -1.98874        0.225711         1.79652
LJ          -1.28832         3.78655         1.27388
LJ           2.97753        -1.74872       -0.390668
LJ            2.0997         1.49353        -1.78391
LJ           1.33187       0.0211596         1.77266
LJ           2.14944        0.587107       -0.394459
LJ           1.99496        -1.69421       0.0964258
LJ           0.99766        -1.39442        -1.38553
LJ          -1.01659         2.82982         1.24464
LJ           1.88674         1.93553         2.06169
LJ          -0.89075        -2.75651        0.506831
LJ           2.01642       -0.466471       -0.604593
LJ          -1.74164        0.477836         2.78701
LJ          0.445525         1.77488         1.91479
LJ          0.766183       -0.425334        -2.09691
LJ         0.0721625        0.626586        0.362136
LJ         -0.557648          1.7748         1.89722
LJ         -0.776671        -0.79788       -0.759134
LJ          0.673824        -3.33037       -0.292897
LJ           1.21254        0.277984      -0.0680107
LJ           1.62465        0.283264        -2.35623
LJ           5.04755         5.32888         1.31991
LJ          -2.21661         5.89207         5.66807
LJ          -1.88841         2.92095        0.290341
LJ          -3.46936         4.90665       -0.217282
LJ          -1.85494         5.73263        -6.23437
LJ           1.06245         1.72057          2.8526
LJ          -4.90321         1.76026         2.60621
LJ         -0.793795        0.290701         1.16748
LJ         -0.971963        -2.94154        -5.78661
LJ          -0.37083       -0.563282        -1.81918
LJ          0.172929        -1.14389       -0.889687
LJ          -1.05874         2.14032        0.307973
LJ         -0.092572        -1.95608       -0.089769
LJ          -1.17066        -1.99058       -0.496146
LJ          0.503185        0.939399        -2.02892
LJ          -1.38533         1.18173         1.90001
LJ           1.72563         1.15652        0.446486
LJ           2.00197         0.19091        0.811096
LJ           1.66575        -3.28763        0.378402
LJ          -1.54006        -0.94711       -0.116591
LJ          -1.13158        -1.01082        0.970513
LJ          0.308123       -0.393902         2.09467
LJ           3.32145        -3.68638         1.99663
LJ          0.979316         -2.3937      -0.0624996
LJ           2.96894        0.194724        0.108521
LJ          -1.01671     -0.00736873       0.0162552
LJ          -2.13074         1.76933        0.916304
LJ          -1.59099       -0.688911         2.74124
LJ          -1.71036         0.76799       -0.400376
LJ         -0.899721         -3.2105         1.50936
LJ           -1.2397         1.72447       -0.657403
LJ          0.792009         1.36675        0.903283
LJ            2.7189         1.69001        0.807716
LJ           1.23972        -1.16162       -0.360943
LJ         -0.134687        0.163754       -0.953951
LJ           1.75496        -2.31205       -0.845037
LJ           3.37365       -0.765457        -1.27441
LJ         -0.730158        0.976791        -1.47598
LJ          -3.90181         2.12375        -2.95114
LJ          -2.15267       -0.176811        0.472378
LJ          -1.26686       0.0265655        -1.32512
LJ          -0.11202         2.00528       -0.353211
LJ          0.221491         1.99996        -1.45456
LJ          0.344358       -0.236387          3.1796
LJ          0.882093         1.97459      0.00133035
LJ          -5.77609        -4.25418         4.25776
LJ          -0.37744         1.32519        0.980544
LJ           -4.9919        -2.08258         5.23364
LJ           1.27419       -0.386503         3.00203
LJ          0.745615        -0.32226        0.837844
LJ        -0.0199803         2.26815        0.705059
LJ          -1.71169         2.31921          1.8323
LJ          0.375911        0.713355         3.71006
LJ          0.924299         -1.5855        0.720785
LJ          0.079494       -0.560545     -0.00442687
LJ           1.50973        -4.81193         6.18956
LJ           1.77659        -1.94131         1.20707
LJ          0.637268         1.18401       -0.715641
LJ           1.05257       -0.281186       -0.985478
LJ          0.101418        -1.21924         1.41388
LJ          0.291428        0.409257         1.36123
LJ          -0.77304         1.29301         2.87465
LJ          -1.48892        0.996977        0.802973
LJ          0.207516         0.79966          2.4952
LJ           1.55873         2.76427        -2.19586
LJ         -0.620304         0.11097         2.33083
LJ         -0.402067        -1.03804         2.79168
LJ          -2.66608         2.98337        0.978889
LJ          0.048752         1.92964         3.26073
LJ          0.936398        -1.52258         1.93248
LJ           4.15798         4.11171         1.30534
LJ          -5.38946         5.99592         6.27275
LJ          -2.86023        -6.00128       -0.971557
LJ         -0.433497         1.07931       -0.494858
LJ            1.7471         1.56749       -0.555976
LJ            2.2978        0.100324        -1.59135
LJ           3.47224        -1.27149        -5.18134
LJ           3.43875         2.96559         3.11091
LJ          -2.16852         1.87273       -0.115824
LJ           5.94867        -1.47265         3.50637
LJ          -4.98973        0.228409         4.59625
LJ           1.36356        0.732546        -1.37947
LJ          0.202099        -2.19803        -1.38036
LJ          0.865837        -3.44508         4.14675
LJ          -2.24256         5.81075         1.96531
