108
#Comment!
LJ           3.47671       -0.736904        0.701993
LJ          -2.49901         2.79112        -4.09982
LJ           1.14054         -1.7515         1.81531
LJ          -1.29066         2.68023       -0.349571
LJ         -0.428712       -0.201675          2.7198
LJ           1.22065        -2.58877       -0.525685
LJ           1.06922      -0.0677634        -1.41861
LJ           2.29716        -2.42722     -0.00569173
LJ           1.65802        -1.07081         2.58209
LJ         -0.831555        -1.89776         2.84104
LJ         -0.401939         1.95779         3.22145
LJ          0.453529        0.825674        0.378602
LJ          0.355183       -0.874747      -0.0981387
LJ            2.3123        -5.21873        -3.48388
LJ           1.78767        -3.42894        -1.01589
LJ          0.278525        -2.11803        0.685708
LJ           4.25219        -1.90621         5.95503
LJ           1.18985         1.55228       0.0100974
LJ          -0.36923         5.00923        -3.32852
LJ           1.64605        -1.46567       -0.809077
LJ          -2.44639        0.393613         2.85031
LJ           1.71762         3.06028        -2.04818
LJ           2.26517        -0.22438        0.368175
LJ          -1.31222        -3.12626        -1.03504
LJ          0.484941         1.65993         2.61964
LJ        -0.0741819         2.03395       -0.955992
LJ         -0.829971        0.696432        -1.26719
LJ          -5.03649         5.48697        -1.80772
LJ           3.46595         1.45442         1.74599
LJ           1.80215        -2.34313         1.16441
LJ            1.6946       -0.440908         4.97535
LJ            4.6328       -0.241257         2.92347
LJ           1.54743        -2.58177        -1.82386
LJ          0.405059       -0.824835        -2.18133
LJ        -0.0907981         2.18244         0.11709
LJ           3.01542         0.14752       -0.511982
LJ           2.08916        -1.34048        0.885062
LJ          0.402102        -2.96182        -2.30889
LJ           0.91886       0.0457605        -0.37586
LJ           1.31625        0.859524       -0.865407
LJ           2.13744         2.04462       -0.168143
LJ          0.139643         -2.0574         1.80445
LJ          0.724149        -1.69564         -1.5816
LJ         -0.502151       0.0439194        0.381878
LJ           2.21494        0.725704         3.13725
LJ           4.30026        -4.76747        -3.03766
LJ           2.75215       -0.753119         1.81407
LJ           2.77861        -1.70532         2.99033
LJ            2.4972        -1.85673        -1.63926
LJ           -1.0841         2.08551         1.41344
LJ           2.38908        0.601821          1.6201
LJ         -0.329081          3.6819        -2.47641
LJ         -0.587381        -6.31906        -3.11008
LJ          0.163976        0.497877         1.58248
LJ            2.2874        -1.80122         2.03417
LJ           2.74458        -1.17866        -0.11672
LJ           2.33241        0.992701        0.126668
LJ           3.00581        -2.86164        -1.26048
LJ           1.08868         -1.0148         3.39605
LJ           3.02046        0.551664        0.790939
LJ          0.199177         1.01023        -1.23448
LJ           6.15952         6.30297        -5.03341
LJ          0.414882        -1.35979         2.64404
LJ         -0.656379         4.83892         -2.2051
LJ           1.85384         1.40126          1.1704
LJ           1.52042        -0.81365       0.0221043
LJ           1.68627        -2.58104         2.42523
LJ          0.895803          1.8182        -1.11191
LJ           0.54431         2.79801        -2.33047
LJ           1.70736         1.22312         2.29557
LJ           1.98467         1.56229        -5.12397
LJ          0.932518        0.652538         3.54171
LJ          0.942492        -1.13384        0.948459
LJ           1.49812        0.462503         0.79447
LJ         -0.157052        -1.09509        0.961296
LJ          0.448018       -0.205102        0.687829
LJ            1.6926       -0.577447         1.41103
LJ         -0.617632         1.01759      -0.0347603
LJ            3.3707        -1.02979         5.07476
LJ          0.826873       -0.729056         1.93135
LJ           1.98899       0.0171913       -0.657961
LJ           1.19812        -1.84783        0.286716
LJ           2.11423      -0.0635941         2.40056
LJ           3.68402        -1.51073         1.30435
LJ          0.763717         1.96097         1.16067
LJ          -1.47786       0.0431747         1.06861
LJ         -0.762816        -1.79327        0.504833
LJ         -0.292188         1.02077        -2.38033
LJ           1.16355        0.413924         1.82872
LJ          0.691729        -2.72336         2.48728
LJ           0.96165         2.46748       -0.225016
LJ         -0.238897         1.53051        0.949259
LJ         -0.486062        0.869168         2.90426
LJ           0.09006       -0.795806        -1.04983
LJ          0.359892        -1.99108       -0.546296
LJ           1.44459        0.604173         6.23377
LJ         -0.117812       0.0909539       -0.674555
LJ          0.150528         3.40125        0.228437
LJ          -2.57453        -6.46042         4.86101
LJ            5.1015         4.42329         6.23401
LJ          -1.22002          3.4461        -1.10421
LJ          -0.28893      -0.0556514        -1.87495
LJ          0.561169         3.12046        -1.14102
LJ           3.64588       -0.243687        -2.10019
LJ         -0.158546         4.06813        -1.41411
LJ          -1.48643        -1.58442         1.50785
LJ           3.05426        -3.33893        0.884737
LJ           1.40181        -3.30714        0.786659
