108
#Comment!
LJ          -1.59507       -0.788919        -1.15495
LJ          -3.49584        -3.46021        -5.00189
LJ           -4.8735        -3.28686         -3.3389
LJ          -3.44251        -5.05537        -3.47415
LJ          0.773767        -3.66565        -2.51042
LJ         -0.510529       -0.265303        -2.65451
LJ           1.04241        -1.81065        -1.10893
LJ           1.27256        -2.58443       -0.132096
LJ          0.154771        -1.56425        -2.08262
LJ           1.71902       -0.382733       -0.588544
LJ           4.90333         3.75587         3.98454
LJ           1.21195        -1.10213         1.35785
LJ          -1.82617       -0.896177        -2.93218
LJ          -0.19762         2.31309        -2.54904
LJ          -2.31369         1.10642        0.892284
LJ          -1.16411        0.992355        -1.19008
LJ          -1.27954      -0.0938019        -1.88322
LJ           0.21079       0.0115826      -0.0886637
LJ          -1.44584        0.258054        -2.98178
LJ         -0.690749       -0.990855        -1.61958
LJ           1.22288        -2.12777        -2.04608
LJ            1.0121         -1.0295        -1.77724
LJ          0.210483        -0.27294        -1.78233
LJ           5.92347        -3.79157        -5.85888
LJ          -1.75422         1.06055        -3.70626
LJ          0.414957         1.88184       -0.684684
LJ        -0.0263922         2.78071       -0.130728
LJ           4.28835        -6.37826         4.41665
LJ         -0.812919         1.33847        -3.09275
LJ          -1.25802         2.06501        -2.29059
LJ          -3.79316         5.92096        -5.85619
LJ         -0.357696        0.706032        -2.24079
LJ           0.12472         0.69365        -3.52251
LJ          0.747972         1.03744        -1.82868
LJ         -0.326893         1.59618        -1.77017
LJ          0.756723        0.107577        -2.64322
LJ          -1.20209        -2.63404       -0.270491
LJ           -1.3851       -0.864961         1.04705
LJ           -2.2392        0.155819         1.53383
LJ            0.4905        -2.82977        0.822979
LJ          -1.05588        -1.55374       -0.667568
LJ         -0.145881        -2.36472        -1.25753
LJ         -0.807978         -2.7387        0.807375
LJ        0.00025914       -0.922702        0.348771
LJ            1.1854        -2.97655        -1.38036
LJ           5.92011        -5.86157        -3.79681
LJ         0.0218647        -1.51197       -0.754043
LJ           2.06641        -1.37279       -0.719515
LJ          -1.28779        0.106331       -0.904196
LJ          -1.44752         1.00246           -2.24
LJ         -0.563312      -0.0728602        0.981231
LJ          -1.75209        -1.70557        0.453872
LJ         -0.339398       -0.540105       -0.760314
LJ          0.926814         0.72222       -0.414749
LJ          0.437625        0.495323         1.18226
LJ           1.16645       -0.442486        0.421148
LJ          0.717525        -0.65269       -0.712983
LJ           1.19273        0.225635        -1.30275
LJ           2.02537        0.208464        -1.91117
LJ          0.906807        -1.35356        0.045267
LJ          -2.93197        0.468584       -0.555959
LJ          -5.85705         5.92221         -3.7916
LJ           -2.2565         1.69488       -0.491761
LJ          -2.19049        0.344908        -1.47111
LJ         0.0478664         1.23114        0.163549
LJ          0.109511        0.686602        -1.03448
LJ         -0.745814        0.628435       -0.247727
LJ         -0.959632         1.70223       -0.200994
LJ           3.64813         4.48853         1.35622
LJ            4.7468         4.55809         3.14843
LJ          -2.76627         3.96014         5.21645
LJ           3.95744        -2.77176         5.21652
LJ          -1.77948        -3.36639        0.851306
LJ           4.05728         3.74328         4.72505
LJ         -0.498755        0.609947         2.39728
LJ          0.851513        -0.26654         1.94756
LJ         -0.881208        -3.45169         1.64728
LJ          -0.70955        -1.69551         1.00013
LJ          -3.79573        -5.85889         5.92063
LJ           -1.9002        -2.39241         1.38292
LJ         -0.247351        -2.05745        0.149156
LJ           1.29437        -2.00941        0.896237
LJ         -0.191415        -2.32018         1.72307
LJ          0.310507        -1.63412         1.10178
LJ          -1.95007       -0.346481        -0.15733
LJ          -1.02744       -0.878522        0.137598
LJ          -3.00695        -2.48941        0.892035
LJ          -5.85823        -3.79089         5.92248
LJ          -1.16234       -0.229634         1.86637
LJ          -1.27278        -1.60016         1.88437
LJ         -0.592285         1.02696        0.977717
LJ         -0.213635       -0.806915         1.54269
LJ           2.42762       -0.337365         3.35694
LJ           3.96526         5.21132        -2.76595
LJ          -2.76896         5.21572           3.959
LJ           5.04589         2.84043         5.20701
LJ          -1.41637        0.389546        0.787231
LJ          -1.78409        0.758559       -0.123372
LJ          -1.93441         2.02288        0.378985
LJ          -3.07344       -0.570446         1.18215
LJ           1.75317         4.58414         4.37705
LJ           5.22106         3.97303        -2.74703
LJ           2.80203         4.39478         4.64086
LJ           5.21681        -2.76209         3.96317
LJ           3.67139         4.46866          3.7481
LJ           6.05863          5.4747        -1.89777
LJ          -1.31385         5.53923          5.7199
LJ          -6.21975        -1.36182         5.88117
