108
#Comment!
LJ          -3.40293        -3.40138         -3.4024
LJ         -0.324577       -0.325364         -3.8361
LJ            -3.837       -0.324159       -0.324004
LJ         -0.323287        -3.83588       -0.325016
LJ         -0.525934        -2.96844        -2.96989
LJ          0.870015       -0.485314        -3.03912
LJ          0.305421        -1.26926        -1.26928
LJ          0.869506        -3.03942       -0.484927
LJ          0.904095        -2.25943        -2.25915
LJ           1.52455        0.261092       -0.494854
LJ          -1.95125         5.04263         5.04263
LJ           1.52421       -0.495208        0.261314
LJ          -2.97297        -0.52628        -2.97238
LJ         -0.484623         0.86939        -3.03915
LJ          -3.03857        0.869605       -0.485029
LJ          -1.26713        0.305402        -1.26707
LJ         -0.879506        -0.87936         -2.7042
LJ         -0.310253       -0.309613        -1.12538
LJ          -1.80909      0.00519146        -2.59223
LJ        0.00852411        -1.80712        -2.59347
LJ           1.74033       -0.232085        -2.25756
LJ           1.03172        -1.15559        -2.10395
LJ          0.152735       -0.645316        -2.22404
LJ           4.47829        -2.24422        -3.44998
LJ           -2.2585        0.906569        -2.25729
LJ          0.261084         1.52522       -0.497048
LJ         -0.496073         1.52417        0.259769
LJ           5.04263        -1.95125         5.04263
LJ         -0.231001         1.73976        -2.25764
LJ           -1.1545         1.03192        -2.10099
LJ          -2.24438         4.47856        -3.45005
LJ         -0.645055        0.153048        -2.22428
LJ          0.394145        0.394345        -2.59104
LJ          0.845908        0.845825        -3.53514
LJ          0.250727          2.3313        -1.20596
LJ           2.32913        0.249869        -1.20691
LJ          -2.97294         -2.9706       -0.526081
LJ          -1.26765         -1.2671        0.306162
LJ          -3.03938       -0.485533        0.869581
LJ         -0.485254        -3.03972        0.869189
LJ         -0.879156        -2.70372       -0.879107
LJ        0.00811585        -2.59392        -1.80642
LJ          -1.80793        -2.59195      0.00507205
LJ         -0.311103        -1.12547       -0.311336
LJ           1.73974        -2.25633       -0.232069
LJ           4.47838        -3.45015        -2.24455
LJ          0.152837        -2.22483       -0.645362
LJ           1.03207        -2.10375        -1.15511
LJ          -2.70632        -0.87971       -0.879267
LJ            -2.591      0.00456588        -1.80787
LJ          -1.12442       -0.310272       -0.310836
LJ          -2.59115        -1.80747      0.00574307
LJ          -2.20904        -2.21243        -2.21021
LJ          0.455975        0.457826       -0.611088
LJ         -0.611812        0.456901        0.456149
LJ          0.456915       -0.611835        0.457919
LJ          0.576897       -0.585822       -0.585728
LJ          0.963559      -0.0676585        -1.60014
LJ           1.39886       -0.999171       -0.998152
LJ          0.962749        -1.59877      -0.0678092
LJ           -2.2592         1.74079       -0.230741
LJ          -3.44999         4.47841         -2.2443
LJ           -2.1008         1.03167        -1.15429
LJ          -2.22452        0.152321       -0.645653
LJ         -0.585737        0.577689       -0.585653
LJ        -0.0666187        0.964407        -1.59805
LJ          -1.60085        0.964296      -0.0668889
LJ         -0.998313         1.40108       -0.998516
LJ           2.44199           2.442         1.70443
LJ            2.5944         2.59462        0.669752
LJ        -0.0553301         2.62372        -4.44922
LJ           2.62359      -0.0553574        -4.44925
LJ          -2.25861        -2.25844        0.905924
LJ           5.04263         5.04263        -1.95125
LJ         -0.495373        0.260262         1.52378
LJ          0.262317       -0.495731         1.52452
LJ          -0.23113        -2.25685         1.73964
LJ         -0.645073         -2.2244        0.153646
LJ          -2.24455         -3.4502          4.4786
LJ          -1.15445         -2.1019         1.03252
LJ          0.394229        -2.59154        0.394639
LJ           2.32977        -1.20635        0.250748
LJ           0.25062        -1.20608         2.33078
LJ          0.846179        -3.53538        0.846442
LJ          -2.25892       -0.231921         1.74084
LJ          -2.22428       -0.645734        0.152516
LJ          -2.10289        -1.15546         1.03113
LJ          -3.44991         -2.2442         4.47821
LJ         -0.585359       -0.585409        0.576819
LJ         -0.998458       -0.998479         1.39915
LJ          -1.60106      -0.0675094        0.964312
LJ        -0.0672391        -1.59752        0.964189
LJ           2.44188         1.70413         2.44194
LJ           2.62391         -4.4495      -0.0555004
LJ        -0.0555003        -4.44942         2.62378
LJ           2.59418        0.669594         2.59427
LJ          -2.59129        0.393589        0.393938
LJ          -1.20586         2.33006        0.250149
LJ          -3.53476        0.845791        0.845668
LJ          -1.20607        0.250642          2.3293
LJ            1.7043         2.44201         2.44204
LJ          -4.44854         2.62325      -0.0555855
LJ          0.669768         2.59456         2.59434
LJ          -4.44901       -0.055405         2.62373
LJ          -6.11296        -6.11296        -6.11296
LJ           1.33718         1.33592        -1.47967
LJ          -1.48111         1.33667         1.33709
LJ           1.33836        -1.47976         1.33607
