108
#Comment!
LJ          -2.20414        -2.20414        -2.20414
LJ          -1.45744        -1.45744        -2.59192
LJ          -2.59192        -1.45744        -1.45744
LJ          -1.45744        -2.59192        -1.45744
LJ         -0.761306        -2.52033        -2.52033
LJ         -0.946433        -3.13397        -4.06636
LJ         -0.934215        -1.75144        -1.75144
LJ         -0.946433        -4.06636        -3.13397
LJ          0.190117        -2.18405        -2.18405
LJ           1.80321       -0.918442        -2.65757
LJ           2.78105        -4.93665        -4.93665
LJ           1.80321        -2.65757       -0.918442
LJ          -2.52033       -0.761306        -2.52033
LJ          -3.13397       -0.946433        -4.06636
LJ          -4.06636       -0.946433        -3.13397
LJ          -1.75144       -0.934215        -1.75144
LJ         -0.731855       -0.731855        -1.40561
LJ         0.0402755       0.0402755        -1.47846
LJ            -1.316       -0.395324        -2.78257
LJ         -0.395324          -1.316        -2.78257
LJ           1.99295       -0.151029        -4.00067
LJ           1.55298        0.703524        -2.83778
LJ          0.586879           -1.16        -1.99313
LJ            2.9091      -0.0605857        -3.08882
LJ          -2.18405        0.190117        -2.18405
LJ         -0.918442         1.80321        -2.65757
LJ          -2.65757         1.80321       -0.918442
LJ          -4.93665         2.78105        -4.93665
LJ         -0.151029         1.99295        -4.00067
LJ          0.703524         1.55298        -2.83778
LJ        -0.0605857          2.9091        -3.08882
LJ             -1.16        0.586879        -1.99313
LJ         -0.262372       -0.262372        -2.87353
LJ          0.613965        0.613965        -2.30752
LJ          0.966295         1.98501       -0.798584
LJ           1.98501        0.966295       -0.798584
LJ          -2.52033        -2.52033       -0.761306
LJ          -1.75144        -1.75144       -0.934215
LJ          -4.06636        -3.13397       -0.946433
LJ          -3.13397        -4.06636       -0.946433
LJ         -0.731855        -1.40561       -0.731855
LJ         -0.395324        -2.78257          -1.316
LJ            -1.316        -2.78257       -0.395324
LJ         0.0402755        -1.47846       0.0402755
LJ           1.99295        -4.00067       -0.151029
LJ            2.9091        -3.08882      -0.0605857
LJ          0.586879        -1.99313           -1.16
LJ           1.55298        -2.83778        0.703524
LJ          -1.40561       -0.731855       -0.731855
LJ          -2.78257       -0.395324          -1.316
LJ          -1.47846       0.0402755       0.0402755
LJ          -2.78257          -1.316       -0.395324
LJ         -0.440949       -0.440949       -0.440949
LJ          0.365658        0.365658       -0.390352
LJ         -0.390352        0.365658        0.365658
LJ          0.365658       -0.390352        0.365658
LJ          0.531458       -0.685536       -0.685536
LJ           1.16736      -0.0491515        -1.59595
LJ           1.41444      -0.0455152      -0.0455152
LJ           1.16736        -1.59595      -0.0491515
LJ          -4.00067         1.99295       -0.151029
LJ          -3.08882          2.9091      -0.0605857
LJ          -2.83778         1.55298        0.703524
LJ          -1.99313        0.586879           -1.16
LJ         -0.685536        0.531458       -0.685536
LJ        -0.0491515         1.16736        -1.59595
LJ          -1.59595         1.16736      -0.0491515
LJ        -0.0455152         1.41444      -0.0455152
LJ           1.05011         1.05011       0.0124314
LJ          0.917152        0.917152        -1.07665
LJ           1.73292         2.71925       -0.777071
LJ           2.71925         1.73292       -0.777071
LJ          -2.18405        -2.18405        0.190117
LJ          -4.93665        -4.93665         2.78105
LJ          -2.65757       -0.918442         1.80321
LJ         -0.918442        -2.65757         1.80321
LJ         -0.151029        -4.00067         1.99295
LJ             -1.16        -1.99313        0.586879
LJ        -0.0605857        -3.08882          2.9091
LJ          0.703524        -2.83778         1.55298
LJ         -0.262372        -2.87353       -0.262372
LJ           1.98501       -0.798584        0.966295
LJ          0.966295       -0.798584         1.98501
LJ          0.613965        -2.30752        0.613965
LJ          -4.00067       -0.151029         1.99295
LJ          -1.99313           -1.16        0.586879
LJ          -2.83778        0.703524         1.55298
LJ          -3.08882      -0.0605857          2.9091
LJ         -0.685536       -0.685536        0.531458
LJ        -0.0455152      -0.0455152         1.41444
LJ          -1.59595      -0.0491515         1.16736
LJ        -0.0491515        -1.59595         1.16736
LJ           1.05011       0.0124314         1.05011
LJ           2.71925       -0.777071         1.73292
LJ           1.73292       -0.777071         2.71925
LJ          0.917152        -1.07665        0.917152
LJ          -2.87353       -0.262372       -0.262372
LJ         -0.798584         1.98501        0.966295
LJ          -2.30752        0.613965        0.613965
LJ         -0.798584        0.966295         1.98501
LJ         0.0124314         1.05011         1.05011
LJ         -0.777071         2.71925         1.73292
LJ          -1.07665        0.917152        0.917152
LJ         -0.777071         1.73292         2.71925
LJ           1.32676         1.32676         1.32676
LJ           2.15813         2.15813        0.118445
LJ          0.118445         2.15813         2.15813
LJ           2.15813        0.118445         2.15813
