108
#Comment!
LJ           -2.9741        -2.91614        -2.95389
LJ          -1.64684        -1.62973        -4.62762
LJ          -4.60573        -1.57658        -1.60382
LJ          -1.62629        -4.64649        -1.63663
LJ         -0.341652        -2.61034        -2.16624
LJ          0.917545       -0.642253        -3.12007
LJ          0.355999        -1.07809         -1.1216
LJ          0.989914        -2.98222       -0.635858
LJ            1.4485        -2.09343         -2.0159
LJ           1.78612         0.34482       -0.567834
LJ           6.08145         4.97822         4.97574
LJ           1.66668       -0.783899        0.409091
LJ          -1.99966        -1.04231        -2.23445
LJ         -0.522522        0.938149        -2.73119
LJ          -2.88102        0.726031       -0.603848
LJ          -1.21265        0.550822        -1.11361
LJ         -0.739063        -0.71352        -2.98828
LJ          0.166549       0.0879868       -0.629464
LJ          -1.69135        0.670328        -2.55932
LJ          0.313201        -1.63839        -2.33131
LJ           1.99185        -1.36604        -2.74531
LJ           1.19532       -0.978909         -1.9888
LJ         -0.430616       -0.817002        -1.86479
LJ           6.10879        -3.78571        -4.81441
LJ          -2.13568          1.5374        -2.26705
LJ          0.397229          1.7531       -0.925797
LJ         -0.734062         1.81108         0.40313
LJ           4.99211         6.05157          4.9919
LJ          -1.27545          1.9579        -2.93099
LJ          -1.09428         1.38301        -1.93191
LJ          -3.78604          6.1093        -4.81447
LJ         -0.662836        0.255355        -2.01429
LJ         0.0597671      -0.0319436        -2.80037
LJ          0.588543        0.739471        -2.19743
LJ        -0.0274074         1.74621        -1.91081
LJ           1.44855      -0.0230491        -2.25212
LJ          -2.06899        -2.48417       -0.709799
LJ          -1.22831        -1.09847        0.510968
LJ          -2.96696       -0.723991        0.649698
LJ         -0.582178        -2.81834        0.903477
LJ         -0.818882        -2.96954       -0.819122
LJ          0.393743        -2.33573        -1.51592
LJ           -1.6067        -2.53769        0.518722
LJ          0.150585       -0.571337        0.202499
LJ           2.09515        -2.87277        -1.41445
LJ           6.10895        -4.81467        -3.78634
LJ         -0.367659        -1.90064       -0.889183
LJ           1.31753        -1.99754         -1.0413
LJ          -3.13582       -0.642273       -0.661388
LJ          -2.41184        0.694096        -1.77324
LJ         -0.686993        0.102784        0.119119
LJ          -2.25796        -1.69989        0.516083
LJ         -0.787528       -0.654445       -0.778335
LJ          0.836191        0.874328      -0.0160783
LJ         0.0753701        0.714898        0.697437
LJ          0.929563       0.0773596        0.925668
LJ           1.08037       -0.248777       -0.205221
LJ          0.994172       -0.147451        -1.24929
LJ           1.67784       -0.918817       -0.844487
LJ          0.930253        -1.27297       -0.187008
LJ          -2.90247         2.09465        -1.35515
LJ          -4.81435         6.10896        -3.78584
LJ           -1.8959         1.41789        -1.08722
LJ          -2.05541       -0.101999       -0.978155
LJ          -0.19126         1.24786       -0.253828
LJ         -0.207168        0.895825        -1.26529
LJ          -1.25291         1.04732       -0.173181
LJ         -0.889285         1.80805       -0.953042
LJ           3.29046         3.29498         2.49646
LJ           4.12992          4.1298         1.93874
LJ          -1.43677         3.30354        -6.11431
LJ           3.30306        -1.43672        -6.11455
LJ          -2.09633        -2.14858         1.47605
LJ           4.98119         4.98337         6.07291
LJ         -0.533348        0.471297         1.74808
LJ          0.368343       -0.997978         1.68168
LJ          -1.35624        -2.93733         2.06947
LJ         -0.575111        -1.97958        0.220714
LJ          -3.78636        -4.81474         6.10936
LJ          -1.10317        -1.96474         1.46092
LJ         0.0759938         -2.8619      -0.0788985
LJ           1.54471        -2.09314      0.00677106
LJ         0.0437321        -1.98109         1.68726
LJ          0.647178        -2.27074        0.658656
LJ          -2.75844        -1.38677         2.07953
LJ          -1.96011         -1.1225       -0.330803
LJ          -1.96014       -0.977558          1.2897
LJ          -4.81423        -3.78568         6.10862
LJ         -0.179541       -0.313404          1.1909
LJ         -0.828157       -0.988767         1.74812
LJ          -1.28112       -0.104466         1.10972
LJ         -0.253192        -1.32734        0.888842
LJ           3.29251         2.49392         3.29168
LJ           3.30427        -6.11583        -1.43706
LJ          -1.43707        -6.11501         3.30366
LJ           4.13115         1.93374         4.13085
LJ          -2.43468       0.0753399        0.188704
LJ          -2.17857         1.65519      -0.0229974
LJ          -2.23328        0.942162         0.83807
LJ          -2.32773      -0.0458844         1.43975
LJ           2.49579         3.29567         3.29021
LJ          -6.11118         3.30132        -1.43745
LJ           1.93881         4.13018         4.13053
LJ          -6.11361        -1.43694         3.30337
LJ           4.94349         4.93889         4.94151
LJ           3.27528         3.24817       -0.252363
LJ         -0.277977         3.28234         3.29893
LJ           3.29855       -0.220384         3.21759
