108
#Comment!
LJ           4.13524       -0.338104         1.32176
LJ           1.14844          2.6811         -1.9328
LJ          0.520261        -2.00325         1.48224
LJ          -1.33614        0.945065        -1.56656
LJ          0.129274        0.401623         3.87553
LJ         -0.380045        -1.34205        -2.09619
LJ          0.896579        0.628161        -1.44894
LJ          0.720878        -1.00543        -2.25779
LJ           1.43989       -0.921673         2.32189
LJ           0.51405       -0.685932         1.82011
LJ         -0.126124         2.05263         2.57179
LJ          0.767121        0.867944         1.33127
LJ          -1.75783       -0.885909       -0.868492
LJ           3.05417         2.01256        0.253827
LJ          -1.34056        -2.44107        0.228795
LJ          -1.30124        -1.34372         0.56404
LJ          -2.82007       -0.236718        -3.28475
LJ          0.923899        0.355949        0.407509
LJ          0.209924         4.18005          5.4113
LJ         -0.848803       -0.690442         -1.2591
LJ          0.209786       -0.337849         5.17507
LJ           1.36963          1.6886        -1.09772
LJ           3.74386        0.784042       -0.905924
LJ          -4.78251       -0.202526        -2.83295
LJ            2.7955        -5.34655         5.44639
LJ        -0.0960129         1.21213        -1.34176
LJ          -2.83358         -1.7779        -2.19327
LJ           3.99397         6.39351        -1.22672
LJ           2.40777         1.92867         1.41747
LJ         -0.142634        -1.58776        0.646949
LJ         -0.857457        -2.25623         2.29356
LJ           5.36411          3.7789        -4.84736
LJ         -0.226737        -4.77226       -0.431091
LJ           1.17259       0.0985996        -2.53264
LJ         -0.102872         1.03809        0.537153
LJ           2.76755        0.266096        -1.24577
LJ           1.70667        -1.03467        0.430812
LJ           0.11979        -1.77732       -0.448226
LJ         -0.159047        0.113019       0.0466919
LJ            2.0637         1.06894        -1.46213
LJ          0.902111         1.60482        0.423071
LJ         -0.679146       -0.583156         2.15688
LJ          -1.10067        -1.83623        -3.06981
LJ          -1.08518       -0.270325       -0.268637
LJ           3.38549         -1.3526         1.76999
LJ          -4.66907        -4.53799        -5.52704
LJ           2.37248       -0.524516         1.79483
LJ           3.23658       -0.753823        0.728385
LJ          -1.38394       -0.872356        -2.51807
LJ          -1.25204        0.361907         2.14219
LJ           1.04795         1.04314         2.40032
LJ         -0.464537         1.34089        -2.31283
LJ           4.55059        -4.54683        -1.89661
LJ          0.181177         1.91417         1.14883
LJ           1.34569       -0.261458         1.39656
LJ           3.82363        0.544974        0.760358
LJ           1.20664       -0.384633       -0.516015
LJ           1.10991        -1.36275       -0.916425
LJ        -0.0083169        -1.06954          2.7548
LJ           4.32071        -0.77725        0.302827
LJ           1.56273         0.89646       -0.503271
LJ          -1.59057         4.96806        -4.42707
LJ           2.62417        -1.17175         2.72463
LJ          -1.92835        0.779578        -2.88414
LJ           2.03649      -0.0375951        0.602215
LJ          0.542644       -0.312096        -1.32289
LJ          0.474081        -2.02032         2.56536
LJ           2.72763         1.17579       -0.436405
LJ        -0.0537223         6.07103        -2.33132
LJ         -0.129425        0.727943         2.29656
LJ         -0.989328        0.720821         6.35325
LJ           2.34431         1.89711         2.75488
LJ         -0.349033       -0.247686         1.05261
LJ           1.88203        0.925332        0.497242
LJ          -1.42547       -0.531216          1.3738
LJ           1.50373        0.107937         3.21186
LJ          0.656417       -0.830876        0.765116
LJ          0.440913         0.83901       -0.531445
LJ          0.769464         1.00998         4.97504
LJ           1.68721        -2.10256         2.26651
LJ           1.75255       -0.192903        -1.43933
LJ          0.231631       -0.701258       -0.264221
LJ           1.82787        0.759299         1.67225
LJ           1.50063        -1.39364         1.40141
LJ           1.32776         1.84176         1.47838
LJ         -0.856111         1.22745       -0.662522
LJ         -0.583022        -2.44355         1.23361
LJ          0.256376        0.484766        -2.40038
LJ          0.535852       -0.122274         2.65314
LJ         -0.743304        -1.48331         1.56483
LJ        -0.0648942         1.84675        -0.14677
LJ         -0.232328         3.81217        0.874069
LJ         -0.755806         1.15496         3.49066
LJ          -1.41413        -1.95514        -1.85218
LJ          -1.03182         -1.8394       -0.559312
LJ          0.634688         1.77795         -2.0616
LJ         -0.473039        0.294186        -1.03686
LJ         -0.377882         2.88088         1.79007
LJ           1.81293        -4.01172         1.67674
LJ           5.59261         1.56956        -5.66752
LJ           1.23878         4.98268        0.509443
LJ         -0.697722      -0.0675477        -2.09358
LJ          0.871124         4.00104       -0.336311
LJ          -3.20875       -0.980805        -4.70309
LJ           1.44565         2.87348       -0.362647
LJ          0.307912        -3.41435        0.278544
LJ          0.902105         -2.1799        0.476549
LJ          -4.31889        -4.30753         1.81643
