108
#Comment!
LJ              1.77       -0.774168         1.14485
LJ           2.65843        -1.63379         1.37578
LJ          -1.64607       -0.611291         2.48128
LJ          -3.26564         2.33429         1.74633
LJ           2.52066        -1.17685        0.267495
LJ           1.70182        0.912749        -1.29397
LJ            2.4485        0.245901        0.991203
LJ           2.60258        0.311491        -1.23075
LJ           1.63093        -1.50118         0.37612
LJ           2.06974        -1.51808       -0.563508
LJ          -1.93064         3.41741        0.500972
LJ           1.26853        0.745889         2.50001
LJ         -0.509872        -1.79775        0.130696
LJ           3.17113       -0.630424       -0.342749
LJ          -0.38641         1.08088          3.1267
LJ        -0.0665939        0.726566         1.68531
LJ          0.628571         -1.6609        -2.30798
LJ          0.534133        0.759232        0.241881
LJ         -0.799184         1.75538         2.38573
LJ         -0.553511       -0.793973       -0.821503
LJ           1.36976        -3.61062        0.749284
LJ           1.40171        0.481909       -0.342331
LJ           1.80666       -0.555068        -1.99051
LJ           5.74517         4.28375         3.15856
LJ          -4.48881        -4.35555         5.39822
LJ          -1.93571         3.46873       -0.757542
LJ          -3.34192         5.92761       -0.616789
LJ          -0.76609        -6.08371         3.85871
LJ          0.521777          2.4278         1.92343
LJ          -2.83272        0.316965         1.16583
LJ           -1.2172         0.43193          1.4094
LJ          -2.30833        -4.20838         4.72571
LJ         -0.190168        -1.38161        -1.62408
LJ            1.1485        -1.21185        -1.45165
LJ          -1.09027         2.61558        0.366101
LJ          0.272964        -1.39176       -0.544345
LJ         -0.680078        -2.35631        -1.04447
LJ         0.0525611       -0.630534        -2.43156
LJ           -1.8382        0.460236         2.33378
LJ           2.32785        0.858906       -0.131564
LJ           1.57393         1.34468        0.502082
LJ          0.790379        -2.51608        0.422143
LJ          -1.50674       -0.610228       -0.595842
LJ           -1.5147        -1.33274        0.151971
LJ            1.7725       0.0857252         1.96508
LJ            1.7588        -4.00147          3.2851
LJ           1.23247        -2.04307       -0.450269
LJ           2.08984       -0.279264        0.203754
LJ          -1.29229        0.116493        0.279181
LJ          -1.56902         1.34766         1.73206
LJ          -1.30739        0.343894         3.58383
LJ          -1.18398        0.509712       -0.820089
LJ          -1.35033         -2.2726        0.667216
LJ          -1.41318         2.78778        -1.47005
LJ           1.07493          1.3982          1.4839
LJ           2.10023         1.79289         1.86853
LJ           1.07838       -0.366746        0.282117
LJ        -0.0766395      -0.0666321        -1.52685
LJ           2.24583        -2.51812      -0.0119398
LJ           3.45635        0.700996       -0.229472
LJ         -0.475852         1.55187        -0.97497
LJ          -6.06523         2.71765         -3.2673
LJ         -0.908317        -1.22598         1.10379
LJ           -1.1266       -0.245866        -1.54639
LJ         -0.064657         2.13807      -0.0435683
LJ          0.317571         1.32754        -1.78638
LJ            1.0684       -0.703096         2.47873
LJ          0.890166         2.20962        0.592691
LJ            -4.894         6.11846         6.28417
LJ         -0.722655         1.94958         1.35091
LJ          -4.82277        -2.16673          5.9181
LJ           2.74757       -0.169927          2.0245
LJ           1.31546        0.492607        0.967983
LJ          0.197565          1.7091         1.04857
LJ          -2.54424         1.43179         2.32537
LJ         -0.102706       0.0891158         3.72157
LJ         -0.309406       -0.773646        0.174524
LJ         -0.275596        0.312625        -0.29857
LJ           1.03912        -6.42089         5.63919
LJ          0.518165        -1.50601         0.54872
LJ          0.411585        0.937129       -0.792375
LJ            0.5311       -0.325725       -0.564814
LJ         -0.211889       -0.382087         1.87148
LJ          0.147974      -0.0541105        0.902124
LJ          0.347501         1.39785         2.39271
LJ          -1.58877         1.30905        0.611841
LJ           1.10249       -0.483413         3.90531
LJ           1.91407         2.48783        -1.20784
LJ          0.363139        0.238506         2.59536
LJ         -0.630713       -0.913244         2.88199
LJ          -1.79678         2.41607         1.31321
LJ         0.0590286         2.31317         3.05312
LJ          0.692755        -1.80726          1.7593
LJ           2.49433         6.05061       -0.387087
LJ          -4.50849         3.93347         3.54687
LJ         -0.665698        -4.36155      -0.0623495
LJ          -0.52964         1.13166        0.463449
LJ           1.12893         1.73012       -0.360442
LJ           1.72407       -0.481409       -0.676798
LJ           3.88016       -0.712469        -5.27919
LJ           2.49794         2.31127        0.552072
LJ           -1.3548         1.74059       -0.399245
LJ           3.72902       0.0813547         1.90692
LJ          -4.08369       -0.240357         4.92096
LJ           1.13067       0.0320253         -1.4437
LJ          0.542373        -2.29842        -1.27921
LJ          -1.62068        0.256434         5.91468
LJ         -0.788637         4.14641        -6.24757
