108
#Comment!
LJ           1.57758        -1.03416         1.04865
LJ           3.30622        -1.60649         2.67209
LJ          -1.99016         0.15379         1.49669
LJ          -1.19487         4.28892         1.02495
LJ           2.82767        -1.59076       -0.504698
LJ           2.30108         1.74076        -1.73148
LJ           1.34053       -0.141736         1.68712
LJ           2.39744        0.746694       -0.370613
LJ           2.17172        -1.91721        0.326464
LJ          0.967767        -1.39979        -1.73421
LJ         -0.862599         2.87957        0.958592
LJ           1.78396         1.87541         1.71991
LJ         -0.924398          -3.014        0.349416
LJ           2.15178       -0.427839       -0.505062
LJ          -1.87525        0.445617         2.70631
LJ          0.811975         2.00314         2.11674
LJ          0.657074       -0.338557        -2.23278
LJ         0.0770658         0.41828        0.425025
LJ         -0.456248         1.73205         2.28673
LJ         -0.873611        -0.72092        -0.82976
LJ          0.691101        -3.16529       -0.475663
LJ            1.1891       0.0479875        -0.18982
LJ           1.37767        0.458214        -2.44637
LJ           4.87083         5.40844         1.03343
LJ          -1.76728         5.47573         5.76812
LJ          -1.88765         2.78243         0.50875
LJ          -3.47461         4.75371       -0.154286
LJ          -2.11377         5.59095        -5.89594
LJ           1.17072         1.62749         3.15441
LJ          -5.14126         1.98653         2.82877
LJ         -0.837403        0.186334         1.07024
LJ         -0.773923        -2.75563        -5.43546
LJ         -0.298251       -0.585575        -1.86871
LJ          0.154689        -1.23549       -0.637595
LJ          -1.26751         1.89595        0.574423
LJ         -0.203801        -2.20284       -0.117277
LJ           -1.3851        -2.03998       -0.473113
LJ          0.529397        0.969224        -2.15113
LJ          -1.54645         1.13554         1.67579
LJ           1.53436         1.11725        0.408275
LJ           1.98171       0.0530416        0.705242
LJ           1.52544        -3.03076        0.384463
LJ          -1.51384        -1.08542      -0.0553812
LJ          -1.19705       -0.909273         1.00865
LJ          0.463843       -0.431742         2.23825
LJ           3.53728        -3.60707         1.79282
LJ           1.10593        -2.11461       0.0642809
LJ           3.28022       0.0151446      -0.0216723
LJ         -0.954325      -0.0682075       0.0115529
LJ          -2.33272         1.95267        0.907982
LJ          -1.68821       -0.648357         2.59486
LJ          -1.51006        0.645708       -0.488961
LJ         -0.882033          -3.415          1.4779
LJ          -1.18874         1.78577       -0.726117
LJ          0.631391         1.45956         1.10859
LJ           2.66232          1.6018        0.634676
LJ           1.25369        -1.21089       -0.429677
LJ         0.0399453       0.0683093       -0.875982
LJ           1.43183        -2.08869       -0.986653
LJ           3.32558       -0.986193         -1.2531
LJ         -0.594309        0.914306        -1.62772
LJ          -3.58126         2.03601        -2.90227
LJ          -1.97342      -0.0474911        0.132827
LJ          -1.60764        0.049931        -1.28295
LJ         -0.229939         2.14935       -0.358492
LJ          0.173063         1.87622        -1.44794
LJ        -0.0255512       -0.132924         3.22112
LJ           1.01064         1.88346      -0.0151936
LJ          -6.00932        -4.36431         3.87486
LJ         -0.474804         1.21819        0.868272
LJ          -4.93335        -1.59623         5.22279
LJ           1.52336       -0.477857         2.85123
LJ           0.91623       -0.218303        0.761886
LJ          0.174627         2.36812        0.733958
LJ          -1.43743         2.20792         2.00037
LJ           0.50197         1.12053         3.71921
LJ          0.780783        -1.78654         1.06002
LJ         0.0116658        -0.67931        0.157153
LJ           1.57467        -4.57356         6.26732
LJ           2.07146        -1.93863         1.45978
LJ          0.526673        0.902933       -0.521046
LJ            1.0181       -0.494243        -1.14484
LJ        -0.0669739       -0.928471         1.08849
LJ          0.128275        0.674206         1.70766
LJ         -0.930843         1.29455         3.19805
LJ          -1.60092        0.752139        0.664228
LJ          0.195042         1.06382         2.73682
LJ           1.67601         2.93268         -2.3049
LJ         -0.686948        0.249114         2.51377
LJ         -0.509434        -1.30409         2.43644
LJ           -2.7714         2.84451         1.40347
LJ          0.117687         2.09474         3.03465
LJ            1.1429        -1.23124         1.98828
LJ            4.4701         3.88751         1.57957
LJ          -5.51462         6.30256        -6.25352
LJ          -3.18323        -6.24675        -1.10019
LJ         -0.545895        0.899261       -0.469389
LJ           1.95085         1.72091       -0.722215
LJ           2.22768        0.425364        -1.40758
LJ           3.41125        -1.35328        -5.16527
LJ           3.48661         2.97183         3.42882
LJ           -2.2318         2.08735       -0.380143
LJ            6.2418        -1.71065         3.73276
LJ           -5.1208        0.293011         4.54305
LJ           1.23345        0.692022        -1.29745
LJ          0.160963        -2.12732        -1.13452
LJ           1.23124        -3.97767         3.86525
LJ          -2.45169         6.06334         1.27459
