108
#Comment!
LJ         -0.773039        -1.85298      -0.0026103
LJ           -5.5745         4.87133        -2.02412
LJ            1.4828         3.53724         -2.7478
LJ           1.59942         2.42222        -3.27688
LJ           1.08836        -1.47108       -0.589502
LJ            0.1081         2.31316       -0.271379
LJ           1.13309         -1.7397        0.507931
LJ          0.661139        -2.65612        0.854825
LJ           1.34917        -2.63655       -0.368932
LJ           1.72577       0.0593234       -0.521439
LJ           1.42748         1.62658         0.62058
LJ            1.1922       -0.833878         1.88895
LJ          -1.29569       -0.800968        -1.92288
LJ          0.450603         1.60295        -1.58265
LJ         -0.148804         1.89339        0.687384
LJ         -0.476775         3.51875         1.11906
LJ          -1.11508         1.18899        -1.20065
LJ          -0.15213      -0.0974114        0.519076
LJ         -0.416693         3.15099       0.0189585
LJ         -0.145886       -0.608324        -1.13707
LJ          0.881209       -0.708947        -1.47114
LJ           0.25115        -1.18209       -0.123699
LJ         -0.902682        0.542832        -2.08233
LJ           0.71036         4.38695         4.45865
LJ          -3.36328        -6.31254       -0.401637
LJ         -0.509515          1.9959        -1.91208
LJ          0.369509          2.3901        -2.71492
LJ           4.69977         1.72822        0.922684
LJ          0.627646         3.84902       -0.606979
LJ            1.9743         5.68019        -1.71954
LJ          -1.68778        0.405703         1.44042
LJ          0.307193        0.690235        -2.30459
LJ         -0.309476        0.556169        -3.56372
LJ          0.964572        0.617932        -1.35952
LJ          0.253264         1.03558        0.213304
LJ         -0.263484        0.588878        -1.34333
LJ          -1.30174        -2.45933       -0.845402
LJ          -2.98572       -0.250331       -0.383823
LJ          -1.17831         1.43607        0.132271
LJ          0.961707        -1.74994         1.42163
LJ         -0.725785        -1.03325        0.709451
LJ         -0.489358        -2.77688         0.50988
LJ          -1.65982        -1.47612       0.0986141
LJ          -0.81236       -0.216126         1.48845
LJ          -0.12381        -3.74616         1.14479
LJ           -5.9136        -5.58664        0.454455
LJ          0.384325        -2.35001       -0.213246
LJ           1.70347        -2.49152         1.11845
LJ          -0.65726       -0.605387       -0.227084
LJ         -0.882058         2.22111       -0.749706
LJ          0.209877       -0.200855         1.62228
LJ          -1.85301        0.605839       -0.429014
LJ          0.192108        -1.83123        -1.07169
LJ         -0.125726         1.39642       -0.706143
LJ           1.07594         0.25673         0.46111
LJ           1.92229       -0.596326         1.12749
LJ           1.39916        -0.77727        0.185375
LJ          0.576276       0.0156373       -0.297182
LJ           2.55526       0.0453484        -1.44004
LJ           3.07518        0.222775       -0.540712
LJ          -1.27984      -0.0418126         -1.1213
LJ          -6.15204         3.30965          1.2356
LJ          -2.22866         1.65823       -0.172084
LJ          -1.31899        -1.20856       -0.907101
LJ         -0.257182         1.74744          1.9968
LJ         -0.466848        0.426577       -0.348419
LJ         -0.553438        0.916767         1.18149
LJ             1.878         2.71252       0.0515986
LJ           2.77922         6.34142        -6.17326
LJ          0.595924        0.777797         1.21985
LJ          -3.71887        -1.61286          5.9039
LJ          -2.13061         5.10181        -5.65147
LJ         0.0404462        -1.81388        0.710655
LJ           1.03764         1.00995       -0.333273
LJ          -1.15549          1.0776         2.35754
LJ          0.116247        0.897361         2.38452
LJ          -1.23782        -3.31353          1.3842
LJ           -1.2567        -2.11287         1.02082
LJ           1.38747         1.73004         5.40366
LJ          -5.69175        -1.80802         2.29866
LJ          0.493363       -0.849867        0.848164
LJ           2.36227        -1.81316       -0.574643
LJ         -0.293613         -2.4403         1.62362
LJ          -0.01506        -1.33435         1.70206
LJ          -2.60784        0.583063         0.66506
LJ          -1.25817        0.140756        0.413463
LJ          0.999812        -2.87655         1.88438
LJ           -2.3269         3.14252         2.66088
LJ           1.14704       -0.404115         3.43725
LJ          -1.31368        -1.15467         1.84406
LJ          -1.00285         2.44959        0.471769
LJ          0.528669        -1.17098         2.86089
LJ          0.380245        -2.13537         2.37157
LJ           -2.7747        -4.30474          6.0586
LJ           5.74318        -4.93766       -0.340766
LJ           6.32729         2.90309        -3.80207
LJ          -1.68757       -0.849589        0.992813
LJ          0.645185          2.7093        0.951029
LJ           1.76785         3.78263         0.68798
LJ           2.77099        -2.82123       -0.559575
LJ           5.11617         3.49112       -0.878133
LJ          -4.70998         1.01541        -2.48263
LJ         -0.516711         5.75827        -1.14821
LJ           5.77418         5.37299         2.48818
LJ           1.78589        0.676844         1.01665
LJ          -2.03596       -0.501478      -0.0702513
LJ          -1.47053         6.42164        -3.99072
LJ          -2.14794        -2.13685         6.24351
