108
#Comment!
LJ           3.72346       -0.858232        0.727467
LJ          -1.98746         2.93956        -2.44402
LJ          0.717655        -1.80272         1.57399
LJ         -0.551223         2.82549       -0.848748
LJ          0.789853        0.369585         3.25007
LJ          0.486454        -2.77569       -0.865468
LJ          0.447295      -0.0365567        -1.28453
LJ           1.71454        -1.82016       -0.705752
LJ           1.82662        -1.44065         2.04548
LJ         0.0876401        -0.84066         2.14622
LJ         -0.348956         1.82774         2.90503
LJ           0.24075        0.822725        0.940942
LJ          0.219379       -0.696187       -0.536823
LJ           2.01356          5.9348         -2.0646
LJ          0.741565        -3.66226       -0.343169
LJ         -0.317155        -1.78456       0.0361863
LJ           5.61371        -1.62075        -5.92276
LJ          0.783573         1.47859        0.176408
LJ         -0.201723         4.81341        -4.73162
LJ           1.04492        -1.23266        -1.36358
LJ          -2.02344        0.305967         3.83003
LJ          0.481893         1.96005        -2.35877
LJ           3.15762       -0.228399      -0.0815815
LJ           -2.5386        -2.33874        -1.53694
LJ          0.624319        0.059118         4.72341
LJ          0.136515         1.91132        -1.28472
LJ          -1.11815        0.140561        -1.79488
LJ          -2.43302         5.84353        -1.67512
LJ           1.98364          1.9514          1.9199
LJ          0.853031        -2.49236        0.538836
LJ           2.02697        -1.17465         4.03148
LJ           4.15452        0.805593         4.34829
LJ           1.12602        -3.51023        -1.70024
LJ           1.01692       -0.124324        -2.34028
LJ         0.0226813         1.92521        0.777317
LJ           2.70193        0.756422       -0.990272
LJ           1.55408        -1.40183        0.676485
LJ            1.0204        -3.64372        -2.81413
LJ          0.538711        0.312798       0.0823733
LJ           1.39664         0.64921        -1.63576
LJ           1.52622          2.3098       -0.213162
LJ          -0.71819         -1.7115         1.57325
LJ          0.711103        -2.24714        -1.79333
LJ         -0.439943         0.20716        0.349663
LJ            2.8755       -0.516293         3.63385
LJ           5.46055         -4.7007        -3.76493
LJ           3.07326       -0.722586         1.93284
LJ           2.88622        -1.65743         2.59851
LJ           2.00884       -0.884979        -1.89154
LJ          -1.45735         1.81571         1.61701
LJ            1.4901         0.65035         1.63907
LJ         0.0513171         2.83052        -2.44386
LJ           1.33366        -5.99326         -2.6651
LJ         0.0424676         1.73317         1.88351
LJ            2.4426        -1.10646         1.16631
LJ           2.27094       -0.807988       -0.204831
LJ           1.73768        0.506828       -0.520429
LJ           1.65844        -2.98522       -0.516294
LJ          0.720819       -0.622216         3.80667
LJ           3.93181        0.326073         1.15801
LJ          0.512781          0.9173       -0.782876
LJ           -5.2481         5.91207        -4.85658
LJ           1.16618       -0.587236         2.79125
LJ         -0.218655         3.87993        -2.15428
LJ           2.71878        0.315054        0.870857
LJ           1.25728       -0.747463      -0.0721787
LJ           1.15071        -1.74832         3.06783
LJ           1.24819         1.64543        -1.12161
LJ           1.00596         3.23602        -2.92804
LJ           1.03033         1.39169         2.25534
LJ           1.37305         1.69405        -5.98725
LJ           2.10908         1.02205         2.60146
LJ          0.532362        -1.13256        0.688001
LJ           1.51734        0.770151        0.589825
LJ         -0.283208       -0.740819         1.12993
LJ          0.541981       -0.123832         1.12952
LJ           1.75929       -0.275745         1.05991
LJ         -0.378336          1.4957       -0.125722
LJ           2.71971        -1.11488         5.36091
LJ           1.13428        -0.84935         1.68814
LJ           2.07803       -0.262312        -1.05165
LJ            0.7316        -1.90854       -0.313947
LJ            2.3094       0.0833898         2.18848
LJ            3.0906         -2.1957         1.49745
LJ          0.976469         1.71772         1.19318
LJ          -1.25668       0.0989117          1.2131
LJ         -0.737574        -2.66865         1.33272
LJ         0.0178269        0.987458        -1.69076
LJ          0.583833       0.0976247         2.14322
LJ          0.106758        -1.93331         2.47544
LJ          0.290268         2.35962       -0.206236
LJ         -0.781504        0.961528         1.43178
LJ         -0.690634        0.935413         2.51011
LJ          0.288589       -0.850362        -2.26493
LJ        -0.0477974        -1.60328       -0.982444
LJ           1.12184         1.19206        -4.54066
LJ         -0.473206        0.544864       -0.722244
LJ         -0.152099         2.74995         1.87666
LJ          -1.26828        -5.83274         3.96424
LJ            5.4285         3.50783        -6.27525
LJ          -1.03336         4.20815       -0.367998
LJ         -0.148474        0.101083        -2.27442
LJ          0.761076         2.84806        -1.58935
LJ           5.84409       -0.257893        -2.95899
LJ          0.232764         3.77245        -1.17349
LJ          -1.22246        -2.43624        0.409185
LJ           1.69487        -2.36318         1.31191
LJ          0.222938        -2.92138          1.3724
