108
#Comment!
LJ           4.16208       -0.347432          1.3502
LJ           1.10651         2.77528        -1.95106
LJ          0.480936        -2.04717         1.43769
LJ          -1.30278         0.94457        -1.59869
LJ          0.182405        0.410804         3.87515
LJ         -0.356119        -1.43061        -2.07713
LJ          0.844473        0.663862        -1.51149
LJ          0.748695       -0.947988        -2.23658
LJ           1.40286       -0.999645         2.33038
LJ          0.437245       -0.674515          1.7928
LJ         -0.129433         2.01239         2.63467
LJ          0.795115        0.854634         1.32045
LJ          -1.75094       -0.892677       -0.853721
LJ           3.04123         2.04702        0.224782
LJ          -1.26306        -2.47082        0.256806
LJ          -1.27261        -1.34862        0.615558
LJ          -2.93465       -0.267135        -3.31921
LJ           1.01478        0.407699        0.419728
LJ          0.202879          4.1916         5.45923
LJ         -0.808425       -0.711853        -1.26577
LJ          0.164425       -0.317783         5.19758
LJ           1.36605         1.69166        -1.06284
LJ           3.74284        0.762024       -0.905524
LJ          -4.76292       -0.239083        -2.78273
LJ           2.75497        -5.25528         5.44959
LJ         -0.125884         1.21854        -1.33204
LJ          -2.80117        -1.73538        -2.15902
LJ           3.88242         6.38438        -1.23425
LJ           2.34303         1.95528         1.47198
LJ        -0.0778066         -1.6216        0.616754
LJ         -0.890749        -2.29499         2.30939
LJ           5.32592          3.7427        -4.91945
LJ         -0.219443        -4.75763       -0.441553
LJ           1.20144       0.0455657         -2.5244
LJ        -0.0949926         1.08402        0.560118
LJ           2.76837        0.375969        -1.18396
LJ           1.71714        -1.01323        0.393848
LJ          0.172261        -1.78919         -0.4788
LJ        -0.0674409        0.188021        0.034005
LJ           2.02656          1.0171        -1.47031
LJ          0.871723         1.53767         0.41014
LJ         -0.672715       -0.524553         2.12431
LJ          -1.10748        -1.91453        -3.09395
LJ          -1.08594       -0.202093       -0.219837
LJ           3.41065        -1.34183         1.81618
LJ          -4.71739        -4.54095        -5.49669
LJ           2.43108       -0.563054         1.79455
LJ           3.24637       -0.823614        0.728365
LJ          -1.31261       -0.913726        -2.55744
LJ          -1.27266        0.420455         2.15064
LJ           1.02935         1.04459         2.36871
LJ         -0.439072         1.38706        -2.35066
LJ           4.49751        -4.56976        -1.91168
LJ          0.201984         1.93638         1.17758
LJ           1.39401       -0.251339           1.339
LJ            3.8414        0.521738        0.724733
LJ           1.17196       -0.411323       -0.413339
LJ           1.05807        -1.38397       -0.936195
LJ        -0.0171914        -1.05895         2.75796
LJ           4.30098         -0.7658        0.343961
LJ           1.53815        0.853789       -0.501112
LJ          -1.65395         4.98437        -4.43465
LJ           2.62233        -1.17796         2.70706
LJ          -1.91252        0.871994        -2.88128
LJ            2.0346      -0.0906837         0.53348
LJ          0.570058        -0.33132        -1.33877
LJ           0.47799        -2.09763         2.61336
LJ            2.7255         1.15582       -0.476348
LJ        -0.0283653         5.98143        -2.32915
LJ         -0.109011        0.715222         2.35259
LJ         -0.951934        0.724981         6.35033
LJ           2.28123         1.91337         2.74452
LJ         -0.329138       -0.308623         1.06712
LJ           1.92476         1.01621        0.463569
LJ          -1.36345       -0.616835         1.42055
LJ           1.48085        0.118472         3.18017
LJ          0.663378       -0.863584        0.716202
LJ          0.447654        0.858409       -0.520311
LJ          0.765541        0.946023         4.95377
LJ           1.74983        -2.05281         2.30717
LJ           1.74865       -0.201125        -1.42748
LJ          0.255107       -0.771837       -0.316167
LJ           1.87966         0.80078         1.59356
LJ           1.51804        -1.34319         1.39648
LJ           1.26563         1.84083         1.45238
LJ          -0.88397         1.24069        -0.55444
LJ         -0.559253        -2.40776         1.22701
LJ          0.276489        0.513164        -2.42048
LJ          0.507444      -0.0937125         2.68224
LJ         -0.793501          -1.439         1.54537
LJ       -0.00857147         1.91393       -0.190111
LJ         -0.261536         3.81207        0.837295
LJ         -0.745363         1.15709         3.48022
LJ          -1.40025        -1.94734        -1.88861
LJ          -1.07047        -1.87725       -0.605692
LJ          0.615493         1.76274        -2.09917
LJ         -0.478306        0.357367        -1.01265
LJ          -0.38964         2.94574         1.85726
LJ           1.76506        -4.05667         1.72083
LJ           5.60727         1.58813        -5.67014
LJ           1.18659         4.94103        0.524344
LJ         -0.719234       -0.103043        -2.13236
LJ          0.903628          3.9985       -0.393296
LJ          -3.23072       -0.961527        -4.71912
LJ           1.38066         2.85595       -0.331972
LJ          0.307861        -3.37155        0.366015
LJ          0.919523        -2.20617        0.495458
LJ          -4.21631        -4.27803         1.84632
