108
#Comment!
LJ          -1.92454        -1.92454        -1.92454
LJ          -1.81264        -1.81264        -3.11036
LJ          -3.11036        -1.81264        -1.81264
LJ          -1.81264        -3.11036        -1.81264
LJ          -2.23722        -3.01806        -3.01806
LJ          0.838604        -2.78471        -4.06783
LJ         -0.802638        -2.51548        -2.51548
LJ          0.838604        -4.06783        -2.78471
LJ          0.294895        -3.05389        -3.05389
LJ           1.97397        -1.37315        -3.04977
LJ          0.940889        -2.02248        -2.02248
LJ           1.97397        -3.04977        -1.37315
LJ          -3.01806        -2.23722        -3.01806
LJ          -2.78471        0.838604        -4.06783
LJ          -4.06783        0.838604        -2.78471
LJ          -2.51548       -0.802638        -2.51548
LJ         -0.921352       -0.921352        -2.78401
LJ         -0.178388       -0.178388        -2.77931
LJ         -0.983617      -0.0854355        -1.90286
LJ        -0.0854355       -0.983617        -1.90286
LJ           1.70795        -1.91583        -4.06438
LJ           1.94221         1.16826        -3.01929
LJ           1.44925       -0.271461        -2.52591
LJ           2.98831        -1.91621        -2.78219
LJ          -3.05389        0.294895        -3.05389
LJ          -1.37315         1.97397        -3.04977
LJ          -3.04977         1.97397        -1.37315
LJ          -2.02248        0.940889        -2.02248
LJ          -1.91583         1.70795        -4.06438
LJ           1.16826         1.94221        -3.01929
LJ          -1.91621         2.98831        -2.78219
LJ         -0.271461         1.44925        -2.52591
LJ          0.745621        0.745621        -3.11019
LJ          0.846471        0.846471        -1.92315
LJ          0.744551         2.03726        -1.82053
LJ           2.03726        0.744551        -1.82053
LJ          -3.01806        -3.01806        -2.23722
LJ          -2.51548        -2.51548       -0.802638
LJ          -4.06783        -2.78471        0.838604
LJ          -2.78471        -4.06783        0.838604
LJ         -0.921352        -2.78401       -0.921352
LJ        -0.0854355        -1.90286       -0.983617
LJ         -0.983617        -1.90286      -0.0854355
LJ         -0.178388        -2.77931       -0.178388
LJ           1.70795        -4.06438        -1.91583
LJ           2.98831        -2.78219        -1.91621
LJ           1.44925        -2.52591       -0.271461
LJ           1.94221        -3.01929         1.16826
LJ          -2.78401       -0.921352       -0.921352
LJ          -1.90286      -0.0854355       -0.983617
LJ          -2.77931       -0.178388       -0.178388
LJ          -1.90286       -0.983617      -0.0854355
LJ          -1.03651        -1.03651        -1.03651
LJ        -0.0472335      -0.0472335        -1.00407
LJ          -1.00407      -0.0472335      -0.0472335
LJ        -0.0472335        -1.00407      -0.0472335
LJ          0.818932       -0.990954       -0.990954
LJ           1.68561       -0.170599        -0.90553
LJ          0.825441      -0.0913939      -0.0913939
LJ           1.68561        -0.90553       -0.170599
LJ          -4.06438         1.70795        -1.91583
LJ          -2.78219         2.98831        -1.91621
LJ          -3.01929         1.94221         1.16826
LJ          -2.52591         1.44925       -0.271461
LJ         -0.990954        0.818932       -0.990954
LJ         -0.170599         1.68561        -0.90553
LJ          -0.90553         1.68561       -0.170599
LJ        -0.0913939        0.825441      -0.0913939
LJ            1.4446          1.4446       -0.804861
LJ           1.94365         1.94365        -2.24493
LJ           1.70818         2.98931         0.83748
LJ           2.98931         1.70818         0.83748
LJ          -3.05389        -3.05389        0.294895
LJ          -2.02248        -2.02248        0.940889
LJ          -3.04977        -1.37315         1.97397
LJ          -1.37315        -3.04977         1.97397
LJ          -1.91583        -4.06438         1.70795
LJ         -0.271461        -2.52591         1.44925
LJ          -1.91621        -2.78219         2.98831
LJ           1.16826        -3.01929         1.94221
LJ          0.745621        -3.11019        0.745621
LJ           2.03726        -1.82053        0.744551
LJ          0.744551        -1.82053         2.03726
LJ          0.846471        -1.92315        0.846471
LJ          -4.06438        -1.91583         1.70795
LJ          -2.52591       -0.271461         1.44925
LJ          -3.01929         1.16826         1.94221
LJ          -2.78219        -1.91621         2.98831
LJ         -0.990954       -0.990954        0.818932
LJ        -0.0913939      -0.0913939        0.825441
LJ          -0.90553       -0.170599         1.68561
LJ         -0.170599        -0.90553         1.68561
LJ            1.4446       -0.804861          1.4446
LJ           2.98931         0.83748         1.70818
LJ           1.70818         0.83748         2.98931
LJ           1.94365        -2.24493         1.94365
LJ          -3.11019        0.745621        0.745621
LJ          -1.82053         2.03726        0.744551
LJ          -1.92315        0.846471        0.846471
LJ          -1.82053        0.744551         2.03726
LJ         -0.804861          1.4446          1.4446
LJ           0.83748         2.98931         1.70818
LJ          -2.24493         1.94365         1.94365
LJ           0.83748         1.70818         2.98931
LJ          0.947016        0.947016        0.947016
LJ           1.97468         1.97468        0.295224
LJ          0.295224         1.97468         1.97468
LJ           1.97468        0.295224         1.97468
