108
#Comment!
LJ           1.68946       -0.848802         1.00289
LJ           3.32098        -1.59983         2.55576
LJ          -1.95452        0.237428         1.81267
LJ          -1.33146         3.73336         1.32032
LJ            2.9863        -1.78598       -0.358924
LJ           2.03917          1.4267        -1.77598
LJ           1.30406       0.0507182           1.785
LJ           2.12622        0.566734       -0.412134
LJ           1.95201        -1.65258       0.0746266
LJ           1.08918        -1.41227        -1.40014
LJ         -0.975891         2.76081         1.22099
LJ           1.89567         1.93467         2.12234
LJ         -0.872158        -2.67466        0.509175
LJ           2.02512       -0.477935        -0.62093
LJ          -1.66767        0.494309         2.80425
LJ          0.384795         1.70774         1.85316
LJ           0.79369        -0.42725        -2.06154
LJ          0.147976        0.646498        0.380591
LJ         -0.612951         1.86487         1.90786
LJ         -0.758381       -0.815931       -0.713965
LJ          0.668427        -3.37973       -0.257371
LJ           1.10111        0.303691      -0.0496634
LJ           1.64587         0.25291        -2.33458
LJ           5.07894         5.30638         1.37782
LJ          -2.30864         5.97622         5.64588
LJ          -1.83766         2.92928        0.245973
LJ          -3.46755          4.9373       -0.229563
LJ          -1.80107          5.7601        -6.29989
LJ           1.04328         1.71364         2.79908
LJ          -4.85534          1.7148         2.56181
LJ         -0.760458        0.289444          1.2105
LJ          -1.01152        -2.97875        -5.85687
LJ         -0.373578       -0.578865        -1.85137
LJ          0.144695         -1.1288       -0.957855
LJ         -0.989564         2.23948        0.296098
LJ        -0.0578802        -1.89368      -0.0910776
LJ          -1.09712        -1.96234       -0.484366
LJ           0.46803        0.931314        -1.98041
LJ          -1.38531         1.13915         1.92714
LJ           1.75756         1.22273        0.439335
LJ            2.0385        0.259108        0.816313
LJ           1.68481        -3.32728        0.367041
LJ          -1.58942       -0.954904       -0.117551
LJ          -1.08905       -0.993074        0.969628
LJ          0.298321       -0.348734         2.10364
LJ           3.27747        -3.70087         2.03709
LJ            0.9371         -2.4031        -0.11326
LJ           2.89185         0.21589        0.144438
LJ          -1.05108       0.0617566       0.0128241
LJ          -2.10505         1.78823        0.974596
LJ          -1.54427       -0.668796         2.75284
LJ          -1.74752        0.758416       -0.414554
LJ          -0.90171        -3.17022         1.52208
LJ           -1.2561         1.75087       -0.696833
LJ           0.79734         1.31436        0.865081
LJ           2.70099          1.6896         0.83461
LJ           1.20286        -1.13204       -0.286306
LJ         -0.122269         0.17155       -0.921395
LJ           1.81926        -2.33798       -0.824762
LJ           3.37442       -0.699138        -1.28578
LJ         -0.750225        0.986205        -1.46443
LJ          -3.96576         2.14125        -2.96074
LJ          -2.14321       -0.172205        0.548976
LJ          -1.17252       0.0303142        -1.32351
LJ         -0.105203         2.00147       -0.377523
LJ           0.23041         1.97712        -1.42584
LJ          0.307599       -0.232139          3.1738
LJ          0.872311         2.01962       0.0660113
LJ          -5.72941        -4.23194         4.33441
LJ         -0.381833         1.28644        0.900922
LJ          -5.00386        -2.17944         5.23541
LJ            1.3078       -0.379255         2.97589
LJ          0.777945       -0.324647        0.833885
LJ        -0.0595831         2.26279        0.724712
LJ          -1.80764         2.27178         1.82757
LJ          0.341861        0.650857         3.67138
LJ          0.921957        -1.49327        0.620452
LJ          0.081717       -0.529019       -0.027647
LJ           1.49664        -4.85944         6.17378
LJ           1.73686        -1.96463         1.16921
LJ          0.661246         1.19476       -0.764185
LJ           1.00963       -0.278816       -0.916699
LJ          0.019908        -1.29517         1.41947
LJ          0.305171        0.396097         1.34307
LJ         -0.729259         1.26098         2.77501
LJ          -1.43849        0.978068        0.877497
LJ          0.219508        0.762207         2.44682
LJ           1.53627         2.71675        -2.16712
LJ         -0.641588        0.094029         2.26974
LJ         -0.372574       -0.940834         2.84044
LJ           -2.6439         2.99184        0.913641
LJ         0.0432208         1.86994         3.29626
LJ          0.963058        -1.56134         1.97299
LJ           4.09916         4.16266         1.25034
LJ          -5.36438         5.93461         6.19266
LJ          -2.79575        -5.95282       -0.945485
LJ         -0.476731         1.07606       -0.464759
LJ           1.68396         1.53159       -0.554109
LJ           2.31483       0.0182667        -1.60376
LJ           3.48441        -1.25512         -5.1845
LJ            3.4286         2.96409          3.0463
LJ           -2.1307          1.8191      -0.0757576
LJ           5.89023        -1.42507         3.46127
LJ          -4.96354        0.215057         4.60673
LJ           1.43714        0.775875        -1.37386
LJ          0.215578        -2.21572        -1.40469
LJ          0.792803        -3.33841         4.20299
LJ          -2.20061         5.75947         2.10298
