108
#Comment!
LJ          -4.18791        -4.16638        -4.18036
LJ         -0.705731       -0.695517        -4.14186
LJ          -4.13738       -0.684599       -0.696647
LJ         -0.694987        -4.14722       -0.696096
LJ          -1.30947         -2.5063        -2.50949
LJ          0.304671       -0.658989        -2.77832
LJ          0.586201        -1.07408        -1.07878
LJ          0.304795        -2.77995        -0.65369
LJ           1.71876        -2.00687        -2.00042
LJ           1.90327        0.167653       -0.740471
LJ          -4.67726         5.00526         5.00526
LJ           1.89517       -0.748147        0.163305
LJ          -2.54666        -1.31675        -2.54932
LJ          -0.64822        0.305676        -2.75627
LJ          -2.76079        0.305863       -0.657309
LJ          -1.06699        0.572125        -1.06177
LJ         -0.840305       -0.835641        -2.72427
LJ        -0.0353091      -0.0370717       -0.901761
LJ          -1.72326        0.328942        -2.57517
LJ          0.335438        -1.71571         -2.5665
LJ           2.32675       -0.802748        -2.33183
LJ           1.07508       -0.978951        -1.97834
LJ         -0.171271        -1.10655        -1.84232
LJ           5.36436        -3.07746        -4.19427
LJ          -1.98982         1.71795        -1.98955
LJ          0.146912         1.90652       -0.760869
LJ         -0.753845         1.90906        0.154126
LJ           5.00526        -4.67726         5.00526
LJ         -0.802574         2.31923        -2.33222
LJ         -0.989158         1.06454        -1.98086
LJ          -3.07766         5.36479        -4.19435
LJ          -1.11753       -0.159238        -1.83626
LJ          0.019132     -0.00110086        -1.94206
LJ          0.383809         0.37151         -2.8426
LJ          0.158803          1.8527         -2.0956
LJ           1.83697          0.1679        -2.10358
LJ           -2.5366        -2.53679        -1.31877
LJ          -1.07525        -1.06692          0.5769
LJ          -2.78159       -0.666488        0.306843
LJ         -0.648182        -2.76607         0.31017
LJ          -0.83182        -2.71887       -0.830992
LJ          0.323832        -2.56863        -1.72035
LJ          -1.72395        -2.58259        0.310494
LJ        -0.0485309       -0.898169      -0.0514797
LJ           2.31471        -2.32993        -0.79849
LJ           5.36448        -4.19446        -3.07792
LJ         -0.164114        -1.83559        -1.10405
LJ           1.06722        -1.99119        -0.99327
LJ          -2.72321       -0.845612       -0.838228
LJ          -2.55907        0.357536        -1.71769
LJ         -0.907867      -0.0362707      -0.0392043
LJ          -2.54758        -1.71517        0.359637
LJ          -1.61211        -1.66477        -1.63954
LJ           0.74186        0.739841       -0.943942
LJ         -0.910837        0.736268        0.738246
LJ          0.740082       -0.958333        0.729587
LJ          0.947088       -0.224609       -0.215429
LJ          0.951592       -0.151885        -1.37875
LJ           1.56476       -0.902307       -0.905465
LJ          0.960024        -1.39388       -0.171236
LJ          -2.33899         2.33952        -0.80563
LJ          -4.19426         5.36456        -3.07754
LJ          -1.97262         1.07953        -0.96566
LJ          -1.83859       -0.169842        -1.12237
LJ         -0.233038        0.950457       -0.240655
LJ         -0.164669        0.962835        -1.39299
LJ          -1.37948        0.950929       -0.143805
LJ         -0.899484          1.5491       -0.891275
LJ           2.99174          2.9915         2.20268
LJ           3.46563         3.46597         1.09243
LJ         -0.804322         3.00055        -5.36584
LJ           3.00026       -0.804319        -5.36599
LJ          -2.00326        -1.99621         1.71524
LJ           5.00526         5.00526        -4.67726
LJ         -0.750423        0.156084         1.90583
LJ           0.15378       -0.753915         1.90277
LJ         -0.811576        -2.33131         2.31243
LJ          -1.10738        -1.83221       -0.152416
LJ          -3.07789        -4.19455          5.3648
LJ         -0.996056        -1.99148         1.06562
LJ         0.0263482        -1.94525      0.00807432
LJ           1.83174        -2.09376        0.177152
LJ          0.161633        -2.09854         1.84729
LJ          0.384419        -2.84275         0.38096
LJ          -2.32621       -0.804819         2.33712
LJ          -1.83951        -1.09892       -0.159499
LJ          -1.98575       -0.955435         1.08572
LJ          -4.19418        -3.07741         5.36427
LJ         -0.223506        -0.24336        0.947435
LJ         -0.902274       -0.890963         1.55266
LJ          -1.37701       -0.142247        0.951764
LJ         -0.173882        -1.40464        0.962575
LJ           2.99142          2.2018         2.99151
LJ           3.00107        -5.36675       -0.804577
LJ         -0.804579        -5.36631         3.00068
LJ           3.46475         1.09256         3.46493
LJ          -1.93393     -0.00301697      0.00260237
LJ          -2.10445         1.84936        0.148676
LJ          -2.83653        0.370993        0.376341
LJ          -2.11272        0.153431         1.84055
LJ           2.20242          2.9915          2.9918
LJ          -5.36398         2.99918       -0.804806
LJ           1.09262         3.46588         3.46564
LJ          -5.36538       -0.804455         3.00047
LJ          -6.03231        -6.04676        -6.03737
LJ           2.42362         2.41051       -0.744663
LJ         -0.759919          2.4242         2.43208
LJ           2.43413       -0.727904         2.39529
