108
#Comment!
LJ          -1.90162        -2.38446      -0.0264081
LJ          -4.78779        -5.98053         3.18456
LJ           5.59109         5.57661        -4.08564
LJ           4.97881         6.22605        -3.40487
LJ           2.70565        -2.05385       -0.811743
LJ         -0.291282         1.36455        -2.03623
LJ          0.849104        -1.87928       -0.556202
LJ          0.436696        -2.72805       0.0546996
LJ          0.134157        -2.77875        -0.97637
LJ           1.45628         1.08777       -0.240216
LJ            2.9641         2.36651         2.44507
LJ           0.94578        -1.54998         2.25662
LJ          -1.11424        -1.18717        -2.00746
LJ          0.391004         3.13761        -1.68237
LJ         -0.891131         1.68245        0.301897
LJ         -0.881858         2.03691        -1.54334
LJ          -1.82285        0.528053        -1.50896
LJ          0.402657       0.0501352        0.232403
LJ          -1.66959         2.09263        -0.56372
LJ         -0.484064       -0.390398         -0.8763
LJ           1.33179       0.0833169         -1.8671
LJ           1.70991        -1.27673       -0.984618
LJ           0.28539       -0.577477        -1.54637
LJ            2.9778       -0.178003         2.58875
LJ         -0.816216         3.77945         3.12604
LJ           0.78017         3.07083        -2.76337
LJ           1.11569         2.36016        -1.49442
LJ           2.76881         1.21188         3.32427
LJ         -0.307054         2.43772        -2.51465
LJ         -0.806988         3.28204        -1.66934
LJ        -0.0739506         2.14314         3.99001
LJ        -0.0410397        0.391878        -1.67927
LJ          0.612223         1.96778        -2.28296
LJ           0.57502        0.978018        -2.43467
LJ          0.238718         1.32229        -1.13345
LJ          -1.00211       -0.128782        -2.01388
LJ          -1.64781        -1.86782        -1.01044
LJ          -2.27738       -0.779964         1.54125
LJ          -1.43247        0.874337         1.17876
LJ          0.403504         -2.4386         1.11548
LJ          -1.10291        -1.38359      0.00797493
LJ         -0.794905        -2.99662       -0.499507
LJ          -2.16263        -1.44958        0.614788
LJ         -0.525877       -0.489811         0.13959
LJ         -0.285647        -3.33968        0.756637
LJ          -6.43297        0.680832        -1.22417
LJ         -0.390764        -1.80093       -0.792016
LJ           1.67648        -2.62232        -0.09784
LJ          -1.47903       0.0362466       -0.337357
LJ          -1.06207         1.04737       -0.818548
LJ         -0.127104       -0.472864         1.08073
LJ          -2.82618        0.113723       -0.977968
LJ          0.416823       -0.832655       -0.533022
LJ           1.27167         1.22228        -1.35002
LJ          0.993108        0.233273         1.17357
LJ           0.95876       -0.875536         1.22713
LJ           1.15644       -0.840366        0.134872
LJ          0.741683        0.335939       -0.804531
LJ           1.95547        0.028433        -0.77986
LJ           1.02507        -1.88261        0.540797
LJ          -2.20602       -0.776899        -1.78753
LJ           4.14831         4.93323         3.01613
LJ          -1.87729        0.949237       -0.104456
LJ          -1.86925       -0.871942       -0.627543
LJ             0.556         1.15589        0.379514
LJ         -0.185523        0.820208       -0.267811
LJ         -0.561908        0.479535        0.820515
LJ           0.20189         2.41744       -0.810188
LJ           3.20434         5.95698         3.82845
LJ             2.998         2.96074         3.44647
LJ          -4.97301         1.91691        -6.31874
LJ          0.555727        -4.95925        -6.04976
LJ         -0.436234        -2.35724        0.290089
LJ           3.12163         1.74416         1.40647
LJ         -0.515059        0.660474         1.85366
LJ          0.411837         0.38275         2.09121
LJ          -1.65973        -3.18977        0.771167
LJ         -0.892502         -1.1985         1.12009
LJ          0.374907         4.37962         4.11778
LJ          -2.25829        -2.12774         1.72926
LJ          0.154303        -1.41929        0.347063
LJ           2.14697           -1.45       0.0274326
LJ          -0.86959         -2.4583         1.30721
LJ          0.108118         -1.5355         1.40115
LJ          -2.40775        0.202458        0.692755
LJ          -1.55148       -0.413803        0.639112
LJ         -0.322319        -3.33186          1.8903
LJ          -5.19654       -0.185445         3.87897
LJ        -0.0821323       -0.741001         2.10451
LJ         -0.918673        -1.63185         2.20946
LJ          -2.32357         1.88711        0.834118
LJ          0.634232        -1.60567         3.76472
LJ          0.043662        -2.21682         2.13887
LJ           1.20309         6.17786         -5.6358
LJ           -5.3154         6.30374         1.52099
LJ           -5.8634         2.23917         -5.6261
LJ         -0.999112       -0.257686          1.7541
LJ         -0.902358         2.76247       -0.107183
LJ           1.13741         2.18484        0.343747
LJ           0.91558        -4.18588       -0.534516
LJ            4.9788         4.66878         3.96163
LJ          -6.16934         2.23431         -4.0207
LJ           1.21243         4.68583         3.43247
LJ           5.41412         -5.2538         3.09959
LJ           2.34304         3.01468         4.42236
LJ          -3.08807       -0.789534       -0.117074
LJ           4.29339        -0.27845        -5.00992
LJ           2.41313         3.85054       -0.247484
