108
#Comment!
LJ          -1.85455        -1.85455        -1.85455
LJ           -2.0017         -2.0017        -3.00264
LJ          -3.00264         -2.0017         -2.0017
LJ           -2.0017        -3.00264         -2.0017
LJ          -2.13241        -3.04424        -3.04424
LJ          0.536807        -2.65125        -4.14394
LJ          -1.08078        -2.53151        -2.53151
LJ          0.536807        -4.14394        -2.65125
LJ          0.406723        -2.99655        -2.99655
LJ           1.91657         -1.4849        -2.99249
LJ          0.956439        -2.03798        -2.03798
LJ           1.91657        -2.99249         -1.4849
LJ          -3.04424        -2.13241        -3.04424
LJ          -2.65125        0.536807        -4.14394
LJ          -4.14394        0.536807        -2.65125
LJ          -2.53151        -1.08078        -2.53151
LJ          -1.08571        -1.08571        -2.62609
LJ        0.00187896      0.00187896        -2.62068
LJ         -0.922865       -0.153098         -1.7515
LJ         -0.153098       -0.922865         -1.7515
LJ           1.57514        -1.61394        -4.14123
LJ           1.97147          1.0538         -3.0473
LJ           1.45986      0.00785407        -2.53731
LJ           3.06493        -1.61372        -2.65017
LJ          -2.99655        0.406723        -2.99655
LJ           -1.4849         1.91657        -2.99249
LJ          -2.99249         1.91657         -1.4849
LJ          -2.03798        0.956439        -2.03798
LJ          -1.61394         1.57514        -4.14123
LJ            1.0538         1.97147         -3.0473
LJ          -1.61372         3.06493        -2.65017
LJ        0.00785407         1.45986        -2.53731
LJ          0.927442        0.927442        -3.00507
LJ          0.777714        0.777714         -1.8539
LJ          0.927606         1.92692        -2.00354
LJ           1.92692        0.927606        -2.00354
LJ          -3.04424        -3.04424        -2.13241
LJ          -2.53151        -2.53151        -1.08078
LJ          -4.14394        -2.65125        0.536807
LJ          -2.65125        -4.14394        0.536807
LJ          -1.08571        -2.62609        -1.08571
LJ         -0.153098         -1.7515       -0.922865
LJ         -0.922865         -1.7515       -0.153098
LJ        0.00187896        -2.62068      0.00187896
LJ           1.57514        -4.14123        -1.61394
LJ           3.06493        -2.65017        -1.61372
LJ           1.45986        -2.53731      0.00785407
LJ           1.97147         -3.0473          1.0538
LJ          -2.62609        -1.08571        -1.08571
LJ           -1.7515       -0.153098       -0.922865
LJ          -2.62068      0.00187896      0.00187896
LJ           -1.7515       -0.922865       -0.153098
LJ         -0.926057       -0.926057       -0.926057
LJ         -0.141208       -0.141208       -0.937457
LJ         -0.937457       -0.141208       -0.141208
LJ         -0.141208       -0.937457       -0.141208
LJ          0.670975       -0.924428       -0.924428
LJ           1.53522      0.00443418        -1.08175
LJ           0.67436       -0.153955       -0.153955
LJ           1.53522        -1.08175      0.00443418
LJ          -4.14123         1.57514        -1.61394
LJ          -2.65017         3.06493        -1.61372
LJ           -3.0473         1.97147          1.0538
LJ          -2.53731         1.45986      0.00785407
LJ         -0.924428        0.670975       -0.924428
LJ        0.00443418         1.53522        -1.08175
LJ          -1.08175         1.53522      0.00443418
LJ         -0.153955         0.67436       -0.153955
LJ           1.45817         1.45817        -1.08311
LJ           1.97066         1.97066        -2.13155
LJ           1.57472         3.06577        0.536071
LJ           3.06577         1.57472        0.536071
LJ          -2.99655        -2.99655        0.406723
LJ          -2.03798        -2.03798        0.956439
LJ          -2.99249         -1.4849         1.91657
LJ           -1.4849        -2.99249         1.91657
LJ          -1.61394        -4.14123         1.57514
LJ        0.00785407        -2.53731         1.45986
LJ          -1.61372        -2.65017         3.06493
LJ            1.0538         -3.0473         1.97147
LJ          0.927442        -3.00507        0.927442
LJ           1.92692        -2.00354        0.927606
LJ          0.927606        -2.00354         1.92692
LJ          0.777714         -1.8539        0.777714
LJ          -4.14123        -1.61394         1.57514
LJ          -2.53731      0.00785407         1.45986
LJ           -3.0473          1.0538         1.97147
LJ          -2.65017        -1.61372         3.06493
LJ         -0.924428       -0.924428        0.670975
LJ         -0.153955       -0.153955         0.67436
LJ          -1.08175      0.00443418         1.53522
LJ        0.00443418        -1.08175         1.53522
LJ           1.45817        -1.08311         1.45817
LJ           3.06577        0.536071         1.57472
LJ           1.57472        0.536071         3.06577
LJ           1.97066        -2.13155         1.97066
LJ          -3.00507        0.927442        0.927442
LJ          -2.00354         1.92692        0.927606
LJ           -1.8539        0.777714        0.777714
LJ          -2.00354        0.927606         1.92692
LJ          -1.08311         1.45817         1.45817
LJ          0.536071         3.06577         1.57472
LJ          -2.13155         1.97066         1.97066
LJ          0.536071         1.57472         3.06577
LJ          0.960751        0.960751        0.960751
LJ           1.91735         1.91735        0.407092
LJ          0.407092         1.91735         1.91735
LJ           1.91735        0.407092         1.91735
