108
#Comment!
LJ         -0.309184        -1.94154       0.0580118
LJ          -5.96896         4.18399        -3.71863
LJ         -0.138132         3.08239         -2.0746
LJ          0.914432         1.05845         -3.6859
LJ           1.40118        -1.49332       -0.944173
LJ           0.22462          2.4361        -0.76958
LJ           1.59412        -1.95449        0.261242
LJ           1.18159        -2.36458         1.16886
LJ           2.02035        -3.25323       0.0405428
LJ           1.93575         0.31151       -0.447577
LJ          0.480967         1.51028        0.440611
LJ           1.42949       0.0847698         1.41362
LJ         -0.369503       -0.583117        -2.06346
LJ           1.12184        0.481666        -1.53015
LJ         -0.218536         1.26617          1.2795
LJ         -0.740507         3.35952        0.935694
LJ          -1.41111          1.1355        -1.81577
LJ          -0.19161       -0.894708      -0.0653685
LJ          0.315834         3.11896        0.752837
LJ          -0.27159       -0.499029       -0.995332
LJ            1.2842        -1.43065        -2.07972
LJ          0.676242        -1.29988      -0.0937833
LJ            -1.344         1.29437        -2.87717
LJ           0.63079         5.17571          6.3459
LJ          -4.95376        -4.73773        -1.21231
LJ         -0.211454         1.36281         -1.9038
LJ          -1.03707          2.0493        -2.10419
LJ           5.49283         2.07465      -0.0910142
LJ           1.00261         3.43309       -0.113348
LJ           2.47863         6.36004        -2.25507
LJ          -1.71523        0.677184         1.59949
LJ          0.565958        0.836258        -2.50848
LJ         -0.409682        0.565314        -3.01708
LJ          0.585666       -0.677621        -1.75195
LJ        -0.0954953        0.319724        0.615791
LJ         -0.047264        0.287471        -1.55373
LJ          -1.28461        -1.92842       -0.674448
LJ          -2.37895         0.84903        -1.11591
LJ         -0.676151         1.23526        0.363837
LJ           1.47976        -1.19093         1.07742
LJ         -0.643424        -1.23623        0.874137
LJ         -0.406577        -2.38184        0.939002
LJ          -2.33752        -1.30513       -0.218341
LJ          -1.34126       -0.533553         1.56755
LJ          0.332641         -3.0228         1.78496
LJ          -6.39783          5.1227        0.768179
LJ          0.661152        -2.31361       -0.577012
LJ           2.44649        -2.22729         0.92324
LJ          -1.20745       -0.925795       -0.594626
LJ         -0.955277         2.03643       -0.783655
LJ         0.0353677       -0.407357         1.36741
LJ          -1.15068        0.901614       -0.501185
LJ          0.264155        -1.46776        -1.17164
LJ        -0.0244252        0.891086       -0.534763
LJ           0.92496        0.589014        0.356284
LJ           1.84091      -0.0316504        0.457133
LJ           1.50616       -0.712472       -0.227139
LJ          0.839593        0.183943       -0.631498
LJ           1.95101       -0.919846        -1.54642
LJ           2.75592       -0.189051       -0.839585
LJ          -1.21836        -0.11853        -1.33827
LJ          -5.19914         2.54172        0.295632
LJ          -1.78923         1.79957         1.06155
LJ          -2.18156        -1.15078         -1.4121
LJ         -0.915985         2.00803         1.85705
LJ         -0.714485      -0.0556233       -0.194474
LJ         -0.586709         0.36585         1.66363
LJ            1.0847         2.34429        0.314519
LJ           2.64153         6.45413        -5.20991
LJ          0.509954         0.48783         1.53409
LJ          -3.02552        -3.12804         5.46367
LJ          -3.43782         4.29223        -6.41675
LJ          0.382381         -1.4352        0.940539
LJ           1.06918         1.22521       -0.479165
LJ          -1.24134        0.293398         2.80303
LJ         -0.196819         1.48669         2.48246
LJ          -1.46178          -1.783         1.50831
LJ          -1.59752        -1.92801        0.456221
LJ           1.55028        0.932056         5.72139
LJ           6.22202        -1.59931         2.38528
LJ          0.752128       -0.434161        0.645799
LJ           2.44364        -1.12704       -0.580061
LJ          0.133205        -1.94644         1.86488
LJ          0.768835       -0.969529         2.11926
LJ          -3.20768          1.3899         1.66113
LJ          -1.19401        0.301408        0.668523
LJ          0.842742        -2.26778         2.53073
LJ          -1.14813          4.0789         1.99202
LJ          0.800793       -0.541624         3.43318
LJ         -0.406441        -1.18577         2.41121
LJ         -0.195651         2.28295        0.815644
LJ         -0.312101       -0.247396         2.93928
LJ         -0.121973        -2.07637         3.32617
LJ          -4.11799        -3.29953         5.88296
LJ           5.84373        -4.36065       -0.702753
LJ           6.12133         3.15941        -3.03692
LJ          -1.55886        -0.87571        0.301744
LJ          0.543237          1.9668         1.86684
LJ           1.92926         3.75869         1.37926
LJ           2.70085        -2.16446        -1.10549
LJ           5.05398         3.37671        -2.12712
LJ          -4.20904        0.649158        -2.03311
LJ         -0.414856         6.07234        -2.68126
LJ            5.9219         4.51723         2.20272
LJ           1.80693         1.02931        0.465708
LJ          -1.88298       0.0987354       -0.240884
LJ          -2.84603        -4.38751        -2.99879
LJ          0.384786        -3.86423        -4.27687
