108
#Comment!
LJ           3.94352       -0.512981         1.28726
LJ           2.08616         2.47519        -1.87703
LJ          0.417081        -2.33569        0.998278
LJ          -1.98356        0.602823       -0.942971
LJ         -0.163701        0.268126         3.68055
LJ        -0.0163033       -0.275721        -2.69038
LJ            1.2156         0.76602        -1.44558
LJ          0.698162        -1.36597        -2.26002
LJ           1.37277       -0.535941         2.54387
LJ           0.32247        -1.01016         2.16516
LJ          0.149224         1.81663         2.18849
LJ          0.863099        0.894895         1.71508
LJ          -2.21856        -1.37307       -0.959191
LJ           3.59477         1.52721       0.0705091
LJ          -1.78374        -1.96969        0.354343
LJ          -1.53263        -1.01811        0.940037
LJ          -2.30335        -1.08255        -3.33374
LJ          0.636508       -0.198538        0.535843
LJ          0.294674         4.03703         4.83464
LJ         -0.637065       -0.909805          -1.282
LJ          0.719512       -0.304392         4.62118
LJ          0.803393         1.81918       -0.731645
LJ           3.36953        0.887561       -0.940781
LJ          -4.99173        0.230619        -3.43989
LJ           3.28162        -6.44189         5.40775
LJ        -0.0866794         1.23581        -1.09184
LJ          -2.90273        -2.13449        -2.55731
LJ           5.33508        -6.40453        -1.14225
LJ           2.41462        0.877491         1.57981
LJ          -0.73833        -1.15301        0.168059
LJ         -0.452486         -2.1693          2.2228
LJ           5.82266         4.20768        -3.98454
LJ         -0.211221        -4.69481       -0.256227
LJ           1.53206          0.3509        -2.68122
LJ         0.0252514        0.577649        0.921329
LJ           3.05537       -0.380181        -1.47122
LJ           1.27308       -0.871714       0.0628475
LJ         0.0527672        -1.90564       -0.856303
LJ         -0.425591      -0.0382547        0.196943
LJ           2.34264         0.59531        -1.11283
LJ            1.2099         2.00102        0.315803
LJ         -0.573389       -0.375096         2.49222
LJ          -1.48802        -1.09957        -2.50194
LJ          -1.53082       -0.310849       -0.619036
LJ           2.78964        -1.07322          1.1902
LJ          -4.08909         -4.5022        -5.89101
LJ           2.41612       -0.124856         1.76816
LJ           2.97936       -0.122373        0.535781
LJ          -1.93855       -0.511033        -1.63349
LJ          -1.05377        0.403412         1.59736
LJ          0.773192          1.1613         2.72267
LJ         -0.274564         1.30415         -2.1351
LJ           5.18403        -4.29062         -1.7093
LJ          0.392197         1.61077         1.13934
LJ          0.892799       -0.110997         1.61752
LJ           3.22051        0.961791        0.909894
LJ              1.05       0.0395653       -0.611013
LJ           1.18785        -1.17323        -1.07651
LJ          0.412198       -0.769451         3.28323
LJ           4.01172        -0.62155        0.204702
LJ           1.42097        0.963621       -0.226781
LJ         -0.828268         4.77332        -4.33392
LJ           2.28603         -1.2934         2.54752
LJ          -1.59961        0.312247        -2.81143
LJ            1.7873      0.00388677        0.849559
LJ          0.374888       -0.605964        -1.49132
LJ          0.746587        -1.70981         3.02609
LJ           2.51619        0.925911       0.0887703
LJ          -0.35849        -5.77941        -2.35294
LJ         -0.161862        0.793962         1.96549
LJ           -1.4149        0.662664         6.36545
LJ           2.75724         1.46393         2.32273
LJ         -0.132334       -0.392719         1.31449
LJ            1.5818         1.30017        0.948205
LJ          -1.44784         0.05565        0.687358
LJ           1.54484        0.437022          3.2164
LJ          0.375689        -1.27389         1.00517
LJ           0.33194        0.771313      -0.0740008
LJ          0.683475         1.54206         5.07478
LJ           1.22929        -2.53851         1.59733
LJ           1.71581       -0.200513        -1.44651
LJ          0.233979       -0.626381       -0.354345
LJ           1.70687        0.661911         2.30395
LJ           1.60231        -1.00254         1.35111
LJ           1.58941         1.67926         2.10125
LJ          -0.99159         0.91119       -0.603625
LJ         -0.909705        -2.46569        0.922098
LJ          0.219839        0.339116         -1.7581
LJ           0.39057        0.202827         2.67693
LJ         -0.621494         -1.2707         1.47801
LJ         -0.308017         1.55816        0.152635
LJ          0.211852         3.66728         1.43371
LJ         -0.641538         1.08157          3.1288
LJ          -1.32159        -1.68856         -1.6549
LJ          -1.06559        -1.97987       -0.542155
LJ           0.88743         1.28374        -2.37176
LJ         -0.168427        0.250988       -0.852896
LJ         -0.389449         2.53786        0.690042
LJ           2.31708        -3.35068         1.16468
LJ           5.41668         1.35228        -5.63355
LJ           1.70416         5.18998        0.197101
LJ         -0.895865        0.284155        -1.64421
LJ          0.731411          3.9966          0.4353
LJ          -2.89219        -1.16475         -4.3839
LJ           1.84709         2.68979       -0.855522
LJ          0.188036        -3.79518       -0.711473
LJ          0.723748        -1.76329      -0.0466028
LJ          -5.54928        -4.66113         1.45759
