108
#Comment!
LJ         -0.767979         -1.9522       -0.181603
LJ          -5.47335         5.05353        -1.51658
LJ           1.76934         3.70698        -2.82087
LJ           2.18735         2.93849        -3.44185
LJ           1.30792         -1.7025        -1.15781
LJ          0.144492         2.60316       -0.183295
LJ           1.09636        -1.76457        0.227342
LJ          0.581123         -2.7473        0.825276
LJ           1.43286        -2.67778       -0.434937
LJ            1.5183      -0.0762836       -0.579302
LJ           1.47837         1.60592        0.682446
LJ           1.09279       -0.816222         1.93979
LJ          -1.25681       -0.835867        -1.68487
LJ          0.405847         1.50321        -1.93628
LJ          -0.30482         2.08534        0.614788
LJ         -0.186685         3.09342        0.844254
LJ          -1.22553         1.27526       -0.955071
LJ         0.0105624      0.00604367        0.770217
LJ         -0.832493         3.32599        -0.23278
LJ         0.0556465       -0.614185        -1.48493
LJ           1.15827       -0.595759        -1.33746
LJ          0.151231        -1.21753       -0.258722
LJ           -1.1034        0.072642         -2.3455
LJ          0.734503         4.14831         3.89226
LJ          -2.88941         6.14105       -0.157526
LJ         -0.577636         2.21195        -1.96138
LJ           0.71348         2.28048        -2.59235
LJ           4.45968         1.62922         1.21934
LJ          0.565597          3.7358       -0.598739
LJ           1.81361         5.46581        -1.55704
LJ          -1.71141        0.420444         1.36563
LJ           0.33144        0.512073        -2.38662
LJ         -0.247782        0.642228        -3.23783
LJ          0.963512        0.727751        -1.15421
LJ          0.251848         1.20147        0.448317
LJ         -0.367182        0.784958        -1.35327
LJ          -1.19593        -2.78611       -0.798359
LJ          -3.11664       -0.355977        -0.11801
LJ          -1.24283         1.34268        0.287266
LJ          0.955156        -1.92332         1.39604
LJ          -0.61557       -0.953172        0.538017
LJ         -0.515705        -2.85493         0.34073
LJ          -1.60269        -1.59599        0.345516
LJ          -0.80563       -0.402153         1.52225
LJ         -0.138973        -3.81631        0.941056
LJ          -5.82706        -4.90044         0.32864
LJ          0.285933        -2.42642       -0.165972
LJ           1.74708        -2.50506        0.653465
LJ         -0.601585       -0.373373       -0.308947
LJ         -0.959523         2.27357       -0.592881
LJ           0.36087      0.00643158         1.83875
LJ          -1.66996         0.55406       -0.260057
LJ         -0.220004        -1.53155        -1.14238
LJ          0.258445         1.49988       -0.743411
LJ          0.986872        0.392317        0.407319
LJ            1.5993       -0.679549         1.05747
LJ           1.04696       -0.706115       0.0839274
LJ           0.41013       0.0951665        -0.63218
LJ           2.29102        0.101402        -1.32458
LJ           2.78473        0.300059       -0.203639
LJ          -1.15799        0.181517        -1.15976
LJ          -6.44665          3.5401         1.51565
LJ          -2.08608         1.79215       -0.534238
LJ          -1.26322         -1.2233       -0.648517
LJ         -0.176502         1.78845         1.72318
LJ         -0.452455         0.64629        -0.28839
LJ         -0.668338        0.906417          1.0656
LJ           1.81674         2.40086      -0.0943713
LJ           2.81977         6.30702        -6.46245
LJ          0.775092         1.23095         1.62949
LJ          -3.88166        -1.24354         6.05819
LJ          -1.73184         5.35357        -5.40853
LJ        -0.0517028        -1.87622        0.825464
LJ           1.52144         1.09904        -0.33588
LJ         -0.850005        0.978087         2.05117
LJ          0.115227        0.735875         2.48739
LJ          -1.23922         -3.4278         1.09161
LJ          -1.00703        -1.85086         1.16862
LJ            1.3368         1.96816         5.30349
LJ          -5.38726        -1.87051         2.27229
LJ          0.504004       -0.953702         1.09329
LJ           2.27931        -1.73463       -0.439073
LJ         -0.385421        -2.80223         1.47858
LJ         -0.259979        -1.29882         1.85028
LJ          -2.43733       0.0749412        0.582068
LJ          -1.11703        0.117259        0.636508
LJ          0.744652        -3.24742         1.72143
LJ          -2.63074         2.82439         2.80142
LJ           1.24829       -0.281861         3.28564
LJ          -1.33266        -1.31458         1.98505
LJ          -1.41321         2.36259        0.375373
LJ          0.344074        -1.14181         3.14956
LJ          0.320041        -2.21573         2.28578
LJ          -2.34246         -4.5386         6.09325
LJ           5.77269        -5.13699       -0.196528
LJ           6.39824         2.85041        -4.01741
LJ          -2.02715       -0.587182         1.26922
LJ          0.737965         2.63623        0.659294
LJ           1.52953         3.80378        0.508825
LJ           2.42398        -2.91678       -0.267452
LJ           5.14408         3.51928       -0.505958
LJ          -4.84999         1.12452        -2.61018
LJ         -0.538815         5.65188       -0.686211
LJ           5.73454          5.6304         2.56486
LJ           2.16202        0.925147         1.71758
LJ          -1.90618       -0.645704       -0.152284
LJ          -1.06309           5.777        -4.29961
LJ          -2.98184        -1.60135         5.51773
