108
#Comment!
LJ           2.73541        0.157807         1.26084
LJ           3.15415       -0.890739        -2.36636
LJ          -0.99509        -2.54068        0.322702
LJ          -2.32515          1.1142       -0.773059
LJ           1.54578       -0.255092         3.21933
LJ           1.71391        0.808619          -1.712
LJ           1.64606         1.58257       -0.469136
LJ           1.35499        0.116925        -2.44972
LJ           1.51986       -0.722079         2.06442
LJ          0.422493        -1.77973          1.8131
LJ         -0.538604         2.41391         3.11062
LJ           1.30398         1.55209         2.79461
LJ          -1.37117       -0.996908       -0.975641
LJ           3.42284       -0.464195      -0.0745953
LJ          -1.44713       -0.366266           1.595
LJ         -0.875186        0.369958         2.44355
LJ         -0.706187        -2.70254        -2.66954
LJ         -0.223704        0.631792        0.268574
LJ          0.618116         2.78503         2.84062
LJ         -0.120008       -0.572663        -1.37541
LJ         -0.182025        -1.67019         2.92725
LJ          0.709201         1.54551        -1.14525
LJ            3.0682       -0.643176        -1.34071
LJ          -5.67071         1.70892        -5.58209
LJ           4.97801         2.64576         5.27151
LJ          -1.23872         1.52813        0.024079
LJ          -2.90478        -4.59461        -1.51269
LJ          -2.93713         -5.7632       -0.899431
LJ            2.2147          2.2581         2.10591
LJ          -1.83271       -0.998691        0.717634
LJ         -0.232991        -1.62848        0.875397
LJ          -5.48657         5.72464       -0.948377
LJ          0.199494        -2.20414        0.146893
LJ           2.19134       -0.423982        -1.98993
LJ          -1.67826         1.80839         1.18706
LJ           2.11515       -0.986836        -1.00013
LJ          0.392603        -2.69408         1.04024
LJ          0.239628        -2.09199        -1.26155
LJ         -0.888007        -0.67954        0.299611
LJ            1.2977        0.535342       -0.201479
LJ           1.77581         1.44049        0.642572
LJ          0.486005       -0.625838         2.58395
LJ         -0.920216       -0.711434        -2.05719
LJ           -1.9087       -0.412349       -0.298609
LJ           1.71353        0.112513         1.40594
LJ           -2.0565        -4.36599          5.7695
LJ           2.31445       -0.882787          1.3846
LJ          0.541308        0.847901        0.836807
LJ          -1.55615       0.0307818         -1.3887
LJ           -0.4414       -0.121587         1.20713
LJ          0.332467         1.65489         3.32168
LJ         -0.641659         2.30702        -1.22208
LJ          -5.49573          -3.572       -0.989173
LJ          -0.31365         2.36047       -0.298901
LJ           1.09389         1.02164         1.71733
LJ           3.70348        0.899497         1.58306
LJ          0.226037       0.0787823       -0.744734
LJ          0.681329        -1.20329        -1.91331
LJ           1.04675        -1.66735         2.97547
LJ           2.03772        0.354065        0.486357
LJ          0.403045           1.642       0.0523279
LJ           1.84509         4.08336        -3.98903
LJ         -0.433543        -2.59115          2.0003
LJ          -2.22368      -0.0776165        -2.32647
LJ         -0.472609         1.41553        0.861775
LJ          0.158638       -0.156355        -2.56494
LJ           2.16301        -1.12351         2.77879
LJ           2.23274          1.2085         1.63818
LJ          -2.57436        -2.27563        -3.58223
LJ         0.0759381        0.767473          1.7596
LJ          -2.83922        0.406293         6.36855
LJ            3.5741        -0.35118         1.83532
LJ          0.540296       -0.218767         1.52527
LJ          0.555167         1.81269         1.15586
LJ          -1.40696        0.672031         1.43888
LJ           1.16983         1.03938          3.7332
LJ         -0.690217        -1.56181       -0.329174
LJ         -0.185546         1.22638       -0.688532
LJ         -0.122374          2.5563         4.01399
LJ          0.998483         -1.0647        0.636317
LJ          0.979797       0.0396864        -1.44062
LJ           1.09116        -0.83924       -0.648466
LJ           2.20258      -0.0653429         2.35581
LJ          0.179945       -0.352799        0.300233
LJ           1.30379         2.36864         1.62927
LJ          -1.61441        0.236615        0.439167
LJ          -1.10418        -1.93998         1.39896
LJ         -0.594649        0.519759        -1.64493
LJ           1.13171        0.484351         2.63275
LJ         -0.392231       -0.988466         1.89794
LJ         -0.989949         1.79465         2.13882
LJ           1.45683         2.23177         3.69163
LJ          0.609148        0.213369         3.53997
LJ         -0.932136        -1.56957        -2.68532
LJ          -1.60552        -1.79422      0.00118271
LJ            2.6436        -1.75927        -1.72746
LJ         -0.875381       0.0342449       -0.551391
LJ          0.953951         2.40924         -0.5331
LJ           2.14379       -0.636394         0.11273
LJ           4.82786         0.60224        -5.49257
LJ           1.95268          4.0474       -0.196449
LJ          -1.24129         1.01766       -0.995465
LJ           2.31027           4.259        0.999535
LJ          -3.05579        -1.52045        -5.90614
LJ           2.83931        0.871505        -2.00903
LJ          0.631836        -3.91727        -1.51917
LJ            3.8124        -4.87992        -2.52542
LJ           3.07529        -5.90307        0.152496
