108
#Comment!
LJ           4.06765       -0.728246          1.7353
LJ         -0.353434          3.3407       -0.649254
LJ          0.361196        -1.91359         1.27293
LJ         -0.587362         1.38228        -1.90589
LJ          0.826674         0.91219         3.22237
LJ          0.334283        -2.32295        -1.34365
LJ         0.0568183        0.541717        -1.05725
LJ          0.878848        -1.42955        -1.66704
LJ           1.39052        -1.34693         2.81285
LJ          0.523449       -0.736121         1.64662
LJ         -0.231956         1.95263         3.40661
LJ          0.283678        0.715065         1.25808
LJ         -0.212316       -0.504312       -0.211464
LJ           2.12445         3.53313       -0.290143
LJ        -0.0879806        -2.72635       -0.166697
LJ         -0.861846        -1.41049        0.305717
LJ          -5.81078        -1.25211        -4.74059
LJ          0.841619         1.06505        0.328033
LJ        -0.0107737         4.52808        -6.03364
LJ          0.355772        -0.62485        -1.27821
LJ          -1.14351        0.204713         4.75047
LJ           1.01993         1.64407        -1.89078
LJ           3.47262         0.54607       -0.345605
LJ          -3.68092        -1.36012        -1.96846
LJ           1.53468        -2.51102         5.53458
LJ          0.104534         1.97984        -1.30196
LJ         -0.787835       -0.568791         -1.1111
LJ          0.549539         6.15232        -1.48508
LJ           1.82356         2.18719         1.72325
LJ          0.228515        -1.74921        0.226925
LJ          0.375801        -1.54311         3.67996
LJ           4.44351         2.33049         5.91651
LJ          0.177187        -3.54416       -0.846664
LJ           1.03104       -0.333071        -2.36246
LJ        0.00222655         1.86065        0.752667
LJ           2.35068        0.426281       -0.998441
LJ           1.74243        -1.30461       -0.510458
LJ           1.10061        -3.03927        -1.41152
LJ          0.570375       -0.114291        0.762049
LJ            1.4216         0.62108         -1.7762
LJ           1.05619         1.73031       -0.696099
LJ         -0.586199       -0.797558         1.66539
LJ         -0.073748        -2.77982        -2.26842
LJ         -0.299677        0.513633        0.388506
LJ           2.91256        -1.27823         2.64451
LJ          -6.16559        -4.62773        -4.58527
LJ           2.97096       -0.386196         2.03787
LJ           3.26458        -1.58031         1.70238
LJ          0.592148        -1.76087        -2.77176
LJ          -1.61847         1.27112         2.06818
LJ           1.25458        0.852191         2.21674
LJ         -0.205102         1.94933        -2.93648
LJ           2.86372        -5.32316         -2.3346
LJ         -0.694793         1.89342         1.81633
LJ           2.24789       -0.397442         1.20606
LJ           2.89889       -0.288518        0.168429
LJ           1.80313       0.0148637       -0.138773
LJ           1.03616        -2.16834       -0.535583
LJ          0.451974       -0.899358         2.62811
LJ           3.91774       -0.639205         0.42131
LJ            1.1734        0.788224       -0.653975
LJ          -3.54672         5.47249        -4.65704
LJ           2.01292       -0.785935         2.19337
LJ         -0.611576         2.60351        -1.83781
LJ           2.54814         0.84416        0.120768
LJ          0.696973      -0.0507953       -0.383452
LJ          0.447618        -2.20667         2.61364
LJ           2.00413         1.48333       -0.997291
LJ          0.805353         3.78114        -2.69463
LJ         0.0834787         1.28548         2.42649
LJ          0.324459           1.157        -6.34733
LJ           2.06258         1.86882          2.8601
LJ         -0.120344       -0.880144        0.786424
LJ           1.76124         1.55786        0.196372
LJ          -1.16802       -0.373979         0.61935
LJ           1.27302      -0.0666923         1.65896
LJ           1.44524       -0.894899         0.45019
LJ        -0.0933399         1.26201       -0.209747
LJ            1.2702       -0.951801         4.10764
LJ           1.31288        -1.34204          1.3492
LJ           1.37096       -0.390878        -1.31636
LJ          0.777578        -1.07864       -0.385739
LJ           1.70505        0.680572        0.696406
LJ           2.42686        -1.75581        0.878944
LJ           1.02942         1.53689         1.27064
LJ          -1.43407        0.768641        0.676538
LJ         -0.907445        -2.57927         1.43699
LJ          0.309306        0.829425        -2.11433
LJ          0.316786        0.128972         2.32973
LJ         -0.423124        -1.80133          1.9958
LJ          0.120635         2.32519       -0.158332
LJ         -0.967863         2.04698        0.164008
LJ         -0.394926        0.862084          3.5456
LJ         -0.452628        -1.48686        -2.11682
LJ         -0.131453         -1.4497       -0.941013
LJ          0.939981         1.63473        -2.97576
LJ          -1.26697        0.657007       -0.697808
LJ         0.0953048         2.97535         2.64242
LJ          0.202854        -5.10612         2.94602
LJ           5.78454         2.47038         -5.8198
LJ         -0.158199         4.34655        0.055457
LJ        0.00231955       -0.190303        -2.13604
LJ           1.24726         2.51907        -1.30339
LJ          -4.66416       -0.305459        -3.92769
LJ           1.14253         3.22238        -0.38637
LJ         -0.349325        -3.71803        0.451227
LJ           1.39205        -2.04799        0.662573
LJ           -1.0772        -3.34012         2.71002
