108
#Comment!
LJ          -2.12589        -2.12589        -2.12589
LJ          -1.46133        -1.46133        -2.52819
LJ          -2.52819        -1.46133        -1.46133
LJ          -1.46133        -2.52819        -1.46133
LJ         -0.760861        -2.51311        -2.51311
LJ         -0.886826        -3.16075        -4.07266
LJ          -0.98365        -1.68524        -1.68524
LJ         -0.886826        -4.07266        -3.16075
LJ          0.124075         -2.1729         -2.1729
LJ           1.76989       -0.993176        -2.65298
LJ           2.72642        -4.83968        -4.83968
LJ           1.76989        -2.65298       -0.993176
LJ          -2.51311       -0.760861        -2.51311
LJ          -3.16075       -0.886826        -4.07266
LJ          -4.07266       -0.886826        -3.16075
LJ          -1.68524        -0.98365        -1.68524
LJ         -0.716585       -0.716585        -1.47343
LJ         0.0266314       0.0266314        -1.40555
LJ          -1.34267       -0.398699        -2.79267
LJ         -0.398699        -1.34267        -2.79267
LJ           2.02601       -0.208062        -4.01167
LJ           1.56498         0.76342        -2.85589
LJ          0.565582        -1.18499        -1.96437
LJ           2.92054       -0.121666        -3.12098
LJ           -2.1729        0.124075         -2.1729
LJ         -0.993176         1.76989        -2.65298
LJ          -2.65298         1.76989       -0.993176
LJ          -4.83968         2.72642        -4.83968
LJ         -0.208062         2.02601        -4.01167
LJ           0.76342         1.56498        -2.85589
LJ         -0.121666         2.92054        -3.12098
LJ          -1.18499        0.565582        -1.96437
LJ         -0.255908       -0.255908        -2.77407
LJ          0.614136        0.614136        -2.27907
LJ          0.861021         1.98781       -0.840295
LJ           1.98781        0.861021       -0.840295
LJ          -2.51311        -2.51311       -0.760861
LJ          -1.68524        -1.68524        -0.98365
LJ          -4.07266        -3.16075       -0.886826
LJ          -3.16075        -4.07266       -0.886826
LJ         -0.716585        -1.47343       -0.716585
LJ         -0.398699        -2.79267        -1.34267
LJ          -1.34267        -2.79267       -0.398699
LJ         0.0266314        -1.40555       0.0266314
LJ           2.02601        -4.01167       -0.208062
LJ           2.92054        -3.12098       -0.121666
LJ          0.565582        -1.96437        -1.18499
LJ           1.56498        -2.85589         0.76342
LJ          -1.47343       -0.716585       -0.716585
LJ          -2.79267       -0.398699        -1.34267
LJ          -1.40555       0.0266314       0.0266314
LJ          -2.79267        -1.34267       -0.398699
LJ         -0.418753       -0.418753       -0.418753
LJ          0.407008        0.407008       -0.480147
LJ         -0.480147        0.407008        0.407008
LJ          0.407008       -0.480147        0.407008
LJ           0.58071       -0.727857       -0.727857
LJ           1.18731      -0.0377616        -1.57733
LJ           1.41142      -0.0398803      -0.0398803
LJ           1.18731        -1.57733      -0.0377616
LJ          -4.01167         2.02601       -0.208062
LJ          -3.12098         2.92054       -0.121666
LJ          -2.85589         1.56498         0.76342
LJ          -1.96437        0.565582        -1.18499
LJ         -0.727857         0.58071       -0.727857
LJ        -0.0377616         1.18731        -1.57733
LJ          -1.57733         1.18731      -0.0377616
LJ        -0.0398803         1.41142      -0.0398803
LJ           1.02138         1.02138       0.0265415
LJ          0.941731        0.941731        -1.09493
LJ           1.79819         2.75428       -0.733782
LJ           2.75428         1.79819       -0.733782
LJ           -2.1729         -2.1729        0.124075
LJ          -4.83968        -4.83968         2.72642
LJ          -2.65298       -0.993176         1.76989
LJ         -0.993176        -2.65298         1.76989
LJ         -0.208062        -4.01167         2.02601
LJ          -1.18499        -1.96437        0.565582
LJ         -0.121666        -3.12098         2.92054
LJ           0.76342        -2.85589         1.56498
LJ         -0.255908        -2.77407       -0.255908
LJ           1.98781       -0.840295        0.861021
LJ          0.861021       -0.840295         1.98781
LJ          0.614136        -2.27907        0.614136
LJ          -4.01167       -0.208062         2.02601
LJ          -1.96437        -1.18499        0.565582
LJ          -2.85589         0.76342         1.56498
LJ          -3.12098       -0.121666         2.92054
LJ         -0.727857       -0.727857         0.58071
LJ        -0.0398803      -0.0398803         1.41142
LJ          -1.57733      -0.0377616         1.18731
LJ        -0.0377616        -1.57733         1.18731
LJ           1.02138       0.0265415         1.02138
LJ           2.75428       -0.733782         1.79819
LJ           1.79819       -0.733782         2.75428
LJ          0.941731        -1.09493        0.941731
LJ          -2.77407       -0.255908       -0.255908
LJ         -0.840295         1.98781        0.861021
LJ          -2.27907        0.614136        0.614136
LJ         -0.840295        0.861021         1.98781
LJ         0.0265415         1.02138         1.02138
LJ         -0.733782         2.75428         1.79819
LJ          -1.09493        0.941731        0.941731
LJ         -0.733782         1.79819         2.75428
LJ           1.22604         1.22604         1.22604
LJ           2.12622         2.12622        0.126839
LJ          0.126839         2.12622         2.12622
LJ           2.12622        0.126839         2.12622
