108
#Comment!
LJ            2.6066        0.175903         1.53404
LJ           2.38909        -2.48908        -2.05483
LJ         -0.336309        -1.64334        0.627174
LJ          -2.69876        0.597972      -0.0832797
LJ           1.65407       -0.984654         3.12362
LJ           2.05764        0.949905        -1.10492
LJ           2.43645         1.80476        0.635605
LJ           1.69527        0.569154        -2.11376
LJ           1.13092       -0.474341         1.48158
LJ          0.904186        -1.82984        0.585118
LJ           -1.4948         2.37602         2.84519
LJ           1.62285         1.49221         2.56026
LJ          -1.50481        -1.15442        -0.57322
LJ           2.54955       -0.836924       -0.462965
LJ          -1.19827       -0.165629         2.16176
LJ         -0.307775        0.528376         2.19544
LJ         -0.104663        -3.05669        -1.87802
LJ         -0.667934        0.945724       0.0993638
LJ          0.937183         2.29988         2.30761
LJ         -0.257036       -0.292239        -1.46149
LJ          0.699918        -2.48112          2.1969
LJ          0.941117         1.45316        -1.26278
LJ           2.63524        -1.40898         -1.3283
LJ          -5.97235         2.29403        -6.46294
LJ           5.66784         1.08413          5.2288
LJ          -1.75909         2.02409       -0.303465
LJ          -3.01955         -5.2142        -1.30154
LJ         -0.831675        -5.88932       -0.555713
LJ           2.52102         2.24348         2.21341
LJ          -2.58633        0.443675         1.02538
LJ         -0.543343        -0.85948         1.42658
LJ          -4.81469         6.35909        0.287925
LJ          0.807454        -1.86755       -0.968074
LJ           1.67402       -0.579657        -1.50041
LJ          -1.77643         1.56283         1.15938
LJ           1.61081         -1.1258       -0.594906
LJ         -0.236007        -2.02636         1.64231
LJ           1.32321        -2.04394        -1.83345
LJ          -1.68289       -0.532217          1.1566
LJ           1.53818        0.916079       -0.262965
LJ           1.44936          1.4631        0.734376
LJ          0.634729       -0.895586         2.28996
LJ          -1.13906       -0.870713        -2.08574
LJ          -2.04198        -0.36307       0.0377202
LJ           1.63329        0.520877         1.70371
LJ          -1.23411        -4.30281         5.26039
LJ           1.88884       -0.869062        0.731336
LJ           1.35444        0.282056        0.701851
LJ          -1.56217      -0.0677472        -1.16267
LJ         -0.847529         0.22497         1.06181
LJ          0.115345         1.50578         2.91408
LJ         -0.829475         2.02785        -1.12396
LJ          -4.56407        -3.30748       -0.692869
LJ         -0.379973         2.92132       -0.654897
LJ          0.901554         1.22612         1.68243
LJ           3.10367        0.338306         2.45515
LJ          0.388135        0.576683          -0.173
LJ          0.729898         -0.7492        -1.85443
LJ           1.51769        -1.47032         1.92576
LJ           2.67602         0.73511         0.45348
LJ          0.299176         1.32688        0.651609
LJ           2.92596         3.79499        -3.83879
LJ         -0.535884        -2.72035         2.43107
LJ          -2.12723        0.103248        -2.10812
LJ         -0.707691         2.09072        0.097286
LJ         -0.151716        0.109722        -2.56374
LJ           2.51559        -1.04184         1.99712
LJ           2.39005         1.21167         1.81199
LJ          -3.29746       -0.593835        -4.09685
LJ         -0.717293         1.25234         1.35656
LJ          -3.42442        0.165644         6.41115
LJ           3.38259       -0.631527         1.71071
LJ          0.439763        0.514245         1.17939
LJ          0.666822         2.40726          1.1143
LJ          -1.85971        0.611664         1.70684
LJ           1.64397       0.0241759          3.3606
LJ         0.0372642       -0.928127       -0.239112
LJ         0.0343949         1.50048       -0.586885
LJ          0.081094         3.55105         4.53173
LJ          0.864961       -0.772243        0.572449
LJ          0.658469        0.429139        -1.66602
LJ          0.777021       -0.332885       -0.743964
LJ            1.7706        -0.30601         2.35978
LJ        -0.0355109      -0.0734113        0.495594
LJ           1.77188         2.17581         1.35152
LJ          -1.62048        0.621724        0.405028
LJ          -1.27899        -1.85689         1.21862
LJ         -0.650227        0.644916        -1.55865
LJ          0.719225         0.17563          2.5321
LJ         -0.638842        -1.01762         2.57975
LJ          -1.37432         1.45637         2.21165
LJ            0.9991         1.82582         3.34758
LJ          0.626479       -0.554963         3.33957
LJ         -0.425721        -2.84013        -3.02038
LJ          -2.91003         -1.0373        0.453621
LJ           2.82447        -2.43141        -1.06982
LJ         -0.772737       -0.137826       -0.424906
LJ          0.906794         1.96815       -0.203501
LJ           1.68686       -0.065924       -0.245677
LJ           4.61394        0.311671         -5.4341
LJ           1.84443         3.08173        0.201056
LJ          -1.39794        0.829276       -0.689305
LJ           2.88296         4.09592        0.812289
LJ          -3.08687        -1.54272         6.40724
LJ           2.75668       0.0642817        -1.99842
LJ          0.853215        -3.17852        -1.50857
LJ           5.61868        -6.42412        -3.60847
LJ           1.33262        -6.41101       -0.391279
