108
#Comment!
LJ          -1.93262        -1.91164       -0.248978
LJ          -4.60184        -5.25574         4.94725
LJ          -5.99625        -5.64751        -4.10832
LJ           6.23744        -6.42156         -3.8117
LJ           2.05652        -2.30965        0.516605
LJ         -0.678968         1.15706        -2.37306
LJ           1.14953        -1.58439       -0.808254
LJ          0.273875        -2.42818       -0.206624
LJ         -0.532625        -2.21265        -1.71692
LJ           1.35461        0.416476       -0.377346
LJ           3.36688         2.69261         2.95556
LJ           1.31771        -1.66385         1.88821
LJ         -0.620095        -1.46259        -2.49036
LJ          -0.14341         3.26565        -1.28187
LJ          -1.34794         1.09188        0.139719
LJ         -0.517031         2.27035        -1.16349
LJ          -1.69099       -0.137178        -1.25813
LJ          0.557297      0.00942082        0.363085
LJ          -2.36185         1.58646        -1.55083
LJ         -0.878945       -0.804267        -1.29188
LJ           1.27428        -1.15381        -2.80659
LJ          0.973543       -0.746252        -1.39589
LJ          0.103146         -1.3462        -1.71156
LJ           3.89921        -1.77225         4.45532
LJ         -0.393381         2.86078         4.99474
LJ          0.715285         2.64678        -2.21998
LJ           1.16251         2.19701        -1.05631
LJ            3.9634       -0.596846         3.88523
LJ         -0.352698         2.19981        -2.33863
LJ          -1.14326         2.92035        -2.03331
LJ          -1.75854          3.3349         5.24317
LJ         -0.424608        0.303389        -1.59768
LJ          0.758346          1.5525        -3.07481
LJ          0.469654        0.680227        -2.29412
LJ        0.00339449         1.41183        -1.52202
LJ           -1.0612       -0.259928        -2.30795
LJ          -1.24794        -1.78715        -1.08651
LJ          -2.03492       -0.734268         1.52577
LJ          -1.76475        0.919767         1.15688
LJ          0.469579         -2.4905        0.967064
LJ         -0.911643        -1.37482       -0.189879
LJ         -0.594304        -3.11615        -1.13886
LJ          -1.91649        -1.03568        0.505764
LJ         -0.471722       -0.489792        0.307266
LJ        -0.0182581        -3.47784       -0.362425
LJ           6.23483         2.93057        -1.86535
LJ        -0.0537794        -1.64497       -0.788368
LJ           2.33686       -0.996128       -0.712408
LJ         -0.917889        0.319466       -0.454721
LJ          -1.25214         1.16246        -1.10297
LJ         0.0802114      -0.0234851         1.26981
LJ          -2.95092       -0.615021       -0.386542
LJ          0.110801       -0.525699       -0.875419
LJ           1.22623         1.15639        -1.44474
LJ           1.14822        0.470784         1.18115
LJ           1.11764       -0.704959        0.923786
LJ            1.1031       -0.613655       -0.184848
LJ          0.686026        0.307274        -1.30303
LJ           1.84886      0.00867498        -1.21052
LJ          0.701021        -1.49188        0.277104
LJ          -2.11402         -1.1582        -1.04288
LJ           4.10203         4.69977         4.51236
LJ          -2.22649        0.818511       -0.522703
LJ          -1.54425       -0.403313       -0.203701
LJ          0.543593         1.18461        0.505574
LJ          0.131946        0.816128        -0.50738
LJ          -0.36689        0.689784        0.514507
LJ         -0.540884          1.6513       -0.193184
LJ            3.3841         5.66483         2.63898
LJ           3.95092         3.62296         3.66831
LJ          -4.29034         2.62967         5.91705
LJ           1.86599        -4.34551         6.10087
LJ         -0.886378        -2.57742       0.0188227
LJ           3.18411         1.94618          2.1578
LJ         -0.662097        0.782099         1.61683
LJ           1.00127       -0.265235         2.11088
LJ          -1.13895        -3.22671        0.911082
LJ          -1.07086        -1.17039         1.08643
LJ          -1.07643         5.29555         4.56332
LJ          -1.75123        -2.40814         1.75005
LJ         -0.237247        -1.74508        0.627877
LJ           1.90316        -1.15475        0.521026
LJ         -0.624295        -2.28512         1.45371
LJ          0.228906        -1.04898         1.46976
LJ          -2.35455         -0.1166          0.3435
LJ          -1.33564       -0.148097        0.833851
LJ          -1.82034        -3.49351         1.82976
LJ          -6.21872        -1.42671         4.29463
LJ         0.0450516        -1.03862         2.55266
LJ          -1.28134        -1.45012         2.25042
LJ         -0.375847         1.66618        0.928539
LJ          0.256026        -1.22157         3.54684
LJ          0.135951        -1.93593         2.04003
LJ           2.24119         5.70631        -4.69283
LJ          -4.50219         5.77649         2.42298
LJ           6.33392         2.41396         -6.0167
LJ          -1.39175       0.0254083         1.91819
LJ          -1.54351         1.95131       -0.580026
LJ          0.475319         2.21685        0.257777
LJ         -0.913092        -4.39717       -0.179094
LJ           3.66384         5.73189         5.01246
LJ           6.09064         2.82973         -3.9907
LJ           3.19975         4.48854         4.21276
LJ           5.29744        -4.53267         3.27468
LJ            2.7187         3.37148         3.97716
LJ          -3.45718        -2.79495        -1.30403
LJ          -6.41678        -2.72634        -5.20267
LJ         -0.278234        -6.40808        -2.43934
