108
#Comment!
LJ           2.56594        0.167926         1.20202
LJ           3.39421       -0.185004        -2.43912
LJ         -0.720531        -2.68312        0.699504
LJ          -2.60038        0.876381       -0.689516
LJ            1.4447       -0.414661         3.42516
LJ           1.43304        0.699912         -1.6752
LJ           1.56465         1.27448       -0.664824
LJ           1.32003       -0.249625        -2.55329
LJ           1.44789       -0.903183         2.18193
LJ           0.30566        -1.67398         2.03835
LJ          0.113571         2.30958         2.69553
LJ           1.03198         1.58342         2.63816
LJ          -1.30532        -1.09379        -1.14155
LJ           3.55823       -0.250687      -0.0747806
LJ          -1.50636       -0.445093         1.45743
LJ          -1.13566       -0.111948         2.36706
LJ         -0.905952        -2.39225        -3.03867
LJ          -0.18497        0.409606        0.249438
LJ          0.437293         3.37092         3.06435
LJ         -0.160624       -0.823263        -1.09061
LJ         -0.403177        -1.36588         3.37796
LJ          0.357554         1.31667        -1.33881
LJ           3.34279       -0.145107        -1.15826
LJ          -5.55267         1.46497        -5.22276
LJ           4.69608         3.28686         5.29421
LJ          -1.18377         1.67967       -0.112483
LJ          -2.95162        -4.14611        -1.71509
LJ          -3.71167        -5.89702       -0.925256
LJ           2.46429         2.10771         2.17711
LJ          -1.21012         -1.3797        0.644789
LJ         -0.323742        -1.72445        0.915934
LJ          -5.76079         5.46585        -1.45786
LJ        -0.0541113        -2.58526         -0.1741
LJ           2.25887      -0.0174065        -1.88443
LJ          -1.17638         1.67787        0.922803
LJ           2.07996       -0.589175       -0.974131
LJ           0.76096        -2.61609        0.974497
LJ         -0.408866        -1.97347        -1.40871
LJ          -0.68382       -0.524579        0.392408
LJ           1.45671       0.0528907       -0.393908
LJ           1.66796         1.75153        0.483532
LJ          0.254464       -0.437563         2.62926
LJ            -0.985       -0.441939        -2.02423
LJ           -1.8643       -0.267921       -0.317587
LJ           1.57443      -0.0540112         1.34284
LJ          -2.39536        -4.39052         5.97931
LJ           2.65189       -0.681586           1.894
LJ          0.848049        0.388448        0.607336
LJ          -1.70278         0.17257        -1.47924
LJ         -0.421081       0.0547968          1.2442
LJ          0.307298         1.44202         3.42777
LJ         -0.358562          2.3294        -1.53762
LJ          -5.87446        -3.68366          -1.112
LJ         -0.236298         2.23205      -0.0582677
LJ           1.34395         1.04812         1.73195
LJ           3.68796        0.909546         1.21848
LJ          0.205869        0.159596       -0.845053
LJ          0.640599        -1.27538        -1.62284
LJ          0.720591        -1.33955         2.97187
LJ           2.32445        0.506802         0.11561
LJ          0.702918         1.48488       0.0232157
LJ            1.3997         4.20061        -4.04899
LJ         -0.276207        -2.90781         1.62734
LJ          -2.06493       -0.338251        -2.57279
LJ         -0.117927          1.3597        0.656717
LJ          0.221573       -0.444339        -2.26551
LJ           2.41195        -1.10529         2.78342
LJ           2.32041         1.21169         1.25844
LJ          -2.22262        -2.94997        -3.34379
LJ          0.104247        0.521786         2.08033
LJ          -2.59971        0.464917          6.3614
LJ           3.53524      0.00617863         2.05313
LJ          0.415264       -0.411304         1.58334
LJ          0.814993         1.72233         1.14121
LJ          -1.40052        0.689635          1.6086
LJ           1.23562         1.00964         3.83925
LJ         -0.466364        -1.67632       -0.168001
LJ         -0.191487         1.19349        -0.43972
LJ          0.157284         2.39838         4.26696
LJ           1.23928        -1.40225         1.00681
LJ           1.11223       -0.289295        -1.43231
LJ          0.782703       -0.914775       -0.622552
LJ           2.37338        0.098929         2.59537
LJ          0.390652       -0.538961        0.564645
LJ           1.44184         2.64101         1.85503
LJ          -1.40858        0.228008        0.587772
LJ          -1.34191        -1.90125          1.5793
LJ          -0.17402        0.511229        -1.70264
LJ           1.03727        0.474026         2.68872
LJ         -0.608062       -0.913614         1.70169
LJ          -1.08018         1.51831         2.06766
LJ           1.13698         2.28858          3.3847
LJ          0.146889         0.20509         3.44057
LJ          -1.07225        -1.37154        -2.44803
LJ          -1.50597        -1.83476        -0.49973
LJ           2.77392        -1.35598        -2.27387
LJ         -0.888402      -0.0327736       -0.717614
LJ          0.457868         2.58539       -0.734776
LJ           2.36185       -0.750039        0.243706
LJ           4.91971          0.7256        -5.51869
LJ           1.92908         4.29832       -0.347007
LJ          -1.16585          1.0793        -1.03861
LJ           2.07531         4.29797         1.08989
LJ          -3.04009        -1.47265        -5.65398
LJ           2.62889        0.952949        -1.93245
LJ          0.471937        -4.05699        -1.54406
LJ           3.06731        -4.24331        -2.07744
LJ            3.7918        -5.69633        0.375226
