108
#Comment!
LJ          -1.10795        -2.13364        0.280117
LJ          -5.27311          5.4176       -0.498271
LJ           2.31429         4.07373        -2.91073
LJ           3.22952         3.84573        -3.71743
LJ           1.49925        -1.86489        -1.51738
LJ          0.176489         2.40127       -0.851764
LJ          0.859382        -1.72819       0.0123132
LJ          0.913231        -3.31101        0.214652
LJ           1.16882        -2.56357       -0.775833
LJ           1.33239        0.380837       -0.409619
LJ           1.65189         1.33211         0.90011
LJ          0.872767        -1.21612         2.29987
LJ          -1.33985        -1.10091         -1.7532
LJ          0.616945         1.56062        -1.90469
LJ         -0.934199          1.8214        0.667296
LJ          0.220712          2.7511        0.136893
LJ          -1.45359         1.25435        -1.31036
LJ         -0.162982       -0.308644        0.294215
LJ         -0.669457         3.26321       -0.132063
LJ        -0.0877213       -0.708037        -1.26948
LJ           1.08128       -0.336859        -1.20778
LJ         -0.140437        -1.26875       -0.224322
LJ         -0.699553        -0.17578        -2.40447
LJ          0.783045         3.65535         2.75198
LJ          -1.89568         5.18794        0.323015
LJ         -0.240554         2.18569        -1.72433
LJ           1.51749         2.55439         -2.5217
LJ           3.94469         1.42939         1.80833
LJ           0.13173         3.71073       -0.710192
LJ           1.46927         4.97873        -1.23661
LJ          -1.16294           1.087         1.46949
LJ          0.660081        0.275428        -2.06088
LJ         -0.176096         1.15696        -2.41601
LJ           1.54739        0.996865        -1.51925
LJ          0.406487         1.68296        0.257456
LJ         -0.316605        0.949385        -1.37187
LJ         -0.914183        -2.85488       -0.901419
LJ          -3.19846       -0.698423        0.283899
LJ          -1.76458          1.2217        0.370141
LJ          0.958295        -1.84132         1.14066
LJ         -0.773293        -1.17052        0.703242
LJ         -0.363963        -3.22035         0.06101
LJ          -1.86286           -1.37        0.762779
LJ         -0.714598       -0.327199         1.32596
LJ        -0.0196374        -4.02656        0.842916
LJ          -5.91144        -3.60668      -0.0139084
LJ         0.0120796        -2.36492       -0.392718
LJ           1.55259        -2.45674        0.613546
LJ         -0.873653      -0.0534261       -0.517013
LJ          -1.17371          2.3341        -0.67113
LJ          0.366306      -0.0923718         1.32176
LJ          -1.76267        0.390967       -0.702013
LJ          -0.68284        -1.82078        -1.25952
LJ           0.69519         1.34483       -0.711483
LJ            0.6881        0.493813        0.505301
LJ            1.3689        -0.78025         1.15625
LJ           0.85939       -0.447893      -0.0520523
LJ         0.0951926        0.325282       -0.571464
LJ           2.12476       0.0617805        -1.28346
LJ           2.36054       -0.180331        0.410706
LJ          -1.08597        0.278243        -1.55307
LJ           5.87571         4.00949         2.06395
LJ          -2.26147         1.95431       -0.477306
LJ          -1.22444        -1.10707       -0.625409
LJ          -0.01022         1.59165         1.56133
LJ         -0.690744         1.10335       -0.304518
LJ         -0.544411        0.612327        0.798938
LJ           1.05004         2.42692       -0.404608
LJ           2.90033         6.23758         5.88584
LJ           1.09298         1.82256         1.90049
LJ           -4.1419       -0.534834         6.28415
LJ          -1.23664         5.94005        -5.25373
LJ         0.0525873        -2.18599        0.713794
LJ           1.97312          1.5746       -0.179101
LJ         -0.372976        0.484057          1.9046
LJ          0.599297         1.01649         2.33521
LJ          -1.09027        -3.53177        0.748402
LJ         -0.890631        -2.02844         1.39792
LJ           1.23273         2.44615         5.09214
LJ          -4.77439        -1.99452         2.21871
LJ          0.303878        -1.05411        0.885664
LJ           1.96581         -1.6669       -0.147936
LJ         -0.295625        -2.98613          1.3331
LJ        -0.0896828        -1.07679         1.94108
LJ          -2.17143        0.220993        0.802007
LJ          -1.25954      -0.0519733        0.430877
LJ          0.252487        -3.66973         2.02109
LJ          -3.21787         2.17213         3.06235
LJ          0.888457       -0.174662         2.38929
LJ          -1.01758        -1.20524         2.54612
LJ          -1.71006         2.61743        0.320587
LJ         -0.152884        -1.20041         3.07492
LJ          0.242667         -2.2229         2.23625
LJ          -1.47793        -5.00493         6.16349
LJ           6.09051        -5.46006        0.184258
LJ          -6.38333         2.74215         -4.4437
LJ          -1.81718       -0.734348         1.90425
LJ          0.913122         2.25753         1.04035
LJ           1.08561         3.27628        0.372311
LJ           2.28053        -2.86901      -0.0116589
LJ           5.20689         3.57351        0.257215
LJ          -5.12966         1.34585        -2.86573
LJ         -0.603755         5.38698        0.243736
LJ           5.65904         6.13383         2.71039
LJ           2.40165         1.52675         2.88832
LJ          -2.02402       -0.745708      -0.0798408
LJ         0.0558748         4.40522        -4.58512
LJ          -4.71388       -0.503973         4.14564
