108
#Comment!
LJ         -0.956584        -2.51295        0.155828
LJ          -5.06792         5.82165        0.610858
LJ           3.10956         4.18912        -3.22689
LJ           4.03232         4.98702        -3.69755
LJ            1.6167        -1.33064        -1.32942
LJ         -0.225354         1.70765       -0.905842
LJ          0.918515         -1.6698        0.237157
LJ          0.741686         -3.4649        0.148344
LJ           1.00914          -2.545       -0.450047
LJ           1.48331        0.662661        -0.49088
LJ           2.19656         1.99184         1.37953
LJ            1.1825        -1.79073         2.21488
LJ          -1.19197       -0.848474         -1.3187
LJ          0.957238         2.46819        -1.64685
LJ         -0.663141         1.85846        0.580237
LJ         -0.382801          2.6729      -0.0864559
LJ          -1.76256         1.05267        -1.50014
LJ         -0.519726       -0.390807      -0.0598426
LJ          -1.24778         2.99121        0.323761
LJ         -0.181599       -0.491375        -1.14389
LJ          0.690765      -0.0270375        -1.05643
LJ          0.133678        -1.32138       -0.425201
LJ          0.514862       -0.907678        -2.42359
LJ          0.861267          2.8297         1.46704
LJ          -1.34625         4.02571        0.874001
LJ         -0.328555         2.59055        -2.79938
LJ           2.14089         2.78331        -2.19499
LJ           3.24826         1.23035         2.47586
LJ         -0.141778         2.69089        -1.18779
LJ           1.01742         4.28771       -0.876214
LJ         -0.179415         1.75563         1.80496
LJ          0.300081        0.577342        -1.85027
LJ          0.131023         1.69402        -2.05944
LJ           1.86603        0.945991        -1.72056
LJ          0.412129         1.41213      -0.0845675
LJ         -0.719248        0.869627         -1.5173
LJ         -0.961809        -2.60138       -0.950133
LJ          -2.86741       -0.610165         1.11302
LJ          -1.50069         1.13641        0.646257
LJ          0.609377        -2.04608         1.37622
LJ         -0.899672         -1.3989        0.224403
LJ         -0.332171         -3.4543       -0.145755
LJ          -1.82191        -1.39604         0.67124
LJ          -0.83299        -0.64608         1.19697
LJ        -0.0915765        -3.95428        0.841533
LJ           -6.0778        -2.27932       -0.391526
LJ        -0.0830968        -2.44487       -0.429059
LJ           1.52609        -2.68426        0.600777
LJ          -1.17359        0.106362       -0.719353
LJ          -1.21514         2.09318       -0.658496
LJ          0.265132      -0.0549694         1.01666
LJ            -2.233        0.260675       -0.809032
LJ         -0.448327        -1.68564        -1.46872
LJ          0.919485         1.33011        -1.21162
LJ           1.43345        0.577644        0.702498
LJ          0.954545       -0.930726          1.2472
LJ          0.857522       -0.499524      0.00689161
LJ          0.250274        0.415304       0.0421227
LJ           1.71136       -0.327648        -0.69189
LJ           1.66903       -0.982519        0.489494
LJ          -1.53005       0.0950242        -1.81807
LJ           5.19445          4.5227         2.58173
LJ          -1.94868         1.40189       -0.444864
LJ          -1.63435       -0.918373       -0.287445
LJ           0.35152         1.05476        0.845502
LJ         -0.709978         1.07584       -0.208608
LJ          -0.66214        0.645523        0.763325
LJ          0.729189         2.21061       -0.644454
LJ           2.98699         6.16132         5.25956
LJ           1.84979         2.25541         2.42433
LJ          -4.41599        0.220409         6.39966
LJ         -0.791265        -6.37101        -5.24715
LJ         -0.161634        -2.11174        0.653545
LJ           2.59039         1.84606        0.347158
LJ          -0.29043        0.550015         2.03734
LJ           0.95297        0.864312         1.75069
LJ          -1.13511        -3.39441        0.857861
LJ         -0.942274        -1.72003          1.4253
LJ           1.12817         2.95695         4.83129
LJ          -4.09567        -2.11514         2.15632
LJ          0.133321        -1.04902         0.63357
LJ           1.78881        -1.79746       -0.468473
LJ         -0.504659        -2.67944         1.42919
LJ         0.0148984        -1.17698         1.83159
LJ          -2.60206        0.363654        0.420911
LJ          -1.54862      0.00944011        0.319674
LJ        -0.0938824        -3.58175         1.89938
LJ           -3.8374         1.45015         3.32529
LJ          0.502655       -0.216166          2.3412
LJ         -0.674224        -1.59496         2.49811
LJ          -1.78952         2.18951        0.611508
LJ           0.42722        -1.27832         2.91548
LJ         0.0374422        -2.24972          2.2249
LJ         -0.540841        -5.53082         6.26031
LJ          -6.40611        -5.74956        0.610091
LJ          -6.21771         2.61432        -4.89187
LJ          -1.98503        -0.24132         1.60213
LJ          0.279225         2.18721        0.636515
LJ           1.07599         3.06249        0.437567
LJ           2.06216        -2.75667       -0.719267
LJ           5.29505         3.65701         1.17003
LJ          -5.43902         1.59607        -3.15382
LJ         -0.122069         5.25425         1.27308
LJ           5.58101         -6.2784         2.85145
LJ           2.26796          2.1886         3.75151
LJ          -2.64145       -0.598399       -0.132759
LJ           1.36814         2.95447        -4.74057
LJ           6.33317        0.693064         2.77686
