108
#Comment!
LJ          -3.11674        -3.11674        -3.11674
LJ          -2.14966        -2.14966        -3.00088
LJ          -3.00088        -2.14966        -2.14966
LJ          -2.14966        -3.00088        -2.14966
LJ          -1.07731        -3.06248        -3.06248
LJ       0.000198226        -2.15123        -3.00419
LJ          -1.07755        -2.15033        -2.15033
LJ       0.000198226        -3.00419        -2.15123
LJ           1.07342        -3.05962        -3.05962
LJ            1.9824        -2.15063        -3.05962
LJ           1.07189        -2.14909        -2.14909
LJ            1.9824        -3.05962        -2.15063
LJ          -3.06248        -1.07731        -3.06248
LJ          -2.15123     0.000198226        -3.00419
LJ          -3.00419     0.000198226        -2.15123
LJ          -2.15033        -1.07755        -2.15033
LJ          -1.07736        -1.07736        -3.00752
LJ        0.00013976      0.00013976        -3.00752
LJ          -1.07746     0.000233427        -2.15153
LJ       0.000233427        -1.07746        -2.15153
LJ           1.07402        -1.07742        -3.00419
LJ           1.98526     8.91634e-05        -3.06248
LJ           1.07312     0.000328842        -2.15033
LJ           1.92697        -1.07742        -2.15123
LJ          -3.05962         1.07342        -3.05962
LJ          -2.15063          1.9824        -3.05962
LJ          -3.05962          1.9824        -2.15063
LJ          -2.14909         1.07189        -2.14909
LJ          -1.07742         1.07402        -3.00419
LJ       8.91634e-05         1.98526        -3.06248
LJ          -1.07742         1.92697        -2.15123
LJ       0.000328842         1.07312        -2.15033
LJ           1.07245         1.07245        -3.00088
LJ           2.03952         2.03952        -3.11674
LJ           1.07245         1.92366        -2.14966
LJ           1.92366         1.07245        -2.14966
LJ          -3.06248        -3.06248        -1.07731
LJ          -2.15033        -2.15033        -1.07755
LJ          -3.00419        -2.15123     0.000198226
LJ          -2.15123        -3.00419     0.000198226
LJ          -1.07736        -3.00752        -1.07736
LJ       0.000233427        -2.15153        -1.07746
LJ          -1.07746        -2.15153     0.000233427
LJ        0.00013976        -3.00752      0.00013976
LJ           1.07402        -3.00419        -1.07742
LJ           1.92697        -2.15123        -1.07742
LJ           1.07312        -2.15033     0.000328842
LJ           1.98526        -3.06248     8.91634e-05
LJ          -3.00752        -1.07736        -1.07736
LJ          -2.15153     0.000233427        -1.07746
LJ          -3.00752      0.00013976      0.00013976
LJ          -2.15153        -1.07746     0.000233427
LJ          -1.07736        -1.07736        -1.07736
LJ       0.000136221     0.000136221        -1.07736
LJ          -1.07736     0.000136221     0.000136221
LJ       0.000136221        -1.07736     0.000136221
LJ           1.07432        -1.07746        -1.07746
LJ            1.9303     0.000139786        -1.07736
LJ           1.07432     0.000233412     0.000233412
LJ            1.9303        -1.07736     0.000139786
LJ          -3.00419         1.07402        -1.07742
LJ          -2.15123         1.92697        -1.07742
LJ          -3.06248         1.98526     8.91634e-05
LJ          -2.15033         1.07312     0.000328842
LJ          -1.07746         1.07432        -1.07746
LJ       0.000139786          1.9303        -1.07736
LJ          -1.07736          1.9303     0.000139786
LJ       0.000233412         1.07432     0.000233412
LJ           1.07312         1.07312        -1.07755
LJ           1.98525         1.98525        -1.07731
LJ           1.07402         1.92697      0.00019824
LJ           1.92697         1.07402      0.00019824
LJ          -3.05962        -3.05962         1.07342
LJ          -2.14909        -2.14909         1.07189
LJ          -3.05962        -2.15063          1.9824
LJ          -2.15063        -3.05962          1.9824
LJ          -1.07742        -3.00419         1.07402
LJ       0.000328842        -2.15033         1.07312
LJ          -1.07742        -2.15123         1.92697
LJ       8.91634e-05        -3.06248         1.98526
LJ           1.07245        -3.00088         1.07245
LJ           1.92366        -2.14966         1.07245
LJ           1.07245        -2.14966         1.92366
LJ           2.03952        -3.11674         2.03952
LJ          -3.00419        -1.07742         1.07402
LJ          -2.15033     0.000328842         1.07312
LJ          -3.06248     8.91634e-05         1.98526
LJ          -2.15123        -1.07742         1.92697
LJ          -1.07746        -1.07746         1.07432
LJ       0.000233412     0.000233412         1.07432
LJ          -1.07736     0.000139786          1.9303
LJ       0.000139786        -1.07736          1.9303
LJ           1.07312        -1.07755         1.07312
LJ           1.92697      0.00019824         1.07402
LJ           1.07402      0.00019824         1.92697
LJ           1.98525        -1.07731         1.98525
LJ          -3.00088         1.07245         1.07245
LJ          -2.14966         1.92366         1.07245
LJ          -3.11674         2.03952         2.03952
LJ          -2.14966         1.07245         1.92366
LJ          -1.07755         1.07312         1.07312
LJ        0.00019824         1.92697         1.07402
LJ          -1.07731         1.98525         1.98525
LJ        0.00019824         1.07402         1.92697
LJ           1.07189         1.07189         1.07189
LJ            1.9824          1.9824         1.07342
LJ           1.07342          1.9824          1.9824
LJ            1.9824         1.07342          1.9824
