108
#Comment!
LJ           1.93721        -1.02746          1.0722
LJ            3.2515        -1.58208         2.23345
LJ          -1.26128      0.00396097         2.35982
LJ          -2.21474         2.81576         1.83845
LJ           3.03378        -1.90619       0.0809383
LJ           2.09387         1.23851        -2.11746
LJ           1.46388        0.186398           1.742
LJ           2.43603        0.519803       -0.896936
LJ           1.98317        -1.68308        0.241824
LJ           1.78419          -1.233       -0.711416
LJ          -1.20584         2.88881         0.79404
LJ           1.88029         1.72129          2.4434
LJ         -0.442292        -2.09421        0.404009
LJ           2.55206       -0.490466       -0.400968
LJ          -1.05152        0.809633         3.39298
LJ         -0.332547         1.28644          1.7425
LJ          0.944921        -0.68268         -2.1491
LJ        -0.0215399        0.782617        0.286366
LJ          -1.05181         1.96144         2.32676
LJ         -0.535914       -0.960762       -0.767554
LJ          0.730526         -4.0278        0.203649
LJ           1.57228         0.32214       -0.144932
LJ           1.71162        0.122761         -2.5762
LJ           5.37079         4.91818         2.09386
LJ          -3.29852        -5.94367         5.53533
LJ          -1.49349         2.89422       -0.403379
LJ          -3.42874         5.33272       -0.384617
LJ          -1.31177         6.20353           5.594
LJ          0.586544         1.64592         2.19568
LJ          -4.21595         1.12184         1.98464
LJ         -0.784505        0.480512         1.06912
LJ          -1.52293        -3.46284         6.15279
LJ        -0.0621909       -0.521684        -1.58649
LJ          0.752033        -1.19025        -1.22348
LJ         -0.604468         2.53368        0.023234
LJ          0.142487        -1.59934        -0.40308
LJ          -1.20827        -1.82648       -0.702526
LJ          0.267659        0.505192        -1.77455
LJ          -1.36413         1.05715         1.82533
LJ           2.07566         1.35014       -0.227723
LJ           1.80467        0.817664        0.811684
LJ           1.49644        -3.04063     -0.00645912
LJ          -1.67676        -1.10004       -0.161527
LJ         -0.901475       -0.941182        0.628657
LJ          0.639397        -0.56016          1.7203
LJ           2.68982        -3.85247         2.54871
LJ           1.10442        -2.01489       -0.342627
LJ           2.59248      -0.0470291        0.632942
LJ          -1.22806        0.059399       0.0744886
LJ           -1.7355         1.98792          1.4919
LJ          -2.16549       -0.191985         3.17636
LJ          -1.71015         0.73214       -0.679123
LJ         -0.882116         -2.4776         1.26974
LJ          -1.38183         2.33847        -1.36837
LJ          0.655418         1.31702         1.14077
LJ           2.44628         1.50679         1.40219
LJ           1.15126       -0.991997       0.0538283
LJ         -0.394696        0.188555       -0.830743
LJ           2.13411        -2.48671       -0.743289
LJ           3.48309      0.00791805       -0.972863
LJ         -0.702041          1.2276        -1.17731
LJ          -4.79448         2.36838         -3.0829
LJ          -1.64443       -0.254701         1.12711
LJ            -1.483       -0.333355        -1.54722
LJ          0.194276         2.13728       -0.629029
LJ           0.30677         1.71623        -1.56999
LJ          0.623349       -0.728847         3.10774
LJ           1.21211         2.00783        0.350699
LJ          -5.20463        -4.43941         5.24118
LJ         -0.982891         1.76388        0.802361
LJ          -5.07779        -2.93721         5.34614
LJ           1.46118       -0.623911          2.5688
LJ            1.1143      -0.0778508        0.783318
LJ          0.132357         2.32037        0.807358
LJ          -2.19159         2.12496         2.59002
LJ          0.220407        0.273879          3.5926
LJ          0.319186        -1.43316        0.546142
LJ          0.124025       -0.302998        0.355979
LJ           1.32362        -5.47415         5.96623
LJ          0.972442        -2.30364        0.678486
LJ          0.391689        0.847425       -0.672832
LJ          0.664087       -0.141865       -0.881428
LJ         -0.380071        -1.33253         1.52478
LJ          0.270211        0.312222         1.29066
LJ         -0.118931         1.05265         2.78314
LJ           -1.9322         1.08632         0.80772
LJ          0.793613        0.346361         2.69161
LJ           1.39882         2.14104         -1.8186
LJ         -0.198401       0.0304137         2.36094
LJ         -0.360018        -1.06983         2.74238
LJ          -2.42086         2.59766         0.56222
LJ         0.0273703         2.33005         2.95912
LJ           1.23018        -1.43308         1.86629
LJ           3.44244         4.90494        0.583937
LJ          -5.03287         5.14038         5.15063
LJ          -1.96123        -5.33409       -0.602072
LJ          -0.89683         1.25976       -0.070262
LJ           1.24445         1.61198       -0.729495
LJ           1.60311       -0.363211        -1.25337
LJ           3.64163        -1.04194        -5.22397
LJ           3.23147         2.89448         2.16043
LJ          -1.79074         1.98251      -0.0558095
LJ           5.12362       -0.808336         2.87332
LJ          -4.62297       0.0387419         4.73717
LJ           1.33723        0.729652        -1.23279
LJ          0.387126        -2.28164        -1.28408
LJ         -0.158084        -1.94167         4.92333
LJ          -1.65306         5.07852         3.88636
