108
#Comment!
LJ          -1.70068        -2.46827        0.371995
LJ          -5.00191         6.33869         1.68953
LJ           4.23749         4.65062         -3.6749
LJ           4.44331         5.70694        -3.50444
LJ           2.06405        -2.08103        -1.26672
LJ         -0.205401         1.48941        -1.47608
LJ          0.727884        -1.95886        0.212635
LJ          0.640133        -3.10349        0.432031
LJ           0.75732         -2.6611       -0.880878
LJ           1.57494         1.09678       -0.665159
LJ           2.83202         2.43029         1.89832
LJ           1.19756        -1.96723         2.13522
LJ          -1.26528       -0.930625        -1.18744
LJ          0.872039          3.0396        -1.93102
LJ         -0.874362         1.64766        0.336562
LJ         -0.483996         2.40233       -0.913699
LJ          -2.02139         1.06683        -1.58568
LJ         -0.072221       -0.605084       -0.280967
LJ          -1.12612         2.64156      -0.0854732
LJ          -0.23998       -0.102172        -1.22515
LJ           1.19012      -0.0589767         -1.1097
LJ           1.03163        -1.00175       -0.786726
LJ          0.388891       -0.449167        -2.02227
LJ           1.86105         1.53546         1.62539
LJ          -1.16507          3.9587          1.9252
LJ         -0.101359         2.61901        -2.90972
LJ            1.8761         2.70087        -1.47704
LJ           2.22083           1.359         3.02894
LJ         -0.597926         2.45481        -1.93425
LJ          0.266817         3.41526       -0.991981
LJ          0.639409         1.73083         2.78825
LJ           0.32295        0.566908        -1.83106
LJ          0.651538         1.98389        -2.23894
LJ           1.48847        0.595722        -2.11854
LJ         0.0549034         1.55365       -0.459453
LJ         -0.896105        0.658205         -1.6899
LJ          -1.31707        -2.02064        -1.01432
LJ           -2.6135       -0.308581         1.33477
LJ           -1.5731        0.893306        0.940491
LJ           0.71794        -2.31772         1.13867
LJ         -0.920051          -1.296       -0.152985
LJ         -0.657858        -3.09237       -0.268836
LJ          -1.96528       -0.976874         0.65142
LJ         -0.795392        -0.59027        0.633734
LJ        -0.0937345        -3.77999        0.980981
LJ          -6.24064       -0.953383       -0.765503
LJ         -0.262802        -2.12721       -0.660844
LJ           1.60224        -2.58709        0.444714
LJ           -1.0999       0.0128573       -0.775351
LJ          -1.16592         1.37801       -0.869955
LJ          0.129662       -0.287156         1.13181
LJ          -2.81124        0.109047       -0.742672
LJ         -0.123708        -1.27261        -1.58655
LJ          0.840292         1.38759        -1.32674
LJ           1.21073       0.0196082        0.854584
LJ          0.983919       -0.905256         1.48913
LJ           1.11059       -0.991672        0.258878
LJ          0.583088        0.453123      -0.0908238
LJ           1.75338      -0.0594891       -0.107908
LJ           1.71253        -1.54743        0.946495
LJ          -1.79416      -0.0389392        -1.83537
LJ           4.55764         4.91821         2.88608
LJ          -1.96538         1.03154       -0.181452
LJ          -2.26374        -0.90071        -0.54544
LJ          0.214555         1.30533         0.86125
LJ         -0.677417        0.775108       -0.204766
LJ         -0.524074        0.532466        0.778432
LJ          0.499986         2.39928       -0.954484
LJ            3.0739         6.08306         4.63183
LJ           2.34098         2.74687         3.06346
LJ          -4.69236        0.978861        -6.41262
LJ         -0.266288        -5.65322        -5.52031
LJ         -0.184211        -2.47573        0.544486
LJ           2.98593         1.66244        0.789083
LJ         -0.111901        0.943438         2.00967
LJ          0.713068        0.385746         1.82286
LJ          -1.10146        -3.28704        0.815717
LJ         -0.925473        -1.63378        0.921801
LJ           1.01802         3.46914         4.46211
LJ          -3.37328        -2.19702         2.06142
LJ          0.005116        -1.27474        0.611885
LJ           1.78582        -1.72008       -0.210497
LJ         -0.660895        -2.56238         1.50475
LJ         0.0726132        -1.43112         1.64203
LJ          -2.64879        0.351274        0.247902
LJ          -1.61016      -0.0528011        0.178323
LJ        -0.0105229        -3.34847         1.96076
LJ          -4.45052        0.718388         3.57621
LJ         0.0470672       -0.531515         2.20103
LJ         -0.607159        -1.57667         2.39513
LJ          -2.46588         1.70613        0.993988
LJ           0.70504        -1.54181         3.06544
LJ           0.16057        -2.29801         2.24372
LJ          0.318801        -6.16095        -6.28991
LJ          -5.84687        -6.15464         1.08383
LJ          -6.03576         2.46373        -5.30222
LJ          -1.52986       -0.106633         1.33329
LJ         -0.108823         2.40401         0.15005
LJ          0.986587         2.76936        0.314638
LJ           1.85232        -3.26321        -0.92619
LJ           5.33914         3.89027         2.30242
LJ          -5.76223         1.86677        -3.48046
LJ          0.482917         5.04223         2.25396
LJ           5.50355        -5.80257         2.97114
LJ           2.02466         2.78248         4.38092
LJ          -3.25665       -0.620804       0.0892254
LJ           2.68198         1.50421        -4.86778
LJ           4.44847         1.89732         1.40587
