108
#Comment!
LJ          -4.42747        -4.42331        -4.42601
LJ         -0.260426       -0.262912        -3.93656
LJ          -3.93767       -0.260714       -0.259452
LJ         -0.255788        -3.93427       -0.260429
LJ         -0.979547        -2.93547        -2.93843
LJ          0.549963       -0.646046        -3.04591
LJ          0.300485        -1.14285        -1.14623
LJ          0.547723        -3.04874       -0.644806
LJ           1.59207        -2.03919        -2.03996
LJ           1.64414        0.159402       -0.675094
LJ          -3.24257         5.02469         5.02469
LJ           1.64499       -0.676579        0.161391
LJ          -2.94809       -0.983604        -2.94779
LJ         -0.643254        0.551136        -3.04851
LJ          -3.04782         0.55335        -0.64434
LJ          -1.14098        0.303484        -1.14004
LJ          -1.09095        -1.09201        -2.99656
LJ        -0.0990906        -0.10214       -0.900684
LJ           -1.8659        0.163009        -2.66091
LJ          0.169969        -1.86324        -2.65471
LJ           2.23139       -0.682164        -2.18017
LJ           1.11406        -1.06906        -2.18476
LJ        -0.0129415       -0.846249        -2.11417
LJ           4.89904        -2.60159        -3.84052
LJ          -2.03977          1.5911         -2.0396
LJ          0.161946          1.6423       -0.679646
LJ         -0.677058         1.64175        0.161587
LJ           5.02469        -3.24257         5.02469
LJ         -0.676953         2.23333        -2.18157
LJ          -1.06855         1.11706         -2.1816
LJ          -2.60178          4.8994        -3.84061
LJ         -0.848306      -0.0112701        -2.11099
LJ          0.194403        0.194514        -2.05526
LJ          0.468407        0.463313        -3.50327
LJ          0.336864         2.27456         -1.6181
LJ           2.26544        0.338621        -1.61732
LJ          -2.94726        -2.94349       -0.983131
LJ          -1.14502        -1.14075        0.301472
LJ          -3.04771        -0.64628        0.550135
LJ         -0.643901        -3.04991        0.548442
LJ          -1.09301        -2.99489        -1.09156
LJ          0.166543        -2.65714        -1.86177
LJ          -1.86388        -2.65971        0.159909
LJ          -0.10024       -0.900706      -0.0999031
LJ           2.22882        -2.17549       -0.680955
LJ           4.89915        -3.84072          -2.602
LJ        -0.0119426        -2.11114       -0.845883
LJ           1.11488        -2.18473         -1.0705
LJ          -3.00083        -1.09064        -1.08969
LJ          -2.65653        0.168416        -1.86981
LJ         -0.900263      -0.0986422      -0.0964827
LJ          -2.65369        -1.86661        0.172673
LJ          -1.99102        -2.00065        -1.99466
LJ          0.784141        0.781666       -0.719222
LJ         -0.711579        0.783521         0.78513
LJ          0.782203        -0.72681        0.778704
LJ          0.689865       -0.132386       -0.130617
LJ          0.909475       -0.309234        -1.39618
LJ           1.62231       -0.851853       -0.849837
LJ          0.907419        -1.39686       -0.309626
LJ          -2.18544         2.23873       -0.676483
LJ          -3.84053          4.8992        -2.60168
LJ          -2.18309         1.11514        -1.06482
LJ          -2.11392       -0.011759       -0.849469
LJ         -0.126172        0.685806       -0.129751
LJ         -0.306365        0.909304        -1.39746
LJ           -1.3975        0.907636       -0.305689
LJ         -0.852386         1.61713        -0.85285
LJ           2.79667         2.79651         1.87073
LJ           3.06673         3.06712        0.651473
LJ         -0.409646         2.80797         -4.8911
LJ           2.80777       -0.409658        -4.89119
LJ           -2.0412        -2.04015         1.59006
LJ           5.02469         5.02469        -3.24257
LJ         -0.674424        0.160558         1.64462
LJ          0.163331       -0.676433         1.64302
LJ         -0.678128        -2.18041          2.2313
LJ          -0.84763        -2.10803      -0.0114656
LJ          -2.60199        -3.84079         4.89943
LJ          -1.07161        -2.18326         1.11669
LJ          0.196065        -2.05717        0.196056
LJ           2.26889        -1.61701        0.341955
LJ          0.337986        -1.61568         2.27205
LJ          0.468734        -3.50488        0.466564
LJ          -2.18223       -0.678376         2.23655
LJ          -2.11509       -0.846694      -0.0105021
LJ          -2.18452        -1.06646         1.11639
LJ          -3.84044        -2.60156         4.89895
LJ         -0.125251        -0.13229        0.689237
LJ         -0.849575       -0.851669         1.61761
LJ          -1.39872       -0.308658        0.906596
LJ         -0.308926        -1.39714        0.907405
LJ           2.79617         1.87039         2.79634
LJ           2.80831        -4.89165       -0.409863
LJ         -0.409862        -4.89142         2.80807
LJ           3.06632        0.651181         3.06648
LJ          -2.06293        0.197908        0.194703
LJ          -1.61848         2.26865        0.335429
LJ          -3.50196        0.463192         0.46539
LJ          -1.61973        0.336649         2.26576
LJ           1.87072         2.79635         2.79669
LJ          -4.88992         2.80709       -0.410005
LJ          0.651436         3.06705          3.0667
LJ           -4.8908       -0.409742         2.80794
LJ          -5.42274        -5.42274        -5.42274
LJ           1.80708         1.80237        -1.04503
LJ          -1.05247         1.80609         1.80869
LJ           1.81106        -1.03821          1.7977
