108
#Comment!
LJ         -0.641734         -1.7708      -0.0525058
LJ          -5.60845         4.81039        -2.19315
LJ           1.37739         3.44694         -2.7297
LJ           1.37294         2.26895        -3.19636
LJ           1.13174        -1.43861       -0.594483
LJ          0.214916         2.26922       -0.245089
LJ           1.14557        -1.73747        0.436741
LJ          0.621656        -2.77291        0.855087
LJ           1.45434        -2.58389       -0.327717
LJ            1.7319        0.158272       -0.504142
LJ           1.29257          1.6209        0.547689
LJ           1.20529       -0.687286         1.73731
LJ          -1.26644       -0.821371        -1.98092
LJ          0.530048         1.57777        -1.46599
LJ         -0.111628         1.83495        0.730004
LJ         -0.558344         3.57482         1.14128
LJ          -1.26698          1.1387        -1.31543
LJ         -0.196642       -0.114838        0.618719
LJ         -0.224141         3.24833         0.10114
LJ         -0.202589       -0.765678        -1.06286
LJ          0.793719       -0.700529        -1.43021
LJ          0.186987        -1.24777       -0.104054
LJ         -0.936197        0.692519        -2.17657
LJ          0.702315         4.46605         4.64733
LJ          -3.52127        -6.15493       -0.483043
LJ         -0.569827         1.91205        -1.84524
LJ           0.25413         2.39456        -2.70784
LJ           4.77899         1.76152        0.822959
LJ          0.627171         3.84376       -0.576629
LJ           2.02644         5.74955        -1.77348
LJ          -1.66015        0.454504         1.43249
LJ          0.254768        0.767952         -2.2557
LJ         -0.322918          0.5305        -3.61448
LJ           1.05808        0.477265        -1.36508
LJ         0.0724332        0.935009        0.250435
LJ         -0.151625        0.584681        -1.33807
LJ          -1.30856        -2.28629        -0.81713
LJ           -2.9747       -0.153262       -0.475098
LJ          -1.12902         1.43603       0.0910717
LJ          0.873747        -1.77491         1.63609
LJ         -0.670019        -1.14639        0.868956
LJ         -0.413832        -2.66977        0.567614
LJ          -1.77625        -1.50004      -0.0031252
LJ         -0.842504       -0.161756         1.39363
LJ        -0.0964168        -3.65286          1.2517
LJ          -5.95736        -5.81128        0.488043
LJ          0.397052        -2.36258      -0.0767235
LJ           1.70861        -2.44906         1.22388
LJ         -0.767247       -0.743011       -0.128236
LJ         -0.861081         2.16587       -0.757159
LJ          0.218265       -0.278874         1.68824
LJ          -1.79847        0.716758       -0.529985
LJ          0.240037        -1.76333        -1.16263
LJ        -0.0905019         1.37727       -0.651456
LJ            1.0471        0.088233        0.502426
LJ           1.99714       -0.525426         1.10004
LJ           1.55942       -0.788413       0.0997317
LJ          0.574102       -0.107123       -0.635073
LJ           2.55442        0.012435        -1.48062
LJ           3.14629        0.198274       -0.604273
LJ          -1.27802     -0.00263735        -1.14132
LJ          -6.05474         3.23311         1.14198
LJ          -2.19275         1.56324      -0.0323218
LJ          -1.32002        -1.25582       -0.994769
LJ         -0.348225         1.79155         2.00493
LJ          -0.55999         0.29593       -0.363361
LJ         -0.561639        0.841738         1.21145
LJ             1.839         2.80077        0.149506
LJ           2.76566         6.35284        -6.07687
LJ          0.482275        0.779268         1.18615
LJ          -3.64404         -1.7434         5.85214
LJ          -2.26153         5.02045        -5.72839
LJ         0.0710605        -1.81313        0.769018
LJ           1.09704         0.99464       -0.481565
LJ          -1.23193         1.08505         2.37575
LJ          0.179878        0.773981         2.31133
LJ          -1.21099         -3.2288         1.48341
LJ          -1.26394        -2.12452        0.924204
LJ           1.40416         1.65068          5.4365
LJ          -5.79313        -1.78717         2.30739
LJ          0.626797       -0.844187        0.778337
LJ           2.26776        -1.82668       -0.593651
LJ         -0.200164        -2.33929         1.54233
LJ        -0.0344581        -1.30221         1.69057
LJ          -2.67206        0.740986        0.767921
LJ          -1.34144        0.259647        0.464384
LJ           1.06242        -2.75647         1.94678
LJ          -2.22324         3.24673         2.61202
LJ            1.1054       -0.450058         3.45571
LJ          -1.13509        -1.18983         1.93137
LJ         -0.959023         2.47358        0.533539
LJ          0.454412        -1.18784         2.88087
LJ          0.368549        -2.08042         2.42735
LJ          -2.91859        -4.22553         6.04714
LJ           5.74844        -4.87558       -0.380494
LJ           6.30383         2.92067        -3.72991
LJ          -1.67666       -0.751797         0.89899
LJ          0.602234         2.70094         1.00276
LJ           1.82546         3.72507        0.722294
LJ           2.84835        -2.78689       -0.645396
LJ           5.10712         3.48135        -1.00146
LJ          -4.66299        0.979123        -2.43984
LJ          -0.50805         5.79148        -1.30183
LJ           5.78768         5.28675         2.46214
LJ           1.90303        0.704862         1.01362
LJ           -1.9869          -0.474       -0.197096
LJ          -1.60825        -6.29266        -3.89166
LJ          -1.89068        -2.30924        -6.44097
