108
#Comment!
LJ           3.46272       -0.376449        0.676133
LJ           -2.5835         2.76492        -4.43191
LJ           1.15724         -1.8542         1.99577
LJ          -1.54214         2.69619       -0.258563
LJ         -0.566641       -0.224778         2.43717
LJ           1.29595        -2.76772       -0.634274
LJ          0.768102      -0.0678479        -1.31922
LJ           2.39919        -2.56045       -0.240933
LJ           1.77751        -1.03571         2.29549
LJ         -0.908998        -2.23342         2.74332
LJ         -0.204332         1.76958         3.29268
LJ          0.390348         0.77361        0.166006
LJ          0.537493        -1.07481        0.111711
LJ           2.38357        -4.86561        -3.76219
LJ           2.25446        -3.28186         -1.1224
LJ          0.361191        -1.93506        0.743241
LJ           3.90967        -1.91001         5.67907
LJ           1.33027         1.44981        0.158645
LJ         -0.369764         5.07134        -3.07211
LJ           1.86959        -1.83474       -0.726533
LJ          -2.45087        0.422234         2.60419
LJ           1.49466         3.26618        -1.71622
LJ           2.33068       -0.110875        0.479459
LJ          -1.00336        -3.25545       -0.904048
LJ          0.389261         1.71976         2.08242
LJ        -0.0592446         2.25416        -1.13879
LJ          -1.04497        0.786125        -1.31256
LJ          -5.57762          5.4118         -1.8358
LJ           3.55618         1.28105         1.55673
LJ           1.74132         -2.5265         1.35211
LJ           1.54559        -0.38418         5.21986
LJ            4.7457       -0.429366         2.61029
LJ           1.53032        -2.37873         -1.5484
LJ          0.400605       -0.831159        -2.05319
LJ        -0.0228661         2.28366       0.0509697
LJ           3.19477       0.0335061       -0.548302
LJ           2.15929        -1.36987         1.04877
LJ          0.292448         -2.6097        -2.03185
LJ          0.859718       -0.103732       -0.217684
LJ            1.6414        0.870562       -0.632306
LJ            2.1577          2.0486       -0.324202
LJ        -0.0848843        -2.00773         1.73164
LJ          0.916407        -1.50239        -1.20521
LJ         -0.234389       -0.140925        0.475511
LJ           2.05562         1.06472         3.26316
LJ           4.04625         -4.7831        -2.88755
LJ           2.81499       -0.508523         1.50543
LJ           2.59428        -1.57371         2.96268
LJ           2.62595        -1.79682          -1.685
LJ          -0.85153         1.96822         1.21926
LJ           2.29562        0.410776         1.39675
LJ         -0.213216         3.87867         -2.5009
LJ          -0.98495        -6.44359        -3.21745
LJ        -0.0142149        0.387789         1.31243
LJ           2.40987        -1.85719         1.91201
LJ           2.60971        -1.23211       0.0601163
LJ             2.352        0.905314       0.0910206
LJ           3.08524        -2.73756        -1.23704
LJ           1.06036       -0.929142         3.46481
LJ           3.23979        0.601958        0.840218
LJ          0.306996        0.876817        -1.25788
LJ           5.84142         6.38315        -5.07091
LJ          0.160921        -1.41899         2.64317
LJ         -0.687748         4.75357        -1.99166
LJ           1.56803         1.45472         1.24222
LJ           1.55775       -0.916528        0.127952
LJ           1.79169        -2.78338         2.32583
LJ          0.980295         1.74292        -1.19431
LJ          0.603303         2.56751        -1.96248
LJ           1.94999          1.3951         2.18849
LJ           2.05077         1.42504        -4.98565
LJ           0.47637         0.51755         3.43767
LJ           1.17944        -1.32257         1.09584
LJ           1.47138         0.45729           0.712
LJ        -0.0469649       -0.923692         1.26735
LJ          0.699677       -0.316438        0.918835
LJ           1.63667        -0.37693         1.35809
LJ         -0.588799         1.21155       0.0283143
LJ           3.47478        -1.02003         4.99675
LJ          0.453694       -0.328718          1.9341
LJ           2.08168       -0.283376       -0.497147
LJ           1.35767        -2.10731        0.273325
LJ            2.0691      -0.0419462         2.50775
LJ            3.3807        -1.55858         1.55042
LJ          0.767945         2.21849        0.970071
LJ          -1.26799       0.0197262         1.01665
LJ         -0.651516        -1.30676        0.297574
LJ         -0.332079         1.02327        -2.12205
LJ           1.13446        0.483783         1.72454
LJ           0.56108        -2.70946         2.44076
LJ           1.00601          2.5195       -0.294918
LJ        -0.0278112         1.39446         1.03995
LJ         -0.200686        0.809697          2.6273
LJ          0.114247       -0.831274       -0.866289
LJ          0.353493        -2.14041       -0.307966
LJ            1.5796        0.550371         5.78474
LJ         -0.215676        0.269827       -0.519972
LJ          0.165361         3.31765       -0.167566
LJ          -2.84664         6.33545          5.0478
LJ           5.03441         4.61574         6.14861
LJ          -1.24964         3.44866        -1.05245
LJ         -0.270893        0.035169        -1.58918
LJ          0.661803         3.13424        -1.09697
LJ           3.14472       -0.246303        -1.85618
LJ         -0.401431         3.98627        -1.36913
LJ          -1.40967        -1.73384         1.77675
LJ           3.10118        -3.38405        0.426216
LJ           2.03154        -3.31909        0.562294
