108
#Comment!
LJ          -1.53321        -1.53321        -1.53321
LJ           -1.9749         -1.9749         -3.3871
LJ           -3.3871         -1.9749         -1.9749
LJ           -1.9749         -3.3871         -1.9749
LJ          -1.71358        -2.96541        -2.96541
LJ         0.0095166        -2.27684        -3.59313
LJ         -0.737242        -2.29606        -2.29606
LJ         0.0095166        -3.59313        -2.27684
LJ          0.698297        -2.78324        -2.78324
LJ           1.70508        -1.77558        -2.78214
LJ          0.978542        -2.05734        -2.05734
LJ           1.70508        -2.78214        -1.77558
LJ          -2.96541        -1.71358        -2.96541
LJ          -2.27684       0.0095166        -3.59313
LJ          -3.59313       0.0095166        -2.27684
LJ          -2.29606       -0.737242        -2.29606
LJ         -0.967893       -0.967893        -2.62427
LJ         -0.111208       -0.111208        -2.62394
LJ          -1.00423      -0.0740851        -1.79394
LJ        -0.0740851        -1.00423        -1.79394
LJ           1.20031        -1.08655        -3.59255
LJ           1.88871        0.636394        -2.96566
LJ           1.21947       -0.339962        -2.29693
LJ           2.51547        -1.08651        -2.27668
LJ          -2.78324        0.698297        -2.78324
LJ          -1.77558         1.70508        -2.78214
LJ          -2.78214         1.70508        -1.77558
LJ          -2.05734        0.978542        -2.05734
LJ          -1.08655         1.20031        -3.59255
LJ          0.636394         1.88871        -2.96566
LJ          -1.08651         2.51547        -2.27668
LJ         -0.339962         1.21947        -2.29693
LJ          0.898669        0.898669        -3.38763
LJ           0.45643         0.45643         -1.5337
LJ          0.898401          2.3105        -1.97524
LJ            2.3105        0.898401        -1.97524
LJ          -2.96541        -2.96541        -1.71358
LJ          -2.29606        -2.29606       -0.737242
LJ          -3.59313        -2.27684       0.0095166
LJ          -2.27684        -3.59313       0.0095166
LJ         -0.967893        -2.62427       -0.967893
LJ        -0.0740851        -1.79394        -1.00423
LJ          -1.00423        -1.79394      -0.0740851
LJ         -0.111208        -2.62394       -0.111208
LJ           1.20031        -3.59255        -1.08655
LJ           2.51547        -2.27668        -1.08651
LJ           1.21947        -2.29693       -0.339962
LJ           1.88871        -2.96566        0.636394
LJ          -2.62427       -0.967893       -0.967893
LJ          -1.79394      -0.0740851        -1.00423
LJ          -2.62394       -0.111208       -0.111208
LJ          -1.79394        -1.00423      -0.0740851
LJ         -0.927501       -0.927501       -0.927501
LJ          -0.14927        -0.14927       -0.928004
LJ         -0.928004        -0.14927        -0.14927
LJ          -0.14927       -0.928004        -0.14927
LJ          0.716349        -1.00371        -1.00371
LJ           1.54612       -0.110235       -0.966495
LJ          0.716209      -0.0733071      -0.0733071
LJ           1.54612       -0.966495       -0.110235
LJ          -3.59255         1.20031        -1.08655
LJ          -2.27668         2.51547        -1.08651
LJ          -2.96566         1.88871        0.636394
LJ          -2.29693         1.21947       -0.339962
LJ          -1.00371        0.716349        -1.00371
LJ         -0.110235         1.54612       -0.966495
LJ         -0.966495         1.54612       -0.110235
LJ        -0.0733071        0.716209      -0.0733071
LJ            1.2196          1.2196       -0.737416
LJ           1.88896         1.88896        -1.71369
LJ           1.19991         2.51585       0.0092537
LJ           2.51585         1.19991       0.0092537
LJ          -2.78324        -2.78324        0.698297
LJ          -2.05734        -2.05734        0.978542
LJ          -2.78214        -1.77558         1.70508
LJ          -1.77558        -2.78214         1.70508
LJ          -1.08655        -3.59255         1.20031
LJ         -0.339962        -2.29693         1.21947
LJ          -1.08651        -2.27668         2.51547
LJ          0.636394        -2.96566         1.88871
LJ          0.898669        -3.38763        0.898669
LJ            2.3105        -1.97524        0.898401
LJ          0.898401        -1.97524          2.3105
LJ           0.45643         -1.5337         0.45643
LJ          -3.59255        -1.08655         1.20031
LJ          -2.29693       -0.339962         1.21947
LJ          -2.96566        0.636394         1.88871
LJ          -2.27668        -1.08651         2.51547
LJ          -1.00371        -1.00371        0.716349
LJ        -0.0733071      -0.0733071        0.716209
LJ         -0.966495       -0.110235         1.54612
LJ         -0.110235       -0.966495         1.54612
LJ            1.2196       -0.737416          1.2196
LJ           2.51585       0.0092537         1.19991
LJ           1.19991       0.0092537         2.51585
LJ           1.88896        -1.71369         1.88896
LJ          -3.38763        0.898669        0.898669
LJ          -1.97524          2.3105        0.898401
LJ           -1.5337         0.45643         0.45643
LJ          -1.97524        0.898401          2.3105
LJ         -0.737416          1.2196          1.2196
LJ         0.0092537         2.51585         1.19991
LJ          -1.71369         1.88896         1.88896
LJ         0.0092537         1.19991         2.51585
LJ          0.979726        0.979726        0.979726
LJ           1.70548         1.70548        0.698339
LJ          0.698339         1.70548         1.70548
LJ           1.70548        0.698339         1.70548
