108
#Comment!
LJ           2.48341        0.208494         1.04381
LJ           3.32033        0.336623        -2.31089
LJ         -0.854918        -2.40652        0.492572
LJ          -2.40579        0.473463       -0.624769
LJ           1.27012       -0.457519         3.19794
LJ           1.01314        0.670856        -1.77446
LJ           1.68138        0.796135        -0.71136
LJ           1.19664       -0.531529        -2.43958
LJ           1.41118       -0.883123         2.26434
LJ           0.41307        -1.44662         2.08442
LJ           0.32511         2.41624          2.2528
LJ           1.13167         1.35358         2.20299
LJ          -1.51997       -0.947857         -1.2988
LJ           3.64588        0.101026        0.132353
LJ          -1.63917       -0.602895         1.10374
LJ          -1.22722       -0.490363         2.24722
LJ          -1.15058         -2.1473         -3.2699
LJ          0.123698        0.170683        0.120474
LJ          0.453334         3.56696         3.33162
LJ         -0.317609       -0.866058       -0.985839
LJ           -0.3893        -1.11082         3.66125
LJ          0.596952         1.52976        -1.14063
LJ           3.11813        0.276757        -1.25003
LJ          -5.45389         1.25479        -4.91537
LJ           4.45414         3.83568         5.31382
LJ          -1.21305         1.70918       -0.261463
LJ          -2.99033        -3.77556        -1.88632
LJ          -4.37116        -5.98871       -0.959364
LJ           2.38676         1.82249         2.12289
LJ           -1.3261        -1.45157        0.545256
LJ          0.148446        -1.72191        0.993953
LJ          -5.99389         5.24587        -1.89397
LJ       -0.00831137        -3.28559       -0.280614
LJ           2.10828      -0.0163194        -1.89253
LJ         -0.833263         1.53185        0.890223
LJ           2.29244       -0.623688        -0.94275
LJ            0.9365        -2.34582        0.680574
LJ         -0.711423        -1.77915        -1.43192
LJ          -0.78365       -0.374922        0.479042
LJ            1.5402       -0.230752       -0.334922
LJ           1.61659          1.6848        0.379639
LJ         0.0735734       -0.535896          2.6263
LJ         -0.981637       -0.308592        -1.98935
LJ          -1.74635       -0.350518       -0.374522
LJ           1.47216       -0.435924          1.2472
LJ          -2.68587        -4.41085         6.15954
LJ           2.43907       -0.642409         1.81165
LJ           1.27462        0.572536        0.676749
LJ          -1.93187      -0.0248756        -1.38695
LJ         -0.367193        0.192342         1.44734
LJ          0.309159         1.49791         3.30366
LJ         -0.307201         2.00243        -1.77733
LJ          -6.19759        -3.78042        -1.21747
LJ        -0.0795045         2.00034        0.246779
LJ           1.60976        0.596578         1.62128
LJ           3.48992        0.822002         1.02687
LJ          0.648109        0.540309        -0.83232
LJ          0.700699        -1.64422        -1.44677
LJ          0.617337        -1.33815         3.07257
LJ            2.3801        0.498272        0.042663
LJ          0.814664         1.22983      -0.0584538
LJ           1.01776         4.30036        -4.09938
LJ        -0.0116374         -3.0462         1.95173
LJ          -1.70643       -0.611252        -2.62158
LJ          0.354907         1.00149        0.973326
LJ          0.238864       -0.506794        -1.92258
LJ           2.17895       -0.907392         3.11925
LJ           2.50617         1.22675        0.817439
LJ          -1.82213        -3.46869        -3.10219
LJ           0.22834        0.698572         2.27088
LJ          -2.39619        0.506309         6.35915
LJ            3.4237        0.616514         2.16309
LJ          0.413333        -0.35167         1.72877
LJ          0.938235         1.88855         1.28719
LJ          -1.58186        0.449714         1.57215
LJ           1.33434        0.874115         3.67013
LJ         -0.275701        -1.72071       -0.168269
LJ          -0.24223         1.06344       -0.391894
LJ          0.374112         2.32211         4.43893
LJ           1.37622        -1.48295         1.45304
LJ           1.14704       -0.559969        -1.23851
LJ          0.615674       -0.861386       -0.371125
LJ           2.14507        0.172214         2.57792
LJ          0.322819       -0.804558         0.62861
LJ           1.45568         2.42185         2.15571
LJ          -1.72197        0.558305        0.327526
LJ          -1.15795        -1.70143         1.60188
LJ        -0.0840285        0.561916        -1.71075
LJ           1.10921        0.430015          2.7179
LJ         -0.472598       -0.921616         1.41618
LJ          -0.87385         1.49973         2.00288
LJ          0.843867         2.43571         3.37697
LJ         0.0666261        0.282154         3.26997
LJ          -1.25057        -1.43955        -2.35548
LJ          -1.29747        -2.16276       -0.688999
LJ           2.85249       -0.583354        -2.61104
LJ         -0.683749        0.167386        -0.92283
LJ           0.42514         2.54806         -0.8049
LJ           2.00632       -0.563364        0.425238
LJ           5.00093        0.832496         -5.5406
LJ            1.9176         4.49851       -0.325463
LJ          -1.00477         1.08528        -1.35122
LJ           1.84634         4.29942         1.02836
LJ          -3.02367        -1.42391        -5.43968
LJ           2.61752         1.29139        -1.81025
LJ          0.325822        -4.14472        -1.54938
LJ           2.42515        -3.69565        -1.69146
LJ           4.40536        -5.51908        0.565023
