108
#Comment!
LJ        -0.0152563        -1.70406      -0.0135325
LJ           6.24826         3.14506        -5.02015
LJ          -1.38024         2.70575       -0.256089
LJ          0.534664       -0.740872         -3.8931
LJ          0.904113        -1.95741        -0.70124
LJ          0.523228         1.82802         -1.1788
LJ           1.43905        -1.78732        0.477595
LJ           1.44186        -1.69429         1.89153
LJ           2.20014        -2.59184        0.304276
LJ           1.68613        0.431653        -1.27571
LJ        -0.0121062         2.07635      -0.0319498
LJ            1.5533       -0.097656         1.14708
LJ         -0.161779       -0.498149        -2.01789
LJ           1.92785       -0.643602        -1.65662
LJ           -0.8642         1.07597          1.6006
LJ          -0.86613          3.7652         1.54763
LJ          -1.05385        0.793864        -1.85473
LJ         -0.313417       -0.740696        0.470837
LJ          0.248268         2.52596         1.22973
LJ       -0.00710536       -0.963886       -0.882514
LJ          0.796368        -2.03349        -1.87118
LJ          0.704457       -0.975779      -0.0311657
LJ          -1.10608         1.26455        -2.77666
LJ          0.551532         5.94754        -4.74517
LJ           6.38131        -3.16322        -2.04024
LJ        -0.0526463         2.67648         -1.7013
LJ          -2.09433         2.52499        -1.22584
LJ           6.28607         2.45221         -1.0703
LJ           1.98654         3.33269        0.541912
LJ           3.07868        -6.17202        -2.93089
LJ          -1.59717         1.18774         2.31112
LJ          0.863828       0.0595159        -1.91743
LJ          0.132794        0.820376        -2.20131
LJ          0.923866        -1.10633         -1.3098
LJ         -0.357685        0.342405        0.816126
LJ         -0.122626        0.279237        -1.32136
LJ           -1.2814        -1.79076       -0.877682
LJ          -2.06915        0.341485        -1.82321
LJ         -0.883185         1.16847        0.424327
LJ           1.81014       -0.693175         0.33568
LJ         -0.474294        -1.71378         1.10321
LJ         -0.637725         -2.6898         1.89965
LJ          -2.06481         -1.1891       -0.606318
LJ          -1.17599        -0.85083         1.20494
LJ          0.355802        -1.85693         1.59798
LJ           6.12095          2.8897        0.675656
LJ          0.701996        -2.91532       -0.198102
LJ           2.46697        -1.52435        0.718097
LJ          -1.00805       -0.745711       -0.417817
LJ         -0.899977          2.0598        -1.19018
LJ        -0.0671679       -0.785719          1.4432
LJ          -1.25539        0.675396        -0.83715
LJ         -0.133064        -1.98519        -1.05431
LJ         -0.322817         1.26286       -0.751587
LJ          0.871572         1.05478        0.683681
LJ           1.95027        0.229463        -0.21603
LJ           1.67662       -0.887543       -0.670232
LJ          0.673569       -0.173176       -0.803168
LJ           1.79008        -1.63557        -2.14671
LJ           2.67248     -0.00514411        -1.07488
LJ          -1.26385       -0.378469        -1.47408
LJ          -4.32667         1.79492       -0.607636
LJ          -1.74663         1.45218         1.10496
LJ          -2.74102       -0.602478        -1.70907
LJ         -0.252054         1.70147         2.41291
LJ         -0.319763        0.151005       -0.277932
LJ         -0.326176        0.286073         1.99185
LJ           1.14022         2.51449        0.454779
LJ            2.4893        -6.36641        -4.26201
LJ          0.700622         0.49077          1.5597
LJ          -3.22103        -4.87077         5.40751
LJ          -4.68045         3.52408          5.7856
LJ          0.891766        -1.15162        0.963311
LJ          0.984107         1.54236       -0.285138
LJ          -2.40023        0.320567          2.2617
LJ         -0.318403        0.786046         3.13118
LJ          -1.58079        -2.19828         1.66783
LJ          -1.19922        -1.59849        0.286118
LJ           1.69548        0.164559         6.00417
LJ            5.2575        -1.40089         2.46514
LJ          0.633329       0.0304447         0.56595
LJ           2.72964       -0.821187      -0.0468499
LJ         -0.412766        -1.50346          2.3282
LJ           1.09327       -0.688169         1.93324
LJ          -2.65606         1.81417         2.04645
LJ          -1.62247        0.289601         1.53524
LJ           1.71598       -0.480281          2.8207
LJ          0.499952         4.33217        0.780294
LJ          0.099993       -0.439992         2.53354
LJ         -0.994472        -0.39934         2.65393
LJ           -1.0052         2.43532        0.866126
LJ          0.760666        0.421326         2.64363
LJ          0.209524        -2.55014         2.43885
LJ          -4.52859        -2.03943         5.35674
LJ           6.03792        -3.90046       -0.985391
LJ          -6.37125         3.79427         -2.5967
LJ          -1.22145       -0.174032        0.406728
LJ        -0.0191203         1.56674        0.946649
LJ          0.926684         3.18131         1.59559
LJ           2.93589        -2.25032        -2.27735
LJ           4.70747         3.23317        -3.28257
LJ          -3.42677         0.23339        -1.53084
LJ         -0.277688         6.35092        -4.16639
LJ           6.00821           3.813         2.27968
LJ             1.944         1.18583       -0.549767
LJ          -1.94333       -0.102961       -0.649402
LJ          -4.15525        -2.37006        -2.04042
LJ           2.64059        -5.26445        -1.85594
