108
#Comment!
LJ          -2.04677        -2.04677        -2.04677
LJ           -1.4359         -1.4359        -2.64095
LJ          -2.64095         -1.4359         -1.4359
LJ           -1.4359        -2.64095         -1.4359
LJ         -0.890746        -2.49952        -2.49952
LJ         -0.767384        -3.22348        -4.06739
LJ         -0.799633        -1.68062        -1.68062
LJ         -0.767384        -4.06739        -3.22348
LJ         0.0603078        -2.11194        -2.11194
LJ           1.69128        -1.12941        -2.63728
LJ           2.61713        -4.64573        -4.64573
LJ           1.69128        -2.63728        -1.12941
LJ          -2.49952       -0.890746        -2.49952
LJ          -3.22348       -0.767384        -4.06739
LJ          -4.06739       -0.767384        -3.22348
LJ          -1.68062       -0.799633        -1.68062
LJ          -0.61186        -0.61186        -1.70488
LJ         0.0401157       0.0401157        -1.35794
LJ          -1.40772       -0.402747        -2.76453
LJ         -0.402747        -1.40772        -2.76453
LJ           2.10063       -0.319846        -4.01071
LJ           1.59434        0.861878        -2.88383
LJ          0.502428        -1.16278         -1.9103
LJ           2.92008       -0.246557        -3.19347
LJ          -2.11194       0.0603078        -2.11194
LJ          -1.12941         1.69128        -2.63728
LJ          -2.63728         1.69128        -1.12941
LJ          -4.64573         2.61713        -4.64573
LJ         -0.319846         2.10063        -4.01071
LJ          0.861878         1.59434        -2.88383
LJ         -0.246557         2.92008        -3.19347
LJ          -1.16278        0.502428         -1.9103
LJ         -0.228101       -0.228101        -2.52948
LJ          0.598988        0.598988         -2.2002
LJ          0.646056         1.99164       -0.897761
LJ           1.99164        0.646056       -0.897761
LJ          -2.49952        -2.49952       -0.890746
LJ          -1.68062        -1.68062       -0.799633
LJ          -4.06739        -3.22348       -0.767384
LJ          -3.22348        -4.06739       -0.767384
LJ          -0.61186        -1.70488        -0.61186
LJ         -0.402747        -2.76453        -1.40772
LJ          -1.40772        -2.76453       -0.402747
LJ         0.0401157        -1.35794       0.0401157
LJ           2.10063        -4.01071       -0.319846
LJ           2.92008        -3.19347       -0.246557
LJ          0.502428         -1.9103        -1.16278
LJ           1.59434        -2.88383        0.861878
LJ          -1.70488        -0.61186        -0.61186
LJ          -2.76453       -0.402747        -1.40772
LJ          -1.35794       0.0401157       0.0401157
LJ          -2.76453        -1.40772       -0.402747
LJ         -0.381719       -0.381719       -0.381719
LJ          0.367067        0.367067       -0.473151
LJ         -0.473152        0.367067        0.367067
LJ          0.367067       -0.473152        0.367067
LJ          0.680445       -0.809569       -0.809569
LJ           1.19695      -0.0279603        -1.51168
LJ           1.36228      -0.0396734      -0.0396734
LJ           1.19695        -1.51168      -0.0279603
LJ          -4.01071         2.10063       -0.319846
LJ          -3.19347         2.92008       -0.246557
LJ          -2.88383         1.59434        0.861878
LJ           -1.9103        0.502428        -1.16278
LJ         -0.809569        0.680445       -0.809569
LJ        -0.0279603         1.19695        -1.51168
LJ          -1.51168         1.19695      -0.0279603
LJ        -0.0396734         1.36228      -0.0396734
LJ           1.02004         1.02004       0.0767652
LJ            1.0377          1.0377        -1.25177
LJ            1.9261          2.8037       -0.652568
LJ            2.8037          1.9261       -0.652568
LJ          -2.11194        -2.11194       0.0603078
LJ          -4.64573        -4.64573         2.61713
LJ          -2.63728        -1.12941         1.69128
LJ          -1.12941        -2.63728         1.69128
LJ         -0.319846        -4.01071         2.10063
LJ          -1.16278         -1.9103        0.502428
LJ         -0.246557        -3.19347         2.92008
LJ          0.861878        -2.88383         1.59434
LJ         -0.228101        -2.52948       -0.228101
LJ           1.99164       -0.897761        0.646056
LJ          0.646056       -0.897761         1.99164
LJ          0.598988         -2.2002        0.598988
LJ          -4.01071       -0.319846         2.10063
LJ           -1.9103        -1.16278        0.502428
LJ          -2.88383        0.861878         1.59434
LJ          -3.19347       -0.246557         2.92008
LJ         -0.809569       -0.809569        0.680445
LJ        -0.0396734      -0.0396734         1.36228
LJ          -1.51168      -0.0279603         1.19695
LJ        -0.0279603        -1.51168         1.19695
LJ           1.02004       0.0767652         1.02004
LJ            2.8037       -0.652568          1.9261
LJ            1.9261       -0.652568          2.8037
LJ            1.0377        -1.25177          1.0377
LJ          -2.52948       -0.228101       -0.228101
LJ         -0.897761         1.99164        0.646056
LJ           -2.2002        0.598988        0.598988
LJ         -0.897761        0.646056         1.99164
LJ         0.0767652         1.02004         1.02004
LJ         -0.652568          2.8037          1.9261
LJ          -1.25177          1.0377          1.0377
LJ         -0.652568          1.9261          2.8037
LJ           1.03574         1.03574         1.03574
LJ           2.04537         2.04537        0.146757
LJ          0.146757         2.04537         2.04537
LJ           2.04537        0.146757         2.04537
