108
#Comment!
LJ           4.05804       -0.865233         1.69961
LJ         -0.566086         3.26353       -0.676792
LJ           0.37342        -1.96969         1.28441
LJ         -0.737764         1.62521        -1.87099
LJ          0.625939        0.908116         3.31347
LJ           0.26394        -2.34989        -1.17846
LJ       -0.00849531        0.472983       -0.945328
LJ          0.959277        -1.62929        -1.43798
LJ           1.49682        -1.49949         2.68873
LJ          0.364278       -0.897432         1.68994
LJ         -0.175548         1.94083         3.39718
LJ          0.319582         0.87332         1.39455
LJ         -0.258411       -0.391391       -0.194989
LJ           2.13938          3.8388       -0.481365
LJ          0.122967        -2.66698       -0.220788
LJ         -0.807296          -1.444        0.149037
LJ          -5.98515         -1.3008        -4.88166
LJ           0.62818         1.14758        0.324446
LJ        -0.0323155         4.56087        -5.89018
LJ          0.369286       -0.597646        -1.40728
LJ          -1.21701        0.246327         4.60654
LJ           1.08015         1.53657        -1.88082
LJ            3.4914        0.491374       -0.405472
LJ          -3.55979        -1.47077        -1.92197
LJ           1.41049        -2.23158         5.53621
LJ          0.178801         1.99722        -1.32577
LJ         -0.724715       -0.442926        -1.26186
LJ          0.216112         6.12571        -1.51091
LJ           1.80277         2.18644         1.75415
LJ          0.271549        -1.77142        0.272584
LJ          0.719045        -1.59243         3.78495
LJ           4.40689         2.15929         5.73711
LJ          0.290761        -3.32744        -1.13434
LJ           1.02098       -0.308628        -2.41249
LJ          0.140776         1.95914        0.907834
LJ           2.48991        0.645911       -0.918451
LJ           1.79338        -1.21043       -0.693898
LJ           1.21336        -3.26272        -1.63523
LJ          0.809766       -0.121278        0.661065
LJ           1.37574        0.562254        -1.63991
LJ          0.876917         1.90287       -0.511868
LJ         -0.758919       -0.890077          1.6586
LJ         0.0093127        -2.85735        -2.25265
LJ         -0.362256        0.388979        0.550705
LJ           2.66757        -1.26546         2.84542
LJ          -6.31025        -4.63608        -4.49403
LJ           3.16986       -0.354367         2.12868
LJ           3.21146        -1.46348         1.70756
LJ          0.839091        -1.70267        -2.63936
LJ          -1.77173         1.32537         2.03114
LJ           1.20819        0.875085         2.15956
LJ        -0.0723463         2.08995        -2.98614
LJ           2.69652        -5.40074        -2.37493
LJ         -0.728244         1.87055         1.84763
LJ           2.33482       -0.394007         1.13339
LJ           2.78105       -0.255283       0.0833424
LJ           1.91578      -0.0444723       -0.222032
LJ           1.11898        -2.21569       -0.503381
LJ          0.506632       -0.942105         2.88089
LJ            3.7844       -0.468576        0.390369
LJ           1.33345        0.683288       -0.648659
LJ          -3.73564         5.52122        -4.67922
LJ           2.03175       -0.692098         2.13931
LJ         -0.500989         2.70304        -1.88895
LJ            2.5517        0.841359        0.137633
LJ          0.821798         -0.2166       -0.488142
LJ          0.365411        -2.05642         2.72162
LJ           1.89956         1.52297        -1.04667
LJ          0.889207         3.59896        -2.75156
LJ          0.293739         1.43436          2.3711
LJ          0.441429          1.2179        -6.30909
LJ           2.09685         1.81575         2.80107
LJ        -0.0134828       -0.837581        0.738665
LJ           1.76538          1.4749       -0.016551
LJ         -0.984976       -0.395504        0.593839
LJ           1.30217      -0.0818849         1.58414
LJ           1.53934       -0.773762        0.385291
LJ         -0.144359         1.26801        -0.37033
LJ           1.39366       -0.980457         4.30109
LJ           1.39298        -1.45584         1.65111
LJ           1.51061       -0.398427         -1.2141
LJ           0.64629        -1.25197       -0.557742
LJ           1.80834        0.489427        0.888381
LJ           2.37138        -1.89082         1.19163
LJ          0.922091         1.67841         1.43823
LJ          -1.37836        0.641627        0.560101
LJ          -1.03149        -2.72388         1.40132
LJ          0.188773        0.872661        -1.91505
LJ          0.404841        0.257546         2.31077
LJ         -0.383921        -1.86958         2.00554
LJ          0.169367         2.46402       -0.225963
LJ         -0.899827          1.7016        0.146536
LJ         -0.426372        0.912369         3.54118
LJ         -0.262599        -1.56125        -1.97105
LJ         -0.344215        -1.47127       -0.897042
LJ          0.892667         1.72303        -3.09717
LJ          -1.27165        0.606705       -0.585419
LJ          0.127942         2.75143         2.68909
LJ         0.0401441        -5.19256         3.06098
LJ           5.75067         2.58837        -5.86442
LJ         -0.268789         4.43059       0.0609083
LJ         -0.140778       -0.182353        -2.27838
LJ           1.22008         2.55482        -1.44062
LJ           -4.9259       -0.291683        -3.81117
LJ           1.14139         3.15352       -0.545537
LJ         -0.565275        -3.69511        0.478512
LJ           1.38951         -1.9749        0.407149
LJ         -0.731424        -3.20305         2.75321
