108
#Comment!
LJ           2.75205        0.103383         1.32652
LJ            3.1057        -1.14853        -2.38557
LJ         -0.939323         -2.4454         0.25986
LJ          -2.22359           1.143        -0.77129
LJ            1.5465       -0.355563         3.17504
LJ           1.76227        0.824293        -1.63397
LJ            1.7883         1.57503        -0.36049
LJ           1.33798        0.199809        -2.47021
LJ           1.31267       -0.758552         1.96903
LJ          0.564125        -1.73151         1.76142
LJ         -0.689334         2.48022         3.15509
LJ            1.4212         1.61103         2.67705
LJ          -1.35322        -1.08628       -0.983511
LJ           3.42235       -0.484149      -0.0830539
LJ          -1.31934       -0.343569         1.75335
LJ         -0.728311        0.476279         2.36239
LJ         -0.647625        -2.79287        -2.56088
LJ         -0.384161        0.726889        0.171035
LJ          0.687572         2.51814         2.81955
LJ         -0.103904       -0.493649        -1.51554
LJ        -0.0328328        -1.71756         2.67987
LJ          0.733861         1.49291        -1.17091
LJ           3.01595        -0.76797        -1.33574
LJ          -5.70494         1.77835        -5.68487
LJ           5.05853         2.46236         5.26517
LJ          -1.26808         1.48296       0.0627367
LJ          -2.89311        -4.74794        -1.44151
LJ          -2.71417        -5.69883       -0.905572
LJ           2.20331         2.26335         2.16494
LJ          -1.98704       -0.872394        0.704204
LJ         -0.187913        -1.47768         0.87855
LJ           -5.4079         5.79888       -0.802789
LJ          0.289349        -2.11475         0.11788
LJ           2.03776         -0.4911        -2.00707
LJ          -1.72314         1.87429         1.19944
LJ           2.04413        -1.12663        -1.05916
LJ          0.275134        -2.64151         1.10264
LJ          0.475229        -2.09715        -1.29428
LJ         -0.986466       -0.729839         0.36189
LJ            1.2342        0.725453       -0.167544
LJ           1.68573         1.30205        0.754577
LJ          0.462946       -0.721202         2.59522
LJ         -0.997793       -0.692501        -2.04757
LJ           -1.9064       -0.473097        -0.28704
LJ           1.62759        0.129159         1.48237
LJ          -1.95971        -4.35881         5.70961
LJ           2.15529       -0.860568         1.21528
LJ           0.60151        0.806012        0.768877
LJ          -1.50887      -0.0624919        -1.28111
LJ         -0.529545      -0.0585975         1.10213
LJ          0.367505         1.64127         3.22591
LJ         -0.753067         2.19735        -1.25942
LJ          -5.38709        -3.54033       -0.954153
LJ          -0.27203         2.33631       -0.218726
LJ           1.13913         1.15713         1.69763
LJ            3.7232        0.900531         1.71321
LJ          0.177647        0.249705       -0.643325
LJ          0.743709        -1.15932        -1.99777
LJ           1.12025        -1.68422          2.8925
LJ           1.98819        0.373347        0.519306
LJ          0.366258         1.58827        0.116346
LJ           1.97231         4.04968        -3.97167
LJ         -0.439108        -2.59165         2.18535
LJ          -2.27126      -0.0470334        -2.31694
LJ            -0.515         1.39786         1.10396
LJ          0.165057       -0.126367        -2.50208
LJ           2.10291        -1.12154         2.83101
LJ           2.19275         1.08091         1.69054
LJ          -2.66487        -2.07978        -3.64531
LJ        -0.0265144        0.791093          1.7261
LJ          -2.90808        0.386622         6.37166
LJ           3.56598       -0.391333         1.77609
LJ          0.574685      -0.0679285         1.53621
LJ           0.38564         1.83372         1.17965
LJ          -1.28011        0.693347         1.40563
LJ           1.25429         1.09865         3.72163
LJ         -0.646534        -1.53071       -0.271199
LJ         -0.275306         1.18875       -0.808766
LJ         -0.131517         2.70098         4.09112
LJ          0.977279         -1.0242        0.514656
LJ          0.971859       0.0928942        -1.40912
LJ           1.14781       -0.764964       -0.723026
LJ           2.30829      0.00449936         2.25321
LJ          0.112549       -0.297554        0.348184
LJ           1.26009         2.29902         1.61057
LJ          -1.70004        0.332019        0.404877
LJ          -1.14616        -1.81673         1.25754
LJ         -0.597112        0.485321        -1.51845
LJ           1.15203        0.530057         2.57198
LJ         -0.365752       -0.986809          1.9281
LJ          -1.01951          1.7263         1.99652
LJ           1.44487         2.17075         3.74299
LJ          0.669048        0.119126          3.4886
LJ         -0.887711        -1.71673         -2.7983
LJ          -1.78222        -1.72366       0.0739467
LJ            2.6148        -1.75745        -1.56168
LJ         -0.776151       0.0162325       -0.410237
LJ           1.05067         2.42245       -0.429759
LJ           1.93965       -0.629042        0.190929
LJ           4.80211        0.567357        -5.48516
LJ           1.96716         3.97503       -0.109738
LJ          -1.27135         1.13687        -1.01717
LJ           2.36418         4.23624        0.931791
LJ          -3.05963         -1.5315         -5.9785
LJ           2.89611        0.815173        -2.02173
LJ          0.674614        -3.86856        -1.51059
LJ           4.02503        -5.06164        -2.65304
LJ           2.87046        -5.96227       0.0885859
