108
#Comment!
LJ          -1.84253        -1.84253        -1.84253
LJ          -1.03662        -1.03662        -2.94949
LJ          -2.94949        -1.03662        -1.03662
LJ          -1.03662        -2.94949        -1.03662
LJ          -1.69023         -2.8979         -2.8979
LJ          0.284006        -3.34397        -4.12461
LJ         -0.563329        -2.18802        -2.18802
LJ          0.284006        -4.12461        -3.34397
LJ           0.27509        -2.76257        -2.76257
LJ           1.70401        -1.37135        -2.77419
LJ            1.5788        -2.86653        -2.86653
LJ           1.70401        -2.77419        -1.37135
LJ           -2.8979        -1.69023         -2.8979
LJ          -3.34397        0.284006        -4.12461
LJ          -4.12461        0.284006        -3.34397
LJ          -2.18802       -0.563329        -2.18802
LJ          -1.00036        -1.00036        -1.86328
LJ        -0.0611058      -0.0611058        -1.77591
LJ          -1.33533       0.0634939        -2.43499
LJ         0.0634939        -1.33533        -2.43499
LJ           2.24936        -1.34947        -4.09638
LJ           1.89019        0.804803        -2.82045
LJ          0.801849       -0.630081        -2.03878
LJ           3.01453         -1.3321        -3.32893
LJ          -2.76257         0.27509        -2.76257
LJ          -1.37135         1.70401        -2.77419
LJ          -2.77419         1.70401        -1.37135
LJ          -2.86653          1.5788        -2.86653
LJ          -1.34947         2.24936        -4.09638
LJ          0.804803         1.89019        -2.82045
LJ           -1.3321         3.01453        -3.32893
LJ         -0.630081        0.801849        -2.03878
LJ          -0.22263        -0.22263        -3.09895
LJ          0.794632        0.794632        -2.10305
LJ          0.104887         2.16841        -1.11892
LJ           2.16841        0.104887        -1.11892
LJ           -2.8979         -2.8979        -1.69023
LJ          -2.18802        -2.18802       -0.563329
LJ          -4.12461        -3.34397        0.284006
LJ          -3.34397        -4.12461        0.284006
LJ          -1.00036        -1.86328        -1.00036
LJ         0.0634939        -2.43499        -1.33533
LJ          -1.33533        -2.43499       0.0634939
LJ        -0.0611058        -1.77591      -0.0611058
LJ           2.24936        -4.09638        -1.34947
LJ           3.01453        -3.32893         -1.3321
LJ          0.801849        -2.03878       -0.630081
LJ           1.89019        -2.82045        0.804803
LJ          -1.86328        -1.00036        -1.00036
LJ          -2.43499       0.0634939        -1.33533
LJ          -1.77591      -0.0611058      -0.0611058
LJ          -2.43499        -1.33533       0.0634939
LJ         -0.686783       -0.686783       -0.686783
LJ          0.185443        0.185443       -0.595412
LJ         -0.595412        0.185443        0.185443
LJ          0.185443       -0.595412        0.185443
LJ          0.480059        -0.85229        -0.85229
LJ           1.03588        0.156141        -1.22274
LJ           1.21269       -0.128102       -0.128102
LJ           1.03588        -1.22274        0.156141
LJ          -4.09638         2.24936        -1.34947
LJ          -3.32893         3.01453         -1.3321
LJ          -2.82045         1.89019        0.804803
LJ          -2.03878        0.801849       -0.630081
LJ          -0.85229        0.480059        -0.85229
LJ          0.156141         1.03588        -1.22274
LJ          -1.22274         1.03588        0.156141
LJ         -0.128102         1.21269       -0.128102
LJ           1.08471         1.08471       -0.247305
LJ           1.72484         1.72484        -1.82778
LJ           2.27036         3.02877        0.277319
LJ           3.02877         2.27036        0.277319
LJ          -2.76257        -2.76257         0.27509
LJ          -2.86653        -2.86653          1.5788
LJ          -2.77419        -1.37135         1.70401
LJ          -1.37135        -2.77419         1.70401
LJ          -1.34947        -4.09638         2.24936
LJ         -0.630081        -2.03878        0.801849
LJ           -1.3321        -3.32893         3.01453
LJ          0.804803        -2.82045         1.89019
LJ          -0.22263        -3.09895        -0.22263
LJ           2.16841        -1.11892        0.104887
LJ          0.104887        -1.11892         2.16841
LJ          0.794632        -2.10305        0.794632
LJ          -4.09638        -1.34947         2.24936
LJ          -2.03878       -0.630081        0.801849
LJ          -2.82045        0.804803         1.89019
LJ          -3.32893         -1.3321         3.01453
LJ          -0.85229        -0.85229        0.480059
LJ         -0.128102       -0.128102         1.21269
LJ          -1.22274        0.156141         1.03588
LJ          0.156141        -1.22274         1.03588
LJ           1.08471       -0.247305         1.08471
LJ           3.02877        0.277319         2.27036
LJ           2.27036        0.277319         3.02877
LJ           1.72484        -1.82778         1.72484
LJ          -3.09895        -0.22263        -0.22263
LJ          -1.11892         2.16841        0.104887
LJ          -2.10305        0.794632        0.794632
LJ          -1.11892        0.104887         2.16841
LJ         -0.247305         1.08471         1.08471
LJ          0.277319         3.02877         2.27036
LJ          -1.82778         1.72484         1.72484
LJ          0.277319         2.27036         3.02877
LJ           1.18463         1.18463         1.18463
LJ           1.71704         1.71704        0.298466
LJ          0.298466         1.71704         1.71704
LJ           1.71704        0.298466         1.71704
