108
#Comment!
LJ           3.01987       -0.151196         1.23893
LJ           2.98326         1.65184         -2.2633
LJ         -0.595309        -2.79028        0.516999
LJ          -2.56773          0.2436       -0.472998
LJ           0.38848       -0.033125          3.5207
LJ          0.943223       0.0271567        -2.14412
LJ           1.38438        0.524184        -1.40406
LJ           1.10567        -1.07711        -2.49681
LJ           1.28136       -0.704389         2.73938
LJ          0.364831        -1.18068         1.93142
LJ          0.194168         2.01165         1.93089
LJ           0.83571         1.11693          1.9211
LJ          -1.50745        -1.58598       -0.923591
LJ           3.78234        0.722478       -0.238365
LJ          -2.07472       -0.683524        0.378611
LJ           -1.3747       -0.823748         1.57655
LJ          -1.85639        -1.47455         -3.3884
LJ          0.994964      -0.0515081        0.510741
LJ          0.404752         3.82014         4.09976
LJ         -0.415486        -1.06356       -0.726732
LJ         0.0627369       -0.879656         4.41687
LJ          0.929311         2.01838       -0.803691
LJ           2.65258        0.913439       -0.655326
LJ          -5.23074        0.762098        -4.20132
LJ           3.88864         5.11499         5.35934
LJ         -0.682798         1.30018       -0.606863
LJ          -2.95242          -2.879        -2.35965
LJ          -5.91841        -6.19985        -1.04641
LJ           1.94782          1.0616         1.40767
LJ         -0.945706        -1.16926        0.239148
LJ         0.0723514        -1.98594         1.28204
LJ           6.39544         4.74135         -2.9062
LJ        -0.0858923        -4.25412       -0.239695
LJ           2.08062      -0.0656129        -2.03992
LJ        -0.0912127        0.674705        0.926019
LJ           2.43001       -0.477016         -1.0037
LJ           1.24613        -1.52257      -0.0232359
LJ         -0.180459        -1.79897        -1.40309
LJ         -0.557525        -0.12494        0.426114
LJ           1.58295       -0.222044       -0.342464
LJ           1.55009         2.21072       0.0423659
LJ        -0.0831217       -0.339862         2.59067
LJ         -0.808665        -0.62746        -1.68301
LJ          -1.40371       -0.395106       -0.426542
LJ           1.94863        -1.10162        0.723947
LJ          -3.36356        -4.45609          -6.345
LJ           2.39205       -0.651476         2.04586
LJ           1.99514        0.224955        0.594526
LJ           -2.2309     -0.00974349        -1.68638
LJ         -0.950904        0.128815         1.34366
LJ          0.848649         1.67094         3.06686
LJ         -0.340402         1.89874        -2.33721
LJ           5.97895        -4.01366        -1.46103
LJ          0.328177         1.65708        0.903345
LJ           1.42587       -0.165177         1.51828
LJ           3.32029        0.846482         1.21335
LJ          0.587757       0.0555487       -0.771997
LJ          0.789907        -1.31448        -1.01652
LJ          0.666932        -1.21778         3.42197
LJ           3.04983       -0.198445     -0.00356754
LJ            1.6366        0.914057       -0.149684
LJ           0.12638         4.53047        -4.21422
LJ          0.632284        -2.38809         2.17999
LJ           -1.8524       -0.404314        -3.02845
LJ           1.16265         1.00143        0.784506
LJ          0.238755        -0.57285        -1.53003
LJ           1.86437        -1.44027         3.31568
LJ            2.7009         1.40009        0.477559
LJ         -0.801889        -4.42194        -2.41165
LJ         -0.292859            1.14         2.19245
LJ          -1.92462        0.586484         6.36179
LJ           2.69984         1.37855         2.29803
LJ          0.348635      0.00453519         1.57982
LJ           1.41732         1.93515          1.2445
LJ          -1.99962       0.0747007         1.17776
LJ           1.28385        0.695745         3.35602
LJ          0.216892        -1.82834        0.117331
LJ          0.244716         0.97984       -0.269833
LJ          0.511924         1.97544         4.95305
LJ           1.44102        -2.07467         1.25737
LJ           1.25067       -0.517867        -1.36806
LJ          0.448765       -0.828347       -0.135544
LJ           1.82691        0.648631         2.45708
LJ          0.731691       -0.971114         1.01258
LJ           1.69283         1.71078         2.37736
LJ          -1.36919        0.857219        0.078815
LJ           -1.1312        -1.70822         1.18002
LJ          0.181018        0.623572        -1.57317
LJ          0.921009        0.164574         2.53737
LJ          -0.28201        -0.81654         1.17159
LJ         -0.888652         1.36479        0.953067
LJ          0.503908         3.01945         2.55681
LJ         -0.112375         1.23022         3.30077
LJ           -1.3506        -1.94166        -1.99492
LJ         -0.645286         -2.1126       -0.398206
LJ           2.10567          1.0891        -2.59009
LJ         -0.512431       0.0772949       -0.727014
LJ          0.242681         2.53372       -0.255766
LJ           2.64419        -1.96213        0.594779
LJ           5.19855         1.08343        -5.58782
LJ           1.93256         4.97433       -0.124352
LJ          -1.04907        0.627259        -1.36274
LJ           1.23209         4.17108        0.757095
LJ          -2.96937        -1.29713        -4.93353
LJ           1.72194         1.90019        -1.43807
LJ        -0.0476355        -4.16388        -1.58834
LJ          0.764317        -2.30959       -0.671685
LJ           5.83833        -5.10434         1.00402
