108
#Comment!
LJ          -1.65032        -1.68063         -1.4442
LJ          -2.51761        -2.49317        -4.82463
LJ          -4.75053        -2.38126        -2.42017
LJ          -2.48444        -4.86002        -2.50491
LJ          0.221416        -3.47114         -2.3824
LJ          0.686822       -0.614651         -3.1284
LJ          0.735322        -1.12578        -1.23143
LJ          0.960802        -2.63646       -0.332565
LJ          0.524757        -2.20693        -2.43192
LJ           1.65317        0.394426       -0.488233
LJ           5.52664         4.46373         4.49732
LJ           1.23278        -1.08319        0.831338
LJ          -1.63205       -0.776518         -2.6437
LJ         -0.137184         1.55801        -2.65748
LJ          -2.65726        0.806376       -0.205903
LJ          -1.16378        0.981005        -1.26059
LJ         -0.832717       -0.437451        -1.99832
LJ        -0.0546658      0.00546272        -0.27291
LJ          -1.27974        0.123406        -2.70548
LJ         -0.171176        -1.38924        -1.65656
LJ           1.95916        -1.69703        -2.84584
LJ           1.13725         -1.2552         -2.2028
LJ       -0.00552744       -0.479694        -1.36938
LJ          -6.29479        -4.34798        -5.35938
LJ          -2.15676         1.64743        -2.73687
LJ          0.702095         1.61583       -0.865371
LJ         -0.282919         1.99051        0.493032
LJ           4.60507         5.79238         4.64073
LJ          -1.19817         1.04327        -3.28282
LJ          -1.10539         1.59115        -2.19066
LJ          -4.34824        -6.29549        -5.35813
LJ         -0.416622        0.571462        -2.06389
LJ          0.139843        0.319497        -3.07733
LJ          0.694259         1.17496        -1.92962
LJ         -0.337116         1.52421         -1.4116
LJ            1.3918        0.416829        -2.62874
LJ          -2.07261        -2.97463       -0.387264
LJ          -1.32431        -1.08026        0.723447
LJ          -2.16135       -0.629061         1.13746
LJ         -0.224885        -3.18459         1.28579
LJ         -0.912636        -2.01606       -0.729098
LJ           0.36911        -2.09096        -1.02755
LJ          -1.02034        -3.11525        0.332212
LJ          0.275547       -0.750658        0.445763
LJ           1.12794         -2.9465        -1.50879
LJ          -6.29528        -5.35922        -4.34906
LJ         -0.232869        -1.16051       -0.528344
LJ           1.56688         -1.6201       -0.754263
LJ           -2.5046       -0.390252       -0.188966
LJ          -2.01789        0.716288        -1.90444
LJ         -0.691848       -0.295262        0.477157
LJ          -1.64873        -2.03765        0.272277
LJ         -0.975429       -0.204827       -0.940148
LJ          0.749458        0.825281       -0.189379
LJ         0.0689364        0.467555         0.61334
LJ            1.0548       0.0914355        0.537103
LJ          0.985389       -0.559484       -0.310221
LJ          0.881683        0.347745        -1.32378
LJ           1.92573     -0.00885628        -1.82906
LJ          0.699722         -1.6385      -0.0139852
LJ          -3.53734         1.61272       -0.827171
LJ          -5.35864        -6.29527        -4.34785
LJ          -1.80311         1.85745        -1.44785
LJ          -2.11645        -0.17495        -1.21223
LJ         -0.202548         1.30675       -0.301178
LJ         -0.168708        0.571017        -1.08919
LJ          -1.22949        0.558272       -0.283458
LJ          -1.02521         1.90822       -0.539833
LJ           3.81691         3.92292         1.25048
LJ           4.42099         4.42401         2.80967
LJ          -2.06841         3.60527         6.06683
LJ           3.60469        -2.06842         6.06657
LJ          -2.15723        -2.99083         0.99386
LJ           4.54736         4.55006         5.60042
LJ         -0.191534        0.957207         1.52658
LJ          0.606094       -0.307838         1.42689
LJ          -1.21042        -3.14972         1.61451
LJ         -0.371529        -1.75479        0.513123
LJ          -4.34894        -5.35855        -6.29542
LJ          -1.19925        -2.21995          1.1997
LJ         -0.172607        -2.62907       -0.151782
LJ           1.50349        -2.21685        0.586231
LJ        -0.0860415        -2.17155          1.8601
LJ           0.39597        -2.35557          0.8228
LJ          -3.09976        -1.11165          1.3565
LJ          -1.56322        -1.02669       -0.475951
LJ          -2.13524        -1.74972         1.34011
LJ          -5.35915        -4.34776        -6.29511
LJ         -0.578283        -0.15125         1.59604
LJ          -1.29165        -1.09338         1.79266
LJ           -1.2149        0.651811         1.20763
LJ         -0.246494        -1.13154         1.36026
LJ           3.58904        0.975318         3.69809
LJ           3.60618         6.06484        -2.06881
LJ          -2.06878         6.06603         3.60536
LJ            4.4785         2.80012          4.4779
LJ          -1.76898       0.0937527        0.463461
LJ          -2.07578         1.72863       -0.267309
LJ          -1.62395         1.58024         1.21319
LJ           -2.7943        0.322432         1.24979
LJ           1.51004         3.92081         3.89584
LJ           6.07168         3.60216         -2.0693
LJ           2.80334         4.42666         4.42573
LJ           6.06751        -2.06864         3.60522
LJ           3.77782         3.83886         3.75678
LJ           4.11096          4.0722        0.298042
LJ          0.250467         4.12842         4.15301
LJ            4.2004        0.264101         4.05876
