108
#Comment!
LJ          -2.97979        -2.97979        -2.97979
LJ          -1.00564        -1.00564        -3.28505
LJ          -3.28505        -1.00565        -1.00564
LJ          -1.00564        -3.28505        -1.00565
LJ          -1.18241        -2.14036        -2.14036
LJ          0.108759        -1.52635        -3.62749
LJ         -0.499514        -1.51955        -1.51955
LJ          0.108761        -3.62749        -1.52635
LJ          0.539251        -1.81895        -1.81895
LJ            2.2866         0.13081        -1.44651
LJ           2.64283         5.10553         5.10553
LJ           2.28659        -1.44652        0.130812
LJ          -2.14036        -1.18239        -2.14037
LJ          -1.52635        0.108757        -3.62749
LJ          -3.62749        0.108761        -1.52635
LJ          -1.51955       -0.499511        -1.51955
LJ         -0.645924       -0.645917        -2.13457
LJ        -0.0807343      -0.0807329         -1.5608
LJ          -1.65219       -0.382711        -2.62612
LJ         -0.382723         -1.6522        -2.62611
LJ           1.08381        0.134528        -2.91368
LJ           1.83263        -1.11397        -1.82472
LJ          0.388648       -0.943054        -2.18237
LJ           2.96343       -0.707877        -2.13683
LJ          -1.81895        0.539261        -1.81895
LJ          0.130811         2.28659        -1.44651
LJ          -1.44651          2.2866         0.13081
LJ           5.10553         2.64283         5.10553
LJ          0.134523         1.08381        -2.91368
LJ          -1.11398         1.83264        -1.82471
LJ         -0.707881         2.96344        -2.13684
LJ         -0.943052         0.38865        -2.18237
LJ        -0.0293257      -0.0293309        -2.74808
LJ          0.727059        0.727062        -2.00675
LJ          0.390241          2.0446        -2.41731
LJ            2.0446        0.390236        -2.41731
LJ          -2.14035        -2.14035         -1.1824
LJ          -1.51955        -1.51955        -0.49951
LJ          -3.62749        -1.52634        0.108757
LJ          -1.52635        -3.62749        0.108763
LJ         -0.645916        -2.13457       -0.645915
LJ         -0.382723        -2.62612        -1.65219
LJ          -1.65219        -2.62612       -0.382724
LJ        -0.0807246         -1.5608      -0.0807245
LJ           1.08381        -2.91368        0.134524
LJ           2.96345        -2.13685       -0.707882
LJ          0.388654        -2.18237       -0.943052
LJ           1.83264        -1.82472        -1.11396
LJ          -2.13458       -0.645924       -0.645928
LJ          -2.62612       -0.382717        -1.65219
LJ          -1.56081      -0.0807394      -0.0807421
LJ          -2.62612         -1.6522       -0.382714
LJ         -0.593572       -0.593573       -0.593572
LJ          0.373632        0.373664       -0.524989
LJ          -0.52499        0.373653        0.373642
LJ          0.373647       -0.524999         0.37366
LJ          0.491959       -0.679293       -0.679295
LJ           1.09063       -0.292938        -1.64632
LJ           1.66695       -0.821839       -0.821837
LJ           1.09063        -1.64632       -0.292936
LJ          -2.91368         1.08381        0.134523
LJ          -2.13684         2.96344        -0.70788
LJ          -1.82471         1.83264        -1.11398
LJ          -2.18237        0.388648       -0.943053
LJ         -0.679312        0.491945       -0.679309
LJ         -0.292949         1.09062        -1.64632
LJ          -1.64632         1.09062       -0.292946
LJ         -0.821853         1.66696       -0.821853
LJ           1.29427         1.29428        0.513739
LJ           1.21451         1.21451       -0.576252
LJ           1.64876         2.42421        -2.76716
LJ           2.42421         1.64876        -2.76716
LJ          -1.81895        -1.81895        0.539253
LJ           5.10553         5.10553         2.64283
LJ          -1.44651        0.130809          2.2866
LJ          0.130812        -1.44652         2.28659
LJ          0.134519        -2.91368         1.08381
LJ         -0.943049        -2.18236        0.388651
LJ         -0.707885        -2.13685         2.96345
LJ          -1.11396        -1.82471         1.83264
LJ        -0.0293337        -2.74809      -0.0293344
LJ            2.0446        -2.41732        0.390234
LJ          0.390239        -2.41732          2.0446
LJ          0.727054        -2.00675        0.727057
LJ          -2.91368        0.134528         1.08381
LJ          -2.18236       -0.943051         0.38865
LJ          -1.82471        -1.11398         1.83263
LJ          -2.13683       -0.707877         2.96344
LJ         -0.679305       -0.679304        0.491952
LJ         -0.821844       -0.821846         1.66696
LJ          -1.64632       -0.292937         1.09063
LJ         -0.292945        -1.64632         1.09063
LJ           1.29427        0.513754         1.29427
LJ           2.42421        -2.76716         1.64876
LJ           1.64876        -2.76716         2.42421
LJ           1.21452       -0.576258         1.21451
LJ          -2.74808      -0.0293294      -0.0293243
LJ          -2.41731          2.0446        0.390231
LJ          -2.00676        0.727062        0.727059
LJ          -2.41731        0.390228          2.0446
LJ          0.513743         1.29429         1.29428
LJ          -2.76716         2.42421         1.64875
LJ         -0.576248          1.2145         1.21451
LJ          -2.76716         1.64876         2.42421
LJ           4.36082         4.36082         4.36082
LJ           2.04386         2.04386        -1.11486
LJ          -1.11487         2.04386         2.04386
LJ           2.04386        -1.11487         2.04386
