108
#Comment!
LJ           1.80902       -0.991092        0.979358
LJ           3.30724        -1.59491         2.41849
LJ          -1.60382       0.0295641          1.8757
LJ          -1.70317         3.40606         1.52861
LJ           2.89943        -1.94888       -0.195344
LJ           2.04279         1.50472        -1.98499
LJ            1.2078        0.169732          1.7577
LJ           2.32008        0.588522        -0.52014
LJ           1.83259        -1.56295       0.0638784
LJ           1.59403        -1.38507        -1.24701
LJ          -1.09909         2.74102         0.89023
LJ           1.96516         1.89385         2.36251
LJ         -0.635954        -2.04603        0.560075
LJ           1.97161       -0.704008        -0.48323
LJ          -1.25814        0.654125         3.12416
LJ         0.0480958         1.44912          1.6862
LJ          0.892365       -0.563882        -2.01023
LJ        -0.0661035        0.481215         0.30314
LJ         -0.919208         2.04354         2.29109
LJ         -0.729209       -0.686374       -0.398425
LJ          0.660563        -3.76642      -0.0454951
LJ           1.17128        0.348313      -0.0123169
LJ           1.61358        0.190503        -2.38374
LJ           5.23193         5.13783         1.71654
LJ          -2.81072         6.46024         5.56552
LJ          -1.68405         3.04269     -0.00721096
LJ          -3.45258          5.1205       -0.301881
LJ          -1.52862         5.94591         6.18053
LJ          0.710745         1.55268         2.45262
LJ          -4.56528         1.44119         2.29567
LJ         -0.678211        0.189056          1.1266
LJ          -1.24845        -3.20225        -6.27888
LJ         -0.238454       -0.555265        -1.86573
LJ          0.441272        -1.12574        -1.20362
LJ          -0.91101         2.18832        0.011676
LJ         0.0727464         -1.4413       -0.227004
LJ         -0.851615        -1.75427       -0.489082
LJ          0.300439        0.634464        -1.58611
LJ          -1.45393         1.13539         1.86929
LJ           1.83602         1.44926         0.25906
LJ           1.70154        0.513126        0.939672
LJ           1.67138        -3.37982         0.19879
LJ          -1.84001       -0.929449        0.120733
LJ          -0.87321       -0.833561        0.707884
LJ          0.281893       -0.548322         1.97681
LJ           3.00907        -3.77874         2.27662
LJ           1.00896        -2.07078       -0.374912
LJ           2.84783        0.142649        0.315618
LJ          -1.08047       0.0333953        0.137466
LJ          -2.04656         1.83315         1.14824
LJ           -1.7083       -0.407418         2.76751
LJ           -1.7614        0.680271       -0.600219
LJ         -0.889189         -2.8526         1.51646
LJ          -1.26581          1.9617        -1.02219
LJ          0.834208         1.08125        0.586439
LJ           2.69507         1.67323         1.10267
LJ           1.07498        -1.07847       -0.307185
LJ          -0.36909         0.37163       -0.686802
LJ           2.05542        -2.35098       -0.624805
LJ           3.45112       -0.352024        -1.22976
LJ         -0.594126         1.16984        -1.40114
LJ          -4.34875         2.24614        -3.01759
LJ          -1.83809       -0.183428        0.789378
LJ          -1.18428      0.00893215        -1.28066
LJ          0.188135         1.97905       -0.438398
LJ          0.221919         1.83975        -1.52595
LJ          0.435021       -0.270414           3.151
LJ           1.01654         2.13315        0.219089
LJ          -5.44659        -4.08966         4.79788
LJ         -0.515139         1.34496        0.777275
LJ          -5.07879        -2.76766         5.24175
LJ           1.53135       -0.321649         2.58553
LJ          0.909348       -0.301565         0.79553
LJ           0.17389         2.23942         0.98937
LJ          -1.99076         2.24083         2.32805
LJ          0.250463        0.664203         3.77175
LJ          0.612729        -1.42824        0.921069
LJ          0.192191       -0.426448      0.00663694
LJ           1.41739        -5.14359         6.07827
LJ           1.39598        -2.14918        0.940923
LJ           0.49305         1.03883       -0.383188
LJ          0.698622       -0.179621       -0.801111
LJ         -0.319085        -1.58603         1.39965
LJ          0.318499        0.378992         1.28813
LJ         -0.401963         1.07548         2.49418
LJ          -1.54844        0.844766        0.748953
LJ           0.63649        0.523908         2.48198
LJ           1.38515         2.30573        -1.92559
LJ         -0.592768        0.073103         2.17031
LJ          -0.42951        -1.02978         2.63307
LJ          -2.47295         2.89905        0.710943
LJ        -0.0775225         1.89505         3.19121
LJ           1.10459        -1.59534         1.96077
LJ           3.77938         4.49814        0.932188
LJ          -5.21299         5.56712         5.71186
LJ          -2.40986        -5.66532       -0.787706
LJ          -0.87422         1.21604       -0.291358
LJ           1.39099         1.58347       -0.765694
LJ           2.21198       -0.274885        -1.53939
LJ           3.55718        -1.15683        -5.20308
LJ           3.35755         2.94893         2.64893
LJ          -1.77665         1.69787      -0.0147906
LJ           5.53906        -1.13981         3.19077
LJ          -4.80653        0.133958          4.6682
LJ           1.46945        0.701841        -1.41225
LJ           0.40027        -2.15124        -1.30639
LJ          0.354591        -2.69656          4.5386
LJ          -1.94811         5.44764         2.92676
