108
#Comment!
LJ           1.56289       -0.759783          1.1141
LJ            2.8287        -1.55218         1.44412
LJ          -1.61578       -0.455269         2.68902
LJ          -3.20589         2.54872         1.80478
LJ           2.79369        -1.38972        0.367524
LJ           1.80153         1.12082         -1.5183
LJ           2.35534        0.270282         1.26694
LJ            2.5964       0.0592027       -0.992054
LJ            1.5655        -1.66643        0.580783
LJ           2.11136        -1.39151       -0.651811
LJ          -1.78446         3.52358         0.33507
LJ           1.19271        0.853696         2.52337
LJ         -0.447543        -2.03787       0.0321139
LJ           3.24913       -0.636907       -0.502111
LJ         -0.509554         1.15176         3.34224
LJ         -0.176059        0.875425         1.71844
LJ          0.697687        -1.45258         -2.2572
LJ          0.656197        0.813163         0.26575
LJ         -0.655314         1.76503         2.37128
LJ          -0.58137       -0.712078       -0.558094
LJ           1.26225        -3.80922        0.669191
LJ           1.32499         0.51387       -0.535928
LJ           1.74081       -0.387042        -1.78822
LJ           5.66983         4.41086         2.94548
LJ          -4.28919        -4.67465         5.42948
LJ          -1.83119         3.39346        -0.67798
LJ          -3.36106          5.8106       -0.570793
LJ         -0.874959        -6.20302         4.20465
LJ          0.381243         2.18313         1.88206
LJ          -3.21414        0.442751         1.29571
LJ          -1.12915        0.623344         1.16698
LJ          -2.14801        -4.05699         5.01132
LJ         -0.197817        -1.34077        -1.49151
LJ           1.10488        -1.20954        -1.28037
LJ          -1.02403         2.60975        0.371046
LJ           0.43146        -1.43342        -0.49184
LJ         -0.646506        -2.07457        -1.02015
LJ          0.140166       -0.449705        -2.07834
LJ          -1.92143        0.533545          2.1677
LJ           2.38506        0.996352       -0.152327
LJ           1.52113         1.37659        0.466524
LJ          0.886435        -2.72128        0.340716
LJ          -1.72145       -0.687285       -0.560828
LJ          -1.45972         -1.4353        0.268487
LJ           1.39954    -0.000804597         1.93991
LJ           1.94711        -3.97627         3.14275
LJ           1.29683        -2.18181       -0.564587
LJ           2.20774       -0.197516       0.0366328
LJ          -1.17175       -0.149027        0.240834
LJ          -1.67883         1.49932           1.863
LJ          -1.70096        0.366902         3.53652
LJ          -1.20448        0.525662       -0.772406
LJ          -1.37334        -2.41629        0.831949
LJ          -1.45141         2.77306        -1.44296
LJ           1.09627         1.27782         1.52139
LJ            2.3205         1.80647         1.85052
LJ           1.01597       -0.515607        0.233182
LJ          -0.20843        0.183359        -1.15195
LJ           2.33195        -2.57197       -0.275458
LJ           3.51923        0.771515       -0.333334
LJ         -0.612763         1.36105        -1.17312
LJ          -5.81121         2.64777        -3.23052
LJ          -0.80321       -0.757854        0.953189
LJ          -1.13742       -0.364524        -1.52482
LJ         0.0268966         2.11574       -0.144463
LJ          0.502772         1.22282        -1.84954
LJ          0.937069       -0.688253         2.57571
LJ           0.93365         2.30655        0.442916
LJ          -4.92188        -6.33778         6.07251
LJ         -0.949271         2.05294         1.22306
LJ          -4.87548        -2.31904         5.80509
LJ           2.61687       -0.325077         2.07141
LJ           1.31686        0.307719        0.899078
LJ          0.132575         1.63854          1.0392
LJ          -2.47041         1.35604         2.60673
LJ         -0.147045       -0.055426         3.47754
LJ         0.0391908       -0.759686        0.239952
LJ          -0.13851        0.136111       -0.133971
LJ           1.09889         -6.2312         5.70629
LJ          0.374577        -1.71085        0.614105
LJ          0.357979        0.939884       -0.716692
LJ          0.572152       -0.372532       -0.655109
LJ          -0.25191       -0.559889         1.85874
LJ         0.0899944       0.0136293        0.944811
LJ          0.309651         1.40926         2.61894
LJ          -1.79059         1.37914        0.737778
LJ            1.1722       -0.305069         3.61492
LJ           1.94451         2.48483        -1.45515
LJ          0.286428        0.187407         2.58812
LJ         -0.626901        -1.02139         2.93659
LJ          -1.98892         2.30813          1.1636
LJ           0.20381          2.4039          2.9552
LJ          0.675612        -1.87436         1.57023
LJ            2.6842         5.82251       -0.193354
LJ          -4.61327         4.17453         3.86813
LJ         -0.929115        -4.56584       -0.172298
LJ         -0.434705         1.26642        0.308193
LJ           1.25507          1.5658       -0.703297
LJ           1.62038       -0.386627       -0.803855
LJ           3.83269       -0.778424        -5.26854
LJ           2.69447         2.46385        0.923621
LJ          -1.33492         1.73577       -0.216922
LJ           4.08173      -0.0820042         2.11571
LJ          -4.19364       -0.182636         4.88505
LJ          0.756968        0.337723        -1.59579
LJ          0.458817        -2.16593        -1.48271
LJ          -1.32912       -0.186393         5.73012
LJ         -0.963105         4.32241         6.12017
