108
#Comment!
LJ           -1.9518        -1.89173        -0.23662
LJ             -4.61        -5.28826         4.86801
LJ          -6.03879        -5.72652        -4.12203
LJ           6.16193        -6.43254        -3.77839
LJ           2.12249        -2.27511        0.474132
LJ         -0.677237         1.14514         -2.3545
LJ            1.0851        -1.64596        -0.80016
LJ          0.312262        -2.43237       -0.199761
LJ         -0.500933        -2.20454        -1.70062
LJ           1.35329        0.451537       -0.387212
LJ           3.34724         2.66372         2.91387
LJ           1.29928        -1.59199         1.93626
LJ         -0.632568        -1.47439        -2.51364
LJ         -0.110769         3.28445        -1.28976
LJ          -1.30745         1.13115        0.120635
LJ         -0.510121         2.27248        -1.13697
LJ          -1.70609       -0.152048        -1.24348
LJ          0.574657      0.00814618        0.380997
LJ          -2.32952         1.57779        -1.47652
LJ         -0.794002       -0.801753        -1.25871
LJ            1.2639        -1.11922        -2.78331
LJ          0.970548       -0.747917        -1.39699
LJ          0.167323        -1.36011        -1.70514
LJ           3.85854        -1.73138         4.37576
LJ         -0.382905         2.91408         4.90064
LJ          0.753996         2.71208        -2.21811
LJ           1.14664         2.18695        -1.10229
LJ            3.9094       -0.486073         3.85735
LJ         -0.373353         2.22178        -2.35885
LJ          -1.15106         2.98241        -2.02337
LJ          -1.70775         3.27005         5.20139
LJ         -0.412769        0.293753        -1.62987
LJ          0.750431         1.58892         -3.0069
LJ          0.450824        0.679732        -2.25717
LJ         0.0053109         1.41866        -1.58506
LJ          -1.10987       -0.232286        -2.33511
LJ          -1.20167        -1.81645        -1.04346
LJ          -2.06247       -0.786398         1.50178
LJ          -1.69927         0.90618         1.11401
LJ          0.481656        -2.47983        0.991398
LJ         -0.957682        -1.38864       -0.234131
LJ         -0.652111        -3.15557        -1.16439
LJ          -2.00061        -1.05792        0.501422
LJ         -0.476522       -0.401924        0.308347
LJ        -0.0413123        -3.50523       -0.260231
LJ           6.24659          2.8282        -1.83501
LJ        -0.0661112        -1.67271       -0.786086
LJ           2.26266        -1.02398       -0.714963
LJ         -0.842525        0.332746       -0.479276
LJ          -1.21204         1.07814        -1.08639
LJ         0.0631752     -0.00311566         1.32461
LJ          -3.00204       -0.538264        -0.40162
LJ           0.13453       -0.468671        -0.84355
LJ           1.21504         1.14893        -1.47625
LJ           1.14427        0.494315         1.14168
LJ           1.09791       -0.721869        0.957661
LJ           1.14824       -0.616602       -0.141658
LJ          0.649509        0.310836        -1.32765
LJ           1.83434      0.00763158        -1.16035
LJ          0.733718        -1.50498        0.297742
LJ          -2.10019        -1.13159        -1.05292
LJ           4.08387         4.70298         4.40583
LJ          -2.16521        0.799201       -0.398265
LJ          -1.56002       -0.434032       -0.216724
LJ          0.629739         1.16986        0.573361
LJ            0.1426        0.806401       -0.553516
LJ         -0.406687        0.660716        0.539967
LJ         -0.514438         1.68613       -0.224469
LJ           3.38034          5.6814         2.68013
LJ           3.90382          3.5724         3.66572
LJ          -4.31783         2.59687         5.94589
LJ           1.80628        -4.37291         6.13598
LJ         -0.929281        -2.59888       0.0474838
LJ           3.18173         1.92729         2.10989
LJ         -0.656637         0.82246         1.53622
LJ          0.979753       -0.310902          2.1414
LJ          -1.10938        -3.17138        0.901633
LJ          -1.11167        -1.19808         1.09927
LJ           -1.0173         5.25309         4.53844
LJ          -1.75587        -2.35451         1.74665
LJ         -0.257534        -1.72189        0.631198
LJ           1.88751        -1.17674        0.500026
LJ         -0.656721        -2.29243           1.384
LJ           0.21905        -1.12071         1.42861
LJ          -2.39661      -0.0744935        0.327706
LJ          -1.32576       -0.154495         0.86136
LJ          -1.75638        -3.52251         1.83946
LJ          -6.17204        -1.37029         4.27571
LJ          0.027112       -0.967491         2.60124
LJ          -1.22974        -1.46665         2.22009
LJ         -0.495315         1.71121        0.936345
LJ          0.278247        -1.24475         3.58155
LJ          0.109076        -1.98981         2.04176
LJ           2.19411         5.72733        -4.73546
LJ           -4.5392         5.79995          2.3811
LJ           6.36086         2.40672        -5.97971
LJ          -1.33882      -0.0284234         1.94142
LJ          -1.51424         1.96226       -0.552891
LJ          0.481224         2.21663        0.238389
LJ         -0.827103        -4.43371       -0.204305
LJ           3.72983         5.71744         5.01344
LJ           6.12349         2.80237        -4.00984
LJ           3.10955         4.48117         4.18919
LJ           5.30277        -4.56509          3.2666
LJ           2.72135         3.39112         4.01163
LJ          -3.38605        -2.68796        -1.27291
LJ           6.40905        -2.61508        -5.19387
LJ         -0.154858         6.39965        -2.33945
