108
#Comment!
LJ        0.00939972        -1.65411        0.103089
LJ           6.08781         2.92081        -5.26452
LJ          -1.53942         2.25799      -0.0485579
LJ          0.434148        -1.10802        -3.84177
LJ          0.877051        -1.86385       -0.525757
LJ          0.327002          1.7474        -1.34881
LJ           1.29543        -1.79929        0.389413
LJ           1.54354        -1.74131         1.93514
LJ           2.24727        -2.44802        0.339071
LJ           1.74999        0.366864        -1.40102
LJ        -0.0699471         2.30669       -0.245628
LJ           1.45196        0.110408          1.1987
LJ        -0.0272994       -0.557578        -1.96002
LJ           1.89112       -0.755332        -1.61248
LJ         -0.972038         1.18445         1.35962
LJ         -0.768302         3.90535         1.64552
LJ         -0.860095        0.770077        -1.93232
LJ         -0.274825        -0.75743        0.522011
LJ        -0.0203896         2.35288         1.06326
LJ        -0.0726021       -0.838298       -0.689893
LJ          0.723225        -2.13572        -1.91313
LJ          0.867783        -0.99189      -0.0755639
LJ          -1.01649         1.43451        -2.98253
LJ          0.763104         6.01749        -4.43259
LJ           6.10203        -2.80082        -2.27534
LJ        -0.0845479         2.77912        -1.33475
LJ          -2.03184         2.59141       -0.907451
LJ           6.45858         2.54729        -1.26406
LJ           1.99975         3.20781        0.626612
LJ           3.33296        -6.35717        -3.24126
LJ          -1.45932        0.920407         2.48028
LJ          0.893708       -0.199661        -1.84561
LJ          0.150427        0.926778        -1.93241
LJ           0.82408        -1.13481        -1.38702
LJ         -0.300337        0.266635        0.909759
LJ         -0.150617        0.221628        -1.10462
LJ          -1.15504        -1.70037       -0.778577
LJ          -2.04046        0.402461        -1.83965
LJ          -1.04699         1.03678        0.246472
LJ           1.74582       -0.633708        0.491965
LJ         -0.532969        -1.79083         1.02719
LJ          -0.52381        -2.65736          1.9161
LJ          -2.30584        -1.17024       -0.653546
LJ          -1.19379       -0.873345         1.14362
LJ          0.396887        -1.69045          1.7665
LJ           6.05848         2.42573        0.574784
LJ          0.581375        -2.82115       -0.052125
LJ           2.42554        -1.41568        0.550745
LJ          -1.18193       -0.613653       -0.444169
LJ         -0.995679          2.1876        -1.20813
LJ        0.00546685       -0.643625         1.52433
LJ          -1.24371        0.557247       -0.699678
LJ         -0.198241        -2.23791       -0.913759
LJ         -0.377623         1.22412       -0.624536
LJ           1.10771         1.19104        0.649738
LJ           1.77036       0.0706562       -0.363511
LJ           1.80428       -0.986923       -0.526028
LJ          0.933977      -0.0904403       -0.811625
LJ           1.99176        -1.82508        -2.29998
LJ           2.78374        0.102357        -1.35364
LJ          -1.12812        -0.30226         -1.6429
LJ          -4.13656         1.62892       -0.804116
LJ          -1.85737         1.57609        0.985451
LJ          -2.70673       -0.830796        -1.57674
LJ         0.0423967         1.56664         2.57477
LJ         -0.222408       0.0736036       -0.124162
LJ          -0.33498        0.262531         1.99296
LJ           1.13083         2.50253        0.667322
LJ           2.47336        -6.33759        -4.00057
LJ          0.529967        0.547133          1.4443
LJ          -3.28388        -5.22508         5.40106
LJ          -4.94281         3.36226         5.63382
LJ          0.941385       -0.925963        0.979904
LJ          0.965251         1.79053       -0.282199
LJ          -2.65464        0.659422         2.29475
LJ          -0.19991        0.697003         3.18806
LJ          -1.58181         -2.2891         1.52371
LJ          -1.31252        -1.44446        0.207341
LJ           1.72506      0.00247708         6.06201
LJ           5.05302        -1.35908         2.48117
LJ          0.621079      -0.0709021        0.466821
LJ           2.80429       -0.639521        -0.28986
LJ         -0.455269        -1.47737         2.27852
LJ           1.01807       -0.513101         2.00134
LJ          -2.63124         1.91307         1.93852
LJ          -1.64295        0.210989         1.65937
LJ           1.92827      -0.0512576         2.90671
LJ            0.8559         4.18577        0.590138
LJ         0.0363087       -0.531082         2.68427
LJ          -1.08714        -0.26738         2.62055
LJ          -1.04281         2.24836        0.907188
LJ          0.848549        0.327609         2.54432
LJ          0.410929        -2.73453         2.51008
LJ          -4.59326        -1.78663         5.24038
LJ           6.02626        -3.83289       -0.984976
LJ          -6.27441          3.9149        -2.54603
LJ          -1.30057       0.0996002        0.435653
LJ        -0.0283789          1.2968        0.833229
LJ          0.834587         3.24971         1.66008
LJ           2.94733        -2.27703        -2.51023
LJ           4.64059         3.21369        -3.50246
LJ          -3.13799        0.245653         -1.3889
LJ         -0.464318        -6.42012        -4.40136
LJ           6.00483         3.64857         2.35411
LJ           1.96887         1.28181       -0.785291
LJ          -2.19182       -0.154116        -1.01566
LJ           -4.4289        -1.93956         -1.8349
LJ           2.95855        -5.29904        -1.24212
