108
#Comment!
LJ           4.03757       -0.858989          1.2696
LJ           -1.4387         3.03104        -1.49206
LJ          0.533548        -2.01527         1.56267
LJ         -0.668132         2.33409        -1.71011
LJ          0.574943        0.529947         3.38423
LJ        -0.0363317        -2.57763       -0.862491
LJ          0.307213        0.153191        -1.21065
LJ           1.52662        -1.62623        -1.31456
LJ           1.41201        -2.25383         2.50317
LJ         0.0978038       -0.919467         1.97412
LJ         0.0303807          1.5293          3.4966
LJ          0.441607         0.90251         1.22857
LJ        -0.0652347       -0.880989       -0.512174
LJ           2.11333         4.90987        -1.26247
LJ          0.558764        -3.15141       0.0544341
LJ         -0.683065        -1.82467         0.19502
LJ           6.27356        -1.46627        -5.41119
LJ          0.718815         1.57518        0.385636
LJ          -0.11812          4.6899        -5.31438
LJ          0.681583       -0.989215        -1.41184
LJ          -1.60634        0.324808         4.17193
LJ          0.751645         1.61679        -2.16677
LJ            3.6959         0.22328       -0.613211
LJ          -3.06468        -1.90856         -1.7349
LJ          0.898551        -1.01179         5.34241
LJ          0.254105         1.99207        -1.25716
LJ          -0.74596        0.014476         -1.5968
LJ          -1.11509         6.00161        -1.60303
LJ           2.16858         2.44117         1.85444
LJ          0.438057        -2.13563        0.440272
LJ           1.61921        -1.66372         4.20013
LJ           4.28167         1.48277         5.04158
LJ          0.666239        -3.77916        -1.50967
LJ          0.889535       -0.360155        -2.30345
LJ         -0.133689         2.04634        0.849841
LJ            2.6722         0.76305       -0.869644
LJ           1.51331        -1.29218        0.192838
LJ           1.35847        -3.58654        -2.44953
LJ          0.909328        0.523224        0.303398
LJ           1.19916        0.608659        -1.90911
LJ          0.896648         2.17751       -0.396801
LJ         -0.894096           -1.22         1.77395
LJ          0.796389        -2.08758        -1.71985
LJ         -0.254979         0.34241        0.638528
LJ           2.39926        -1.10182         3.31049
LJ           6.03811         -4.6687        -4.12919
LJ           3.52557       -0.419129         2.14123
LJ           2.97675        -1.57494         2.23179
LJ           1.50048        -1.21556        -2.73809
LJ          -1.74177         1.59145         1.66264
LJ           1.21621         0.74409         1.95588
LJ         0.0941508         2.40934        -2.43195
LJ           2.01876        -5.70052        -2.53205
LJ         -0.253343         1.41549         1.72669
LJ           2.50347       -0.558803         1.22949
LJ           2.37181       -0.717794       -0.308955
LJ           1.85582        0.170831       -0.317455
LJ           1.14527        -2.49436       -0.683518
LJ          0.690766        -0.49535         3.30055
LJ           4.22727        0.158701        0.812934
LJ          0.905934         1.01867        -0.68031
LJ          -4.49148         5.71639        -4.76799
LJ           1.71753       -0.404378         2.54086
LJ       0.000807202         3.51246        -1.67919
LJ           2.78124        0.182668        0.265349
LJ          0.956335       -0.530396       -0.460105
LJ          0.945474        -1.46657         3.05643
LJ           1.48732         1.73663        -1.23623
LJ           1.04964         2.96276        -3.04511
LJ          0.708252         1.59403         2.51546
LJ          0.907948         1.45972        -6.16008
LJ           1.98593          1.3612         2.72973
LJ          0.371966        -1.09872        0.428727
LJ           1.64131         1.35344        0.940403
LJ         -0.583558       -0.725089        0.813438
LJ          0.363093       -0.121021         1.17244
LJ           1.52194        -0.29765        0.675806
LJ        -0.0324127         1.36332       -0.328995
LJ           2.11472        -1.07858         4.95721
LJ           1.36478        -1.12824         1.54656
LJ           1.77481       -0.315578        -1.72173
LJ          0.636265        -1.59037       -0.536612
LJ            2.0567        0.440952         1.27267
LJ           2.24522        -2.24204         1.65868
LJ          0.853283         2.02288         1.28423
LJ          -1.53333        0.252025         0.85023
LJ          -1.02815        -2.83968          1.5787
LJ         -0.315282         1.11698        -1.82554
LJ          0.457282       0.0559858         2.35811
LJ         -0.426932        -2.12124         2.16596
LJ        0.00163231         2.77428       0.0910077
LJ         -0.801062         1.19277        0.744123
LJ         -0.738267        0.767023         3.07192
LJ          0.198175        -1.22247         -2.2679
LJ          -0.46981        -1.47223        -1.32433
LJ            1.0969         1.80612        -3.61998
LJ         -0.625936        0.261302       -0.532548
LJ          0.381843         2.66541         1.87538
LJ         -0.614552        -5.51737         3.51475
LJ           5.59276         3.05093         -6.0659
LJ         -0.711596            4.46       -0.075364
LJ         -0.155063      -0.0746138        -2.58218
LJ           1.13208          2.6111        -1.73898
LJ          -6.00019        -0.26853        -3.37669
LJ          0.494435         3.14194       -0.903535
LJ          -1.21028         -3.3007           0.357
LJ           1.42953        -2.07963         1.07749
LJ          0.524809        -2.66942         2.38791
