108
#Comment!
LJ          -1.97823        -1.97823        -1.97823
LJ          -1.10966        -1.10966        -2.99276
LJ          -2.99276        -1.10966        -1.10966
LJ          -1.10966        -2.99276        -1.10966
LJ          -1.76605         -2.7479         -2.7479
LJ          0.578249         -3.2347        -4.08637
LJ         -0.542333        -2.29022        -2.29022
LJ          0.578249        -4.08637         -3.2347
LJ          0.262558        -2.94146        -2.94146
LJ           1.86533        -1.33425        -2.92407
LJ           1.14984        -2.28142        -2.28142
LJ           1.86533        -2.92407        -1.33425
LJ           -2.7479        -1.76605         -2.7479
LJ           -3.2347        0.578249        -4.08637
LJ          -4.08637        0.578249         -3.2347
LJ          -2.29022       -0.542333        -2.29022
LJ          -1.16103        -1.16103        -1.94212
LJ          0.059179        0.059179         -1.8149
LJ          -1.23214        0.061411        -2.15741
LJ          0.061411        -1.23214        -2.15741
LJ           2.12939        -1.64191         -4.0706
LJ           1.68656        0.759156        -2.72222
LJ          0.988031       -0.502233        -2.18179
LJ           2.99349        -1.63407        -3.20808
LJ          -2.94146        0.262558        -2.94146
LJ          -1.33425         1.86533        -2.92407
LJ          -2.92407         1.86533        -1.33425
LJ          -2.28142         1.14984        -2.28142
LJ          -1.64191         2.12939         -4.0706
LJ          0.759156         1.68656        -2.72222
LJ          -1.63407         2.99349        -3.20808
LJ         -0.502233        0.988031        -2.18179
LJ        -0.0774294      -0.0774294        -3.01427
LJ          0.955021        0.955021        -2.06799
LJ          0.170601         1.98614        -1.23844
LJ           1.98614        0.170601        -1.23844
LJ           -2.7479         -2.7479        -1.76605
LJ          -2.29022        -2.29022       -0.542333
LJ          -4.08637         -3.2347        0.578249
LJ           -3.2347        -4.08637        0.578249
LJ          -1.16103        -1.94212        -1.16103
LJ          0.061411        -2.15741        -1.23214
LJ          -1.23214        -2.15741        0.061411
LJ          0.059179         -1.8149        0.059179
LJ           2.12939         -4.0706        -1.64191
LJ           2.99349        -3.20808        -1.63407
LJ          0.988031        -2.18179       -0.502233
LJ           1.68656        -2.72222        0.759156
LJ          -1.94212        -1.16103        -1.16103
LJ          -2.15741        0.061411        -1.23214
LJ           -1.8149        0.059179        0.059179
LJ          -2.15741        -1.23214        0.061411
LJ         -0.805237       -0.805237       -0.805237
LJ         0.0341834       0.0341834       -0.772993
LJ         -0.772993       0.0341834       0.0341834
LJ         0.0341834       -0.772993       0.0341834
LJ          0.638083       -0.991099       -0.991099
LJ          0.965666       0.0804819        -1.18262
LJ           1.04765       0.0486785       0.0486785
LJ          0.965666        -1.18262       0.0804819
LJ           -4.0706         2.12939        -1.64191
LJ          -3.20808         2.99349        -1.63407
LJ          -2.72222         1.68656        0.759156
LJ          -2.18179        0.988031       -0.502233
LJ         -0.991099        0.638083       -0.991099
LJ         0.0804819        0.965666        -1.18262
LJ          -1.18262        0.965666       0.0804819
LJ         0.0486785         1.04765       0.0486785
LJ           1.01627         1.01627       -0.359674
LJ           1.65357         1.65357        -1.78546
LJ           2.13727         3.00899        0.571599
LJ           3.00899         2.13727        0.571599
LJ          -2.94146        -2.94146        0.262558
LJ          -2.28142        -2.28142         1.14984
LJ          -2.92407        -1.33425         1.86533
LJ          -1.33425        -2.92407         1.86533
LJ          -1.64191         -4.0706         2.12939
LJ         -0.502233        -2.18179        0.988031
LJ          -1.63407        -3.20808         2.99349
LJ          0.759156        -2.72222         1.68656
LJ        -0.0774294        -3.01427      -0.0774294
LJ           1.98614        -1.23844        0.170601
LJ          0.170601        -1.23844         1.98614
LJ          0.955021        -2.06799        0.955021
LJ           -4.0706        -1.64191         2.12939
LJ          -2.18179       -0.502233        0.988031
LJ          -2.72222        0.759156         1.68656
LJ          -3.20808        -1.63407         2.99349
LJ         -0.991099       -0.991099        0.638083
LJ         0.0486785       0.0486785         1.04765
LJ          -1.18262       0.0804819        0.965666
LJ         0.0804819        -1.18262        0.965666
LJ           1.01627       -0.359674         1.01627
LJ           3.00899        0.571599         2.13727
LJ           2.13727        0.571599         3.00899
LJ           1.65357        -1.78546         1.65357
LJ          -3.01427      -0.0774294      -0.0774294
LJ          -1.23844         1.98614        0.170601
LJ          -2.06799        0.955021        0.955021
LJ          -1.23844        0.170601         1.98614
LJ         -0.359674         1.01627         1.01627
LJ          0.571599         3.00899         2.13727
LJ          -1.78546         1.65357         1.65357
LJ          0.571599         2.13727         3.00899
LJ          0.982772        0.982772        0.982772
LJ           1.86472         1.86472        0.265696
LJ          0.265696         1.86472         1.86472
LJ           1.86472        0.265696         1.86472
