108
#Comment!
LJ          -1.03514        -2.56562         0.21167
LJ          -5.12781         5.69423        0.268818
LJ           2.86538         4.15198        -3.13434
LJ           3.79576         4.65172         -3.7067
LJ           1.64749        -1.32731        -1.43453
LJ        -0.0848082         1.75385        -1.02878
LJ          0.848951        -1.76819        0.293018
LJ           0.82254        -3.52647        0.324082
LJ           1.09164        -2.44896       -0.538895
LJ           1.51628        0.638714       -0.497267
LJ           1.87743         1.76386         1.14904
LJ           1.22117        -1.52639         2.21956
LJ          -1.32102       -0.899841        -1.35408
LJ          0.988243         2.23923        -1.67483
LJ         -0.712461         1.72578        0.494184
LJ         -0.150012         2.52392      -0.0269115
LJ           -1.7997         1.19203        -1.40248
LJ         -0.437468       -0.357847       0.0621083
LJ          -1.08294         3.12634        0.206641
LJ         -0.309912       -0.572063        -1.11104
LJ          0.690569      -0.0994344        -0.94206
LJ        -0.0248015        -1.29541       -0.413645
LJ          0.151982       -0.743516        -2.58858
LJ          0.836824         3.18522         1.82593
LJ          -1.43358         4.26207        0.635057
LJ         -0.354301         2.53941        -2.57577
LJ           2.01634         2.74818        -2.34639
LJ           3.48686         1.28308         2.26797
LJ       4.82773e-05         3.14229        -1.03646
LJ           1.16936         4.52662        -0.99209
LJ         -0.441377         1.50011         1.56323
LJ          0.399518        0.470874        -1.70945
LJ        -0.0889132         1.53564        -2.11109
LJ           1.78261        0.957914        -1.45249
LJ          0.288177         1.42619       -0.099217
LJ         -0.562633         0.79913        -1.30799
LJ         -0.895654        -2.76449       -0.893349
LJ          -2.88875       -0.779774        0.762556
LJ          -1.63301         1.06628        0.417277
LJ            0.6758        -2.01674         1.32353
LJ         -0.927966         -1.2514        0.531711
LJ         -0.474167        -3.45344        -0.16404
LJ          -2.09687        -1.42367         0.76478
LJ         -0.885971       -0.422453         1.20345
LJ        -0.0796407        -3.85361        0.840095
LJ          -6.02676        -2.68709       -0.275937
LJ         0.0225955         -2.3919       -0.387496
LJ           1.41511        -2.62273        0.541892
LJ         -0.966882       0.0603477        -0.67812
LJ          -1.03422         2.26936       -0.538648
LJ          0.355683      0.00340444         0.96253
LJ          -2.03657         0.29566        -0.78757
LJ         -0.411026        -1.70795        -1.32106
LJ          0.796344         1.21143        -1.04059
LJ           1.17948        0.549508          0.5029
LJ           1.01127       -0.791295         1.30962
LJ          0.924127       -0.320472         0.14252
LJ          0.137741        0.392588       -0.236154
LJ           1.83827       -0.226178       -0.946386
LJ           1.76845        -0.89429        0.489966
LJ          -1.34822        0.105499        -1.70508
LJ           5.40592         4.36779         2.43831
LJ          -2.14541         1.68054       -0.338439
LJ          -1.34642       -0.884868       -0.317988
LJ          0.388161         1.06431         1.06519
LJ         -0.765942         1.08394        -0.28776
LJ         -0.531618        0.425614         0.70495
LJ          0.714738         2.42477       -0.521104
LJ           2.96036         6.18492         5.45226
LJ           1.65542         2.07163         2.25156
LJ          -4.33147      -0.0121284         6.36452
LJ         -0.929109         6.36052        -5.24194
LJ        -0.0966352        -2.13006        0.589941
LJ           2.38368         1.87928        0.205319
LJ         -0.147105        0.438136         1.73269
LJ           0.93908        0.972927         2.05997
LJ          -1.04651        -3.50886        0.750168
LJ         -0.857948        -1.62234         1.44359
LJ           1.15627         2.80288         4.91791
LJ          -4.30752        -2.08058          2.1777
LJ          0.178398       -0.992029         0.70416
LJ           1.78073        -1.68951       -0.155005
LJ         -0.354007        -2.83316         1.31226
LJ         0.0631523        -1.11007         1.73133
LJ          -2.65878        0.325803        0.602057
LJ          -1.43483       0.0361522        0.259006
LJ         0.0294241         -3.7125         1.98286
LJ          -3.64747         1.67377          3.2459
LJ          0.595792       -0.227744          2.2469
LJ         -0.869051        -1.49648         2.55122
LJ           -1.7876         2.27926        0.453122
LJ          0.165014        -1.36833         2.77947
LJ          0.124719        -2.21502         2.18791
LJ         -0.828748        -5.36289          6.2232
LJ           6.38539        -5.65746        0.478492
LJ          -6.27003         2.65539        -4.75649
LJ          -2.01134       -0.370456         1.90001
LJ          0.599393           2.211        0.713601
LJ           1.10826         3.14589          0.5482
LJ            2.1077        -2.77151        -0.55531
LJ           5.26624         3.62397        0.872409
LJ          -5.34262         1.51739        -3.06277
LJ         -0.328208         5.29183        0.961376
LJ           5.60491        -6.43242         2.81023
LJ           2.34034         1.98505         3.54386
LJ          -2.27474       -0.487666      -0.0655034
LJ           0.96348         3.40107        -4.69567
LJ          -6.01626        0.324853         3.19826
