108
#Comment!
LJ          -2.03989        -2.03989        -2.03989
LJ          -1.59025        -1.59025        -2.85331
LJ          -2.85331        -1.59025        -1.59025
LJ          -1.59025        -2.85331        -1.59025
LJ          -1.10941        -2.44523        -2.44523
LJ         -0.252144        -1.70458        -2.57556
LJ         -0.922219        -1.63742        -1.63742
LJ         -0.252144        -2.57556        -1.70458
LJ           0.61005        -2.54615        -2.54615
LJ           1.46899        -1.68721        -2.54623
LJ          0.730029        -1.80712        -1.80712
LJ           1.46899        -2.54623        -1.68721
LJ          -2.44523        -1.10941        -2.44523
LJ          -1.70458       -0.252144        -2.57556
LJ          -2.57556       -0.252144        -1.70458
LJ          -1.63742       -0.922219        -1.63742
LJ         -0.884455       -0.884455        -2.66628
LJ         -0.192759       -0.192759        -2.66656
LJ          -1.10063       0.0233505        -1.81147
LJ         0.0233505        -1.10063        -1.81147
LJ          0.627326       -0.825097        -2.57557
LJ           1.36802       0.0322034        -2.44523
LJ          0.560196       -0.155013        -1.63744
LJ           1.49836       -0.825112        -1.70457
LJ          -2.54615         0.61005        -2.54615
LJ          -1.68721         1.46899        -2.54623
LJ          -2.54623         1.46899        -1.68721
LJ          -1.80712        0.730029        -1.80712
LJ         -0.825097        0.627326        -2.57557
LJ         0.0322034         1.36802        -2.44523
LJ         -0.825112         1.49836        -1.70457
LJ         -0.155013        0.560196        -1.63744
LJ          0.513054        0.513054        -2.85324
LJ          0.962735        0.962735        -2.03992
LJ          0.513038         1.77611        -1.59028
LJ           1.77611        0.513038        -1.59028
LJ          -2.44523        -2.44523        -1.10941
LJ          -1.63742        -1.63742       -0.922219
LJ          -2.57556        -1.70458       -0.252144
LJ          -1.70458        -2.57556       -0.252144
LJ         -0.884455        -2.66628       -0.884455
LJ         0.0233505        -1.81147        -1.10063
LJ          -1.10063        -1.81147       0.0233505
LJ         -0.192759        -2.66656       -0.192759
LJ          0.627326        -2.57557       -0.825097
LJ           1.49836        -1.70457       -0.825112
LJ          0.560196        -1.63744       -0.155013
LJ           1.36802        -2.44523       0.0322034
LJ          -2.66628       -0.884455       -0.884455
LJ          -1.81147       0.0233505        -1.10063
LJ          -2.66656       -0.192759       -0.192759
LJ          -1.81147        -1.10063       0.0233505
LJ         -0.914216       -0.914216       -0.914216
LJ         -0.162958       -0.162958       -0.914215
LJ         -0.914215       -0.162958       -0.162958
LJ         -0.162958       -0.914215       -0.162958
LJ          0.734219        -1.10062        -1.10062
LJ           1.58919       -0.192771       -0.884432
LJ          0.734221       0.0233281       0.0233281
LJ           1.58919       -0.884432       -0.192771
LJ          -2.57557        0.627326       -0.825097
LJ          -1.70457         1.49836       -0.825112
LJ          -2.44523         1.36802       0.0322034
LJ          -1.63744        0.560196       -0.155013
LJ          -1.10062        0.734219        -1.10062
LJ         -0.192771         1.58919       -0.884432
LJ         -0.884432         1.58919       -0.192771
LJ         0.0233281        0.734221       0.0233281
LJ          0.560224        0.560224       -0.922223
LJ           1.36801         1.36801        -1.10945
LJ          0.627323         1.49833       -0.252142
LJ           1.49833        0.627323       -0.252142
LJ          -2.54615        -2.54615         0.61005
LJ          -1.80712        -1.80712        0.730029
LJ          -2.54623        -1.68721         1.46899
LJ          -1.68721        -2.54623         1.46899
LJ         -0.825097        -2.57557        0.627326
LJ         -0.155013        -1.63744        0.560196
LJ         -0.825112        -1.70457         1.49836
LJ         0.0322034        -2.44523         1.36802
LJ          0.513054        -2.85324        0.513054
LJ           1.77611        -1.59028        0.513038
LJ          0.513038        -1.59028         1.77611
LJ          0.962735        -2.03992        0.962735
LJ          -2.57557       -0.825097        0.627326
LJ          -1.63744       -0.155013        0.560196
LJ          -2.44523       0.0322034         1.36802
LJ          -1.70457       -0.825112         1.49836
LJ          -1.10062        -1.10062        0.734219
LJ         0.0233281       0.0233281        0.734221
LJ         -0.884432       -0.192771         1.58919
LJ         -0.192771       -0.884432         1.58919
LJ          0.560224       -0.922223        0.560224
LJ           1.49833       -0.252142        0.627323
LJ          0.627323       -0.252142         1.49833
LJ           1.36801        -1.10945         1.36801
LJ          -2.85324        0.513054        0.513054
LJ          -1.59028         1.77611        0.513038
LJ          -2.03992        0.962735        0.962735
LJ          -1.59028        0.513038         1.77611
LJ         -0.922223        0.560224        0.560224
LJ         -0.252142         1.49833        0.627323
LJ          -1.10945         1.36801         1.36801
LJ         -0.252142        0.627323         1.49833
LJ          0.729926        0.729926        0.729926
LJ           1.46902         1.46902        0.610014
LJ          0.610014         1.46902         1.46902
LJ           1.46902        0.610014         1.46902
