108
#Comment!
LJ          -2.33535        -2.24786        -2.31681
LJ          -2.08366        -2.06349        -4.73557
LJ          -4.68652        -1.97999        -2.01326
LJ          -2.05824        -4.76337        -2.07372
LJ        -0.0327983         -3.0678        -2.39718
LJ          0.984775       -0.602198        -3.07944
LJ          0.665981        -1.04864         -1.1825
LJ           1.14568        -2.99638       -0.570596
LJ          0.688339        -2.24129        -2.36634
LJ           1.82217        0.518346       -0.488376
LJ           5.57782         4.88153         4.87032
LJ           1.42797       -0.899952        0.698953
LJ          -1.81108        -1.06774        -2.43077
LJ         -0.158933         1.35193        -2.83015
LJ          -2.64392        0.802623       -0.609779
LJ          -1.12317        0.807539        -1.18787
LJ         -0.831392       -0.629683        -2.48835
LJ        -0.0199513       0.0485589       -0.436645
LJ          -1.43847         0.33558        -2.70075
LJ        -0.0914193        -1.64575        -1.89326
LJ           2.08326        -1.50245        -3.00852
LJ           1.14276        -1.13676        -2.15445
LJ         -0.144321       -0.489761        -1.57857
LJ          -6.44056        -4.03197        -5.23746
LJ           -2.1534         1.68207        -2.50405
LJ          0.686909         1.56424       -0.786569
LJ         -0.674629         1.93725        0.801755
LJ           4.92591         5.64839         4.93042
LJ           -1.2998         1.56762        -3.31951
LJ          -1.10058         1.33095        -2.15745
LJ          -4.03238        -6.43996        -5.23761
LJ         -0.522969        0.433544        -2.17137
LJ           0.34546        0.262497         -3.0527
LJ          0.452585        0.766369        -2.12785
LJ        -0.0615791         1.91089        -1.78537
LJ           1.30357        0.298217         -2.5828
LJ          -2.03061        -2.79921       -0.449291
LJ          -1.23646        -1.18706        0.688601
LJ           -2.7642        -0.77664        0.837379
LJ         -0.226872        -3.08953         1.37768
LJ         -0.932514        -2.61126       -0.633768
LJ          0.517321         -2.1731        -1.06037
LJ          -1.38253        -2.88307        0.531796
LJ          0.230607         -0.5429        0.414526
LJ           1.73442        -3.12489        -1.45872
LJ          -6.44036        -5.23782        -4.03275
LJ         -0.326552        -1.37612       -0.934741
LJ           1.56085        -1.91618        -0.73903
LJ          -2.89461       -0.465252       -0.207512
LJ             -2.24        0.617133        -1.68859
LJ         -0.826146       -0.139095        0.250703
LJ          -2.07492        -1.71804        0.214067
LJ         -0.877159       -0.518846       -0.741693
LJ          0.756851        0.669334       -0.179258
LJ        -0.0499809        0.452369        0.685028
LJ           1.05729        0.142684         0.75516
LJ           1.08277       -0.384498       -0.317225
LJ          0.759282        0.144236        -1.26447
LJ           1.65624       -0.578201        -1.23104
LJ          0.473841        -1.52579       -0.206816
LJ           -3.4504          1.9945        -1.13686
LJ          -5.23743        -6.44042        -4.03212
LJ           -2.0131         1.69824        -1.30258
LJ          -1.85165       0.0593198       -0.895041
LJ         -0.294082         1.29753      -0.0825798
LJ         -0.114734        0.861004         -1.2239
LJ           -1.4522        0.873061       0.0231685
LJ         -0.965862         1.78788       -0.888381
LJ           3.51793         3.51921         2.58142
LJ           4.41329         4.41291         2.33286
LJ          -1.75289         3.45434         6.43973
LJ           3.45379        -1.75281         6.43942
LJ          -2.15252        -2.47364         1.11205
LJ           4.88548         4.90137         5.61068
LJ         -0.241178         1.01709         1.64571
LJ          0.797372       -0.735794         1.50324
LJ          -1.42072        -3.09007         1.58082
LJ         -0.405629        -2.02373        0.255603
LJ          -4.03276        -5.23793        -6.43985
LJ          -1.08618        -2.10609         1.24104
LJ          0.191225        -3.04852      -0.0317333
LJ           1.53137        -2.00805        0.431081
LJ          0.160218        -2.11741         1.74715
LJ          0.549955        -2.31109        0.684054
LJ          -3.16286         -1.2912          1.9474
LJ          -1.77082       -0.877926       -0.405558
LJ          -2.08767        -1.32913         1.52789
LJ          -5.23725        -4.03189        -6.44081
LJ         -0.413207       -0.250088         1.48857
LJ          -1.04654        -1.01497         1.77808
LJ          -1.39072        0.335055          1.0535
LJ         -0.207101        -1.24008         1.10546
LJ           3.49702         2.54476         3.50171
LJ           3.45515         6.43797        -1.75318
LJ          -1.75321         6.43898         3.45444
LJ           4.42123         2.32202         4.42028
LJ           -1.9076      -0.0337141        0.123226
LJ          -2.31685         1.65314      -0.0679151
LJ          -1.64215         1.33819         1.07297
LJ          -2.64337        0.276645         1.30531
LJ           2.60296         3.51727         3.51938
LJ           6.44359         3.45171        -1.75367
LJ           2.33179         4.41466         4.41511
LJ           6.44042        -1.75308         3.45421
LJ           3.53812         3.48524         3.50652
LJ           3.69503         3.66119      0.00644625
LJ        -0.0245595         3.70615         3.72698
LJ           3.72474       0.0469162         3.62328
