108
#Comment!
LJ          -1.61295        -1.06385        -1.45721
LJ          -3.27665        -3.24373        -4.96586
LJ          -4.84918        -3.08396        -3.13268
LJ          -3.22809        -5.01483        -3.25705
LJ          0.651364        -3.68985        -2.50403
LJ         -0.170876       -0.437312        -2.64067
LJ          0.964027        -1.77118       -0.955652
LJ           1.27405        -2.46667       -0.216149
LJ          0.339009        -1.81874        -2.03717
LJ            1.8662       -0.171712       -0.628432
LJ           4.96262         3.92495         4.05423
LJ           1.06684        -1.13547         1.46312
LJ          -1.86478        -1.06102        -2.80246
LJ         -0.165788         2.31199        -2.57996
LJ          -2.31878        0.923843        0.791018
LJ          -1.07617        0.982649        -1.30428
LJ          -1.20802       -0.104638         -1.9776
LJ          0.124135       0.0937985      -0.0282119
LJ          -1.30472        0.277597        -3.04231
LJ         -0.452435        -1.08793        -1.83243
LJ           1.28822         -2.0688        -2.32538
LJ           1.08365       -0.863952        -2.07693
LJ          0.201705       -0.328078        -1.69444
LJ           6.05635          -3.979        -5.66009
LJ          -1.90617         1.24899        -3.51853
LJ          0.345101         1.90067       -0.736599
LJ         0.0100159         2.67829      0.00905436
LJ           4.26765         6.02621         4.38012
LJ         -0.878234         1.21522        -3.07726
LJ           -1.1916         1.89671         -2.3247
LJ          -3.98008         6.05449         -5.6582
LJ          -0.36295        0.722709        -2.33235
LJ          0.103673        0.641684        -3.29595
LJ          0.562507         1.10996        -1.85005
LJ         -0.346601         1.66535        -1.64406
LJ          0.705097         0.16428        -2.42542
LJ          -1.35826        -2.75251       -0.170427
LJ          -1.39768       -0.649686        0.985182
LJ          -2.10763        0.176571         1.51115
LJ          0.433554        -2.82995        0.986662
LJ          -1.20583        -1.88613       -0.687018
LJ         -0.228127        -2.27819        -1.22602
LJ          -1.03065        -2.72583        0.753535
LJ          0.137247       -0.910778        0.430922
LJ           1.15373        -3.12085         -1.3738
LJ            6.0538        -5.66211        -3.98331
LJ        -0.0839871        -1.30073       -0.611739
LJ           2.06194         -1.5603       -0.688184
LJ          -1.41116       -0.206667       -0.543931
LJ          -1.87636        0.982961        -2.21414
LJ         -0.505551        -0.14822        0.729863
LJ          -1.72205        -1.74393        0.436619
LJ         -0.401071       -0.358442       -0.816752
LJ           1.03083        0.748125        -0.32616
LJ          0.300527         0.51594         1.03989
LJ           1.01023      -0.0872805        0.350012
LJ          0.799846       -0.595339       -0.741651
LJ           1.15581        0.218009        -1.36562
LJ           2.13356        0.244909        -2.03377
LJ          0.872742         -1.4842       0.0362235
LJ          -2.97035        0.871006       -0.535701
LJ          -5.65868         6.05546        -3.97896
LJ          -2.31492         1.66779       -0.760884
LJ          -1.96357        0.295426        -1.37113
LJ          0.163668         1.19842        0.152506
LJ        -0.0385795        0.656182        -1.04666
LJ         -0.809829        0.629939       0.0215982
LJ         -0.893455         1.69987        -0.41847
LJ           3.68678         4.36458         1.30163
LJ           4.60818         4.45324         3.21847
LJ          -2.61483         3.87493          5.4091
LJ           3.87431        -2.61645         5.40901
LJ          -1.75187        -3.45369        0.863865
LJ           4.25824          3.9086         4.91072
LJ         -0.335672        0.482681         2.26571
LJ          0.634374       -0.206275         1.90565
LJ         -0.929992        -3.39857         1.71917
LJ           -0.7237        -1.57735        0.767742
LJ           -3.9823        -5.66031         6.05422
LJ          -1.74874        -2.46901         1.49415
LJ         -0.139866         -2.2122      -0.0263678
LJ           1.31992        -2.13455        0.762515
LJ         -0.437487         -2.4632         1.62941
LJ          0.256383        -1.79488          1.0215
LJ          -2.14799       -0.466319        0.113338
LJ         -0.906471       -0.934715      -0.0642974
LJ          -2.91202        -2.31209        0.896285
LJ          -5.65971         -3.9785         6.05552
LJ            -1.034       -0.198374         1.88171
LJ          -1.22967         -1.4506         1.82639
LJ         -0.723641          1.0446         0.97129
LJ         -0.132706       -0.933285         1.52168
LJ           2.68433      -0.0429843         3.43289
LJ            3.8777         5.40539        -2.61447
LJ          -2.61604         5.40846         3.87461
LJ           4.86608          2.9688         4.97498
LJ          -1.55959        0.194297        0.598363
LJ          -1.90746        0.717129       -0.297177
LJ          -1.96469         2.02707        0.729281
LJ          -3.19375        -0.31832         1.16318
LJ           1.55157         4.45118         4.27598
LJ           5.41321         3.87621        -2.60796
LJ           2.94826         4.40819         4.50375
LJ           5.40895        -2.61117         3.87742
LJ           3.83125         4.61756         3.92865
LJ           5.62435         5.16945          -1.376
LJ         -0.891251         5.21401         5.35552
LJ           6.15492       -0.998351         5.48054
