108
#Comment!
LJ           4.17979       -0.361847         1.38222
LJ           1.06524         2.86519        -1.96415
LJ          0.442077        -2.07627         1.42153
LJ          -1.25222        0.938611        -1.63308
LJ          0.236817        0.421801         3.86918
LJ         -0.339367        -1.50901        -2.05556
LJ          0.817252        0.724332        -1.57268
LJ          0.771234       -0.891512        -2.21059
LJ           1.35689        -1.04725         2.38042
LJ          0.361914       -0.681185         1.75389
LJ         -0.132393         1.96483          2.6913
LJ          0.807796        0.845569         1.32262
LJ          -1.75747       -0.908609         -0.8286
LJ           3.02201         2.07385        0.196164
LJ          -1.18042        -2.50013        0.303075
LJ          -1.23923        -1.35976        0.636052
LJ          -3.04789       -0.297767        -3.35377
LJ           1.10031        0.435218        0.403648
LJ           0.19583         4.20312         5.50714
LJ         -0.739325       -0.740722         -1.2674
LJ          0.120429       -0.292499         5.21684
LJ           1.32061         1.74261        -1.03435
LJ           3.74393        0.744337       -0.898772
LJ          -4.74255       -0.275718        -2.73273
LJ           2.71444        -5.16401         5.45279
LJ         -0.126975         1.28335        -1.35583
LJ          -2.76303         -1.6918        -2.12438
LJ           3.77092         6.37547        -1.24186
LJ           2.28198         1.97302         1.52608
LJ        -0.0313841        -1.65098        0.575559
LJ         -0.916269        -2.32757         2.32093
LJ           5.28774         3.70634        -4.99159
LJ         -0.211711        -4.74161       -0.451287
LJ           1.25326      -0.0158187        -2.50235
LJ          -0.08926         1.13241        0.589394
LJ           2.77996        0.436952         -1.1314
LJ           1.70346        -1.04528        0.339946
LJ          0.208566        -1.83481       -0.502242
LJ         0.0032856        0.228124       0.0433806
LJ           1.98042        0.957308         -1.5011
LJ          0.861501         1.46284        0.385645
LJ         -0.625203        -0.44228         2.12334
LJ          -1.11382        -1.98754        -3.10609
LJ          -1.07955       -0.139518       -0.174449
LJ           3.42801        -1.31966         1.85826
LJ           -4.7657         -4.5439        -5.46634
LJ           2.47914       -0.605824         1.78285
LJ           3.25241       -0.887597        0.739321
LJ          -1.23937       -0.967733        -2.58947
LJ          -1.28406         0.47546          2.1564
LJ           1.01007         1.04085         2.33864
LJ         -0.418315         1.42758        -2.39079
LJ           4.44435        -4.59293        -1.92667
LJ          0.216178          1.9605         1.21368
LJ           1.42691       -0.234939         1.29646
LJ           3.85534         0.49372        0.685172
LJ           1.19168       -0.399923       -0.303783
LJ           1.00973        -1.38949       -0.961614
LJ        -0.0125531        -1.06381         2.76387
LJ           4.27922        -0.75216        0.382682
LJ           1.51636        0.768609       -0.492126
LJ           -1.7173         5.00069        -4.44221
LJ           2.61296        -1.18726          2.6812
LJ          -1.89324         0.96199         -2.8738
LJ           2.06268      -0.0854219        0.458494
LJ          0.582141       -0.365179        -1.34578
LJ          0.483368        -2.16629         2.65078
LJ            2.7103         1.15582       -0.494369
LJ       -0.00300896         5.89179        -2.32695
LJ        -0.0956635        0.712555         2.40158
LJ          -0.91399        0.728819         6.34683
LJ           2.21452         1.92655         2.72498
LJ         -0.307915       -0.375119          1.0718
LJ           1.97144         1.12406        0.449261
LJ          -1.37075       -0.651428         1.42415
LJ           1.45466        0.129789         3.14057
LJ          0.680502       -0.882913        0.667882
LJ          0.476403        0.906837       -0.505763
LJ          0.757462        0.876414         4.92831
LJ           1.80882        -1.99705         2.34375
LJ           1.73016       -0.197006        -1.41152
LJ          0.231134       -0.848207        -0.36689
LJ           1.92389        0.842631         1.50794
LJ           1.52895        -1.31487         1.35768
LJ           1.20438         1.82848         1.42733
LJ         -0.909875         1.25546       -0.431784
LJ          -0.53452        -2.39193         1.20826
LJ          0.262633        0.551633        -2.43098
LJ          0.489388      -0.0614701         2.72352
LJ         -0.790565        -1.42427         1.55359
LJ         0.0523884         1.96887       -0.237393
LJ         -0.289283          3.8081        0.803089
LJ         -0.725493         1.15553         3.46244
LJ          -1.38131        -1.92647        -1.92662
LJ          -1.10098        -1.89271       -0.665546
LJ           0.59466          1.7314        -2.12492
LJ         -0.493506        0.349567       -0.976279
LJ         -0.396821         3.00463         1.92141
LJ           1.71671        -4.10067         1.76471
LJ            5.6219         1.60686         -5.6727
LJ           1.13279         4.89513        0.535896
LJ         -0.727586       -0.118002        -2.17093
LJ          0.938542         3.99284       -0.445935
LJ          -3.25225       -0.941336        -4.73315
LJ           1.31132         2.83504       -0.303712
LJ          0.307685        -3.31982        0.455371
LJ          0.936724        -2.22276        0.496722
LJ          -4.11371        -4.24852         1.87619
