108
#Comment!
LJ          -2.95866        -2.95866        -2.95866
LJ         -0.794782       -0.794759        -3.37328
LJ          -3.37328        -0.79477       -0.794774
LJ         -0.794779        -3.37327       -0.794782
LJ         -0.814759        -2.34655        -2.34652
LJ          0.531407       -0.791422        -3.50262
LJ         -0.614073        -1.56006        -1.56006
LJ          0.531405        -3.50262       -0.791424
LJ           0.53008         -2.3001        -2.30011
LJ            2.0663        0.339287        -1.01701
LJ           1.63644         5.09218         5.09218
LJ            2.0663          -1.017        0.339277
LJ          -2.34654       -0.814742        -2.34657
LJ         -0.791418        0.531403        -3.50265
LJ          -3.50263        0.531413       -0.791416
LJ          -1.56003        -0.61404        -1.56003
LJ         -0.664349       -0.664344        -2.17083
LJ        -0.0181358      -0.0181549        -1.57209
LJ          -1.48513       -0.147778        -2.81001
LJ         -0.147809        -1.48512        -2.81002
LJ           1.21191       -0.163241        -2.77479
LJ           1.74231       -0.935976        -2.11469
LJ          0.327344       -0.686925         -2.2422
LJ           3.21998        -1.20678        -2.34585
LJ           -2.3001        0.530086         -2.3001
LJ          0.339276          2.0663        -1.01701
LJ          -1.01702         2.06629        0.339264
LJ           5.09218         1.63644         5.09218
LJ         -0.163229         1.21194        -2.77479
LJ         -0.935932         1.74233        -2.11474
LJ          -1.20679         3.22002        -2.34586
LJ         -0.686902        0.327343        -2.24219
LJ        -0.0878629      -0.0878657        -3.11707
LJ          0.946375        0.946373        -2.07181
LJ          0.169804         2.16291        -2.44131
LJ           2.16291        0.169783        -2.44131
LJ          -2.34651        -2.34653       -0.814761
LJ          -1.56004        -1.56004       -0.614003
LJ          -3.50264       -0.791415        0.531407
LJ         -0.791428        -3.50263        0.531409
LJ         -0.664357        -2.17083        -0.66436
LJ         -0.147795        -2.81002        -1.48514
LJ          -1.48513        -2.81001       -0.147778
LJ        -0.0181325        -1.57207      -0.0181565
LJ           1.21192        -2.77481       -0.163225
LJ              3.22        -2.34588        -1.20682
LJ          0.327337        -2.24219       -0.686912
LJ           1.74241         -2.1147       -0.935912
LJ          -2.17083       -0.664348        -0.66434
LJ          -2.81002       -0.147796        -1.48513
LJ           -1.5721       -0.018154      -0.0181437
LJ          -2.81002        -1.48511       -0.147786
LJ         -0.748003       -0.748015       -0.748029
LJ            0.6958        0.695914        -0.92098
LJ         -0.920995        0.695879        0.695827
LJ          0.695833       -0.920961        0.695892
LJ          0.298056       -0.746018       -0.746014
LJ           1.13696      -0.0302855        -1.63462
LJ            1.3275       -0.852145       -0.852138
LJ           1.13692        -1.63463      -0.0302744
LJ          -2.77479         1.21192       -0.163235
LJ          -2.34585         3.22001        -1.20678
LJ          -2.11474         1.74233       -0.935942
LJ           -2.2422         0.32734       -0.686909
LJ         -0.746128        0.298037       -0.746123
LJ        -0.0303054         1.13693        -1.63461
LJ           -1.6346         1.13694       -0.030308
LJ         -0.852122         1.32753       -0.852127
LJ           1.71653         1.71655        0.894642
LJ           1.35508         1.35508       -0.334467
LJ           1.13422          2.1758        -3.01898
LJ            2.1758         1.13422        -3.01898
LJ          -2.30011        -2.30012         0.53008
LJ           5.09218         5.09218         1.63644
LJ          -1.01701        0.339272         2.06631
LJ          0.339272        -1.01701          2.0663
LJ         -0.163254         -2.7748         1.21193
LJ         -0.686887        -2.24219        0.327328
LJ          -1.20682        -2.34588         3.22003
LJ          -0.93592         -2.1147         1.74241
LJ        -0.0878604        -3.11707      -0.0878625
LJ            2.1629        -2.44132        0.169785
LJ          0.169799        -2.44133          2.1629
LJ          0.946396        -2.07187        0.946397
LJ          -2.77479       -0.163247          1.2119
LJ          -2.24218       -0.686936        0.327354
LJ          -2.11472       -0.935965          1.7423
LJ          -2.34584        -1.20678         3.21998
LJ         -0.746071       -0.746076         0.29802
LJ         -0.852127       -0.852129          1.3275
LJ          -1.63462      -0.0302893         1.13697
LJ        -0.0302852        -1.63463         1.13691
LJ           1.71651        0.894636         1.71652
LJ            2.1758        -3.01898         1.13422
LJ           1.13422        -3.01898          2.1758
LJ            1.3551       -0.334447         1.35507
LJ          -3.11706      -0.0878803      -0.0878642
LJ           -2.4413         2.16291        0.169783
LJ           -2.0718         0.94636         0.94635
LJ           -2.4413        0.169775         2.16291
LJ           0.89465         1.71657         1.71654
LJ          -3.01897          2.1758         1.13422
LJ         -0.334449         1.35505         1.35507
LJ          -3.01897         1.13422          2.1758
LJ           4.89821         4.89821         4.89821
LJ           1.78064         1.78064        -1.37595
LJ          -1.37596         1.78064         1.78064
LJ           1.78065        -1.37596         1.78065
