108
#Comment!
LJ           -2.1221        -1.49943       -0.262306
LJ          -4.45175        -4.53092        -6.11456
LJ          -5.22713        -4.50441        -4.02253
LJ          -4.79749         -5.4688         -4.5133
LJ           1.57597        -2.76406        -1.23711
LJ         -0.682288        0.522484        -2.49984
LJ          0.846495        -1.83518       -0.945974
LJ           0.79862        -2.63549       -0.298962
LJ        0.00125357        -1.36134        -1.87157
LJ           1.75496       0.0763034       0.0897682
LJ           4.43854         3.15019         3.40505
LJ           1.62549        -1.24749         1.53687
LJ          -1.67726        -1.12329        -2.37939
LJ        -0.0112703          2.4685        -2.00026
LJ          -2.21057        0.744668        0.245996
LJ          -1.03807         1.92964       -0.635479
LJ          -1.36167        0.120724        -1.54708
LJ          0.653604        0.238706        0.138876
LJ          -1.80456         1.13308        -2.90773
LJ         -0.890696        -1.08843        -1.55062
LJ          0.978077        -1.68354        -2.59623
LJ            1.0733       -0.919633        -1.63807
LJ         0.0681372       -0.488853        -1.29052
LJ           4.87165        -2.67595         6.04996
LJ         -0.855892         1.80862        -5.84255
LJ          0.788302         1.80421        -1.93804
LJ          0.439004         1.87697       -0.675131
LJ            4.6542        -3.16253         4.43759
LJ         -0.585338         1.62165        -2.72375
LJ         -0.952677         2.16853         -1.6882
LJ          -2.67412         4.70282         6.09286
LJ          -0.22159        0.514344        -1.49794
LJ         0.0252125         1.04286        -3.30155
LJ          0.478345         0.84369        -2.31099
LJ         -0.157478         1.51668        -1.58872
LJ          0.268934       -0.129246        -2.25123
LJ         -0.865429        -2.21205        -1.02967
LJ          -2.07967       -0.761779         1.61475
LJ          -2.09316        0.312572         1.51743
LJ          0.614699        -2.40423        0.820579
LJ          -1.08303        -1.27595       -0.327964
LJ         0.0458924        -2.55311        -1.45166
LJ         -0.885872        -2.12959         1.05826
LJ         -0.266268        -0.74078        0.245942
LJ           0.80688        -3.77292       -0.590602
LJ           5.95008         5.12329        -2.66736
LJ          -0.15308        -1.35531        -0.72128
LJ           1.98895       -0.780965       -0.544291
LJ          -1.37577        0.759486       -0.722548
LJ          -1.29296         1.16063        -1.86375
LJ         0.0117745       0.0368636         1.23959
LJ          -1.51669         -1.4422        0.672284
LJ          -0.62745       -0.082191       -0.667997
LJ          0.935261        0.992354       -0.760258
LJ           1.12447        0.574954         1.18692
LJ           1.17278       -0.741498        0.741999
LJ          0.856842       -0.664817       -0.607529
LJ          0.835203        0.154308        -1.37653
LJ           1.90002       -0.145376        -1.68731
LJ          0.674946        -1.61685       0.0144675
LJ           -2.4166        -1.02223        -1.27921
LJ           5.64173         5.23947        -5.78745
LJ           -2.5409         1.05854        -1.44918
LJ          -1.63602       -0.421482       -0.612648
LJ           1.07828         1.32841        0.353958
LJ         -0.215026        0.953596       -0.548815
LJ         -0.504672        0.415386        0.383108
LJ          -1.10793         1.26482         0.19081
LJ            3.4798         5.19169         1.87211
LJ           4.19229          4.1657         3.53352
LJ          -3.63889         3.38561         5.29016
LJ           3.19412        -3.73485         5.32396
LJ          -1.20459        -2.33796        0.032382
LJ           3.28824         2.67151         3.55968
LJ         -0.752024        0.962617         1.41721
LJ          0.551781       -0.524689         2.18322
LJ          -1.26997         -3.1007         1.20482
LJ         -0.621603       -0.886719         1.16619
LJ          -2.40619         6.13248         5.15144
LJ          -2.29683        -2.10412          1.3284
LJ         -0.324411        -1.81657        0.311131
LJ           1.81536        -1.80822         0.49442
LJ         -0.180376         -2.1442          1.9905
LJ          0.233926        -1.46262         1.22996
LJ          -2.40299       -0.286906        0.668277
LJ          -1.31127       -0.518758        0.338873
LJ          -2.29572        -3.20349         1.20767
LJ           6.09083        -2.60096         4.88669
LJ         -0.494462       -0.199727         2.12738
LJ          -1.24529        -1.54761         1.91789
LJ          0.151352          1.3239        0.927125
LJ         -0.111964       -0.938355         2.95742
LJ          0.833787        -1.69553         2.23115
LJ           3.27907         5.24308        -3.75723
LJ          -3.68443         5.26152         3.35107
LJ           5.74328         2.58939         6.12326
LJ          -1.22779       0.0433874         1.15813
LJ          -2.04245         1.75676       -0.213932
LJ         -0.266864         2.55493        0.037853
LJ          -2.58345        -2.33875        0.278872
LJ           2.49418         5.40758         4.75959
LJ           5.39792         3.48762         -3.4731
LJ           3.24875         4.32693         4.52398
LJ           5.16998        -3.76629         3.49417
LJ           3.24408         3.82131         3.54255
LJ          -4.95404        -5.10092        -1.96711
LJ           -4.2284        -5.30088        -5.32588
LJ          -2.99691        -3.78797        -4.63192
