108
#Comment!
LJ          -1.85055        -1.85055        -1.85055
LJ          -1.70395        -1.70395        -3.00718
LJ          -3.00718        -1.70395        -1.70395
LJ          -1.70395        -3.00718        -1.70395
LJ          -1.78103        -2.61356        -2.61356
LJ           1.14597        -2.93976        -3.86471
LJ           -0.8581        -2.19537        -2.19537
LJ           1.14597        -3.86471        -2.93976
LJ          0.201126        -3.08058        -3.08058
LJ           1.99678        -1.26906        -3.07468
LJ          0.627812        -1.69297        -1.69297
LJ           1.99678        -3.07468        -1.26906
LJ          -2.61356        -1.78103        -2.61356
LJ          -2.93976         1.14597        -3.86471
LJ          -3.86471         1.14597        -2.93976
LJ          -2.19537         -0.8581        -2.19537
LJ          -1.09587        -1.09587         -2.1497
LJ        -0.0171798      -0.0171798        -2.17612
LJ         -0.940237       -0.139998        -1.72964
LJ         -0.139998       -0.940237        -1.72964
LJ           1.85434        -2.22059        -3.85859
LJ           1.53624        0.703153        -2.61877
LJ           1.17366       -0.246703        -2.23978
LJ           2.78823        -2.21969        -2.93193
LJ          -3.08058        0.201126        -3.08058
LJ          -1.26906         1.99678        -3.07468
LJ          -3.07468         1.99678        -1.26906
LJ          -1.69297        0.627812        -1.69297
LJ          -2.22059         1.85434        -3.85859
LJ          0.703153         1.53624        -2.61877
LJ          -2.21969         2.78823        -2.93193
LJ         -0.246703         1.17366        -2.23978
LJ          0.608817        0.608817        -2.96402
LJ          0.716646        0.716646        -1.77024
LJ          0.621989         1.90395        -1.69729
LJ           1.90395        0.621989        -1.69729
LJ          -2.61356        -2.61356        -1.78103
LJ          -2.19537        -2.19537         -0.8581
LJ          -3.86471        -2.93976         1.14597
LJ          -2.93976        -3.86471         1.14597
LJ          -1.09587         -2.1497        -1.09587
LJ         -0.139998        -1.72964       -0.940237
LJ         -0.940237        -1.72964       -0.139998
LJ        -0.0171798        -2.17612      -0.0171798
LJ           1.85434        -3.85859        -2.22059
LJ           2.78823        -2.93193        -2.21969
LJ           1.17366        -2.23978       -0.246703
LJ           1.53624        -2.61877        0.703153
LJ           -2.1497        -1.09587        -1.09587
LJ          -1.72964       -0.139998       -0.940237
LJ          -2.17612      -0.0171798      -0.0171798
LJ          -1.72964       -0.940237       -0.139998
LJ          -1.14467        -1.14467        -1.14467
LJ         0.0904428       0.0904428         -1.0486
LJ           -1.0486       0.0904428       0.0904428
LJ         0.0904428         -1.0486       0.0904428
LJ          0.631816       -0.916405       -0.916405
LJ           1.08059        0.015202        -1.09407
LJ          0.646274       -0.153311       -0.153311
LJ           1.08059        -1.09407        0.015202
LJ          -3.85859         1.85434        -2.22059
LJ          -2.93193         2.78823        -2.21969
LJ          -2.61877         1.53624        0.703153
LJ          -2.23978         1.17366       -0.246703
LJ         -0.916405        0.631816       -0.916405
LJ          0.015202         1.08059        -1.09407
LJ          -1.09407         1.08059        0.015202
LJ         -0.153311        0.646274       -0.153311
LJ           1.13934         1.13934       -0.848175
LJ           1.54634         1.54634        -1.77708
LJ           1.85763         2.78447         1.14392
LJ           2.78447         1.85763         1.14392
LJ          -3.08058        -3.08058        0.201126
LJ          -1.69297        -1.69297        0.627812
LJ          -3.07468        -1.26906         1.99678
LJ          -1.26906        -3.07468         1.99678
LJ          -2.22059        -3.85859         1.85434
LJ         -0.246703        -2.23978         1.17366
LJ          -2.21969        -2.93193         2.78823
LJ          0.703153        -2.61877         1.53624
LJ          0.608817        -2.96402        0.608817
LJ           1.90395        -1.69729        0.621989
LJ          0.621989        -1.69729         1.90395
LJ          0.716646        -1.77024        0.716646
LJ          -3.85859        -2.22059         1.85434
LJ          -2.23978       -0.246703         1.17366
LJ          -2.61877        0.703153         1.53624
LJ          -2.93193        -2.21969         2.78823
LJ         -0.916405       -0.916405        0.631816
LJ         -0.153311       -0.153311        0.646274
LJ          -1.09407        0.015202         1.08059
LJ          0.015202        -1.09407         1.08059
LJ           1.13934       -0.848175         1.13934
LJ           2.78447         1.14392         1.85763
LJ           1.85763         1.14392         2.78447
LJ           1.54634        -1.77708         1.54634
LJ          -2.96402        0.608817        0.608817
LJ          -1.69729         1.90395        0.621989
LJ          -1.77024        0.716646        0.716646
LJ          -1.69729        0.621989         1.90395
LJ         -0.848175         1.13934         1.13934
LJ           1.14392         2.78447         1.85763
LJ          -1.77708         1.54634         1.54634
LJ           1.14392         1.85763         2.78447
LJ          0.593532        0.593532        0.593532
LJ           2.00026         2.00026        0.198615
LJ          0.198615         2.00026         2.00026
LJ           2.00026        0.198615         2.00026
