108
#Comment!
LJ            1.6231       -0.699924         1.16413
LJ           2.75258        -1.58684         1.34751
LJ          -1.65315       -0.514123         2.57366
LJ          -3.24753         2.44843         1.77528
LJ           2.64654        -1.25307        0.379099
LJ           1.76987         1.03138        -1.43573
LJ           2.36049        0.227094         1.07841
LJ           2.62699        0.189238        -1.13832
LJ           1.49246        -1.57174        0.520885
LJ           2.07165        -1.40681       -0.624898
LJ          -1.86688         3.48325        0.371033
LJ           1.21695        0.807602         2.52132
LJ          -0.48613        -1.93596       0.0908254
LJ           3.23898       -0.646371       -0.425913
LJ         -0.439005         1.14383         3.22227
LJ         -0.106465        0.839701         1.69289
LJ          0.617079        -1.51912        -2.22076
LJ          0.582326        0.702541         0.27535
LJ         -0.771289         1.75437         2.37539
LJ         -0.502293       -0.797232       -0.743688
LJ           1.31995        -3.72449        0.714043
LJ           1.33658        0.506537        -0.42286
LJ           1.74426       -0.466946        -1.86359
LJ           5.70741         4.34732           3.052
LJ           -4.3892        -4.51504         5.41374
LJ          -1.87477         3.42385       -0.698485
LJ          -3.35158         5.86924       -0.593814
LJ         -0.820591        -6.14347          4.0315
LJ          0.447322         2.30217         1.87485
LJ          -3.03472        0.375238         1.22599
LJ          -1.20561        0.548446         1.30879
LJ          -2.22787        -4.13253         4.86847
LJ          -0.14564        -1.33909        -1.56782
LJ           1.11344        -1.20252        -1.35077
LJ          -1.04912         2.62091         0.38443
LJ          0.404857        -1.41945       -0.617583
LJ         -0.678861        -2.22744        -1.05143
LJ         0.0906718       -0.636945        -2.22783
LJ           -1.8834         0.46696          2.2614
LJ           2.35862        0.955173       -0.131651
LJ           1.54001         1.38588        0.453806
LJ          0.827376        -2.62697        0.384929
LJ          -1.61524       -0.641993       -0.531239
LJ          -1.49955        -1.41801        0.232025
LJ           1.59467      -0.0400021         1.88521
LJ           1.85307        -3.98907         3.21422
LJ           1.20481        -2.12223       -0.580585
LJ           2.15816       -0.277686        0.186146
LJ          -1.22115      -0.0189479        0.183647
LJ          -1.58012         1.44797         1.77609
LJ           -1.5171        0.357341         3.58313
LJ          -1.15716        0.482236       -0.777912
LJ          -1.37814        -2.32175        0.735373
LJ          -1.44639         2.80321        -1.44442
LJ           1.05729         1.35698         1.47551
LJ           2.22663         1.80816         1.87557
LJ            1.1295        -0.43297        0.301889
LJ         -0.101241       0.0032162        -1.30172
LJ           2.31075        -2.57335       -0.144744
LJ           3.51102        0.748118       -0.278035
LJ          -0.50221         1.44634        -1.08284
LJ          -5.93822         2.68271        -3.24891
LJ          -0.83515       -0.995938        0.989194
LJ          -1.13084       -0.271934        -1.52173
LJ       0.000537021         2.16259      -0.0965113
LJ          0.410536         1.27674        -1.82418
LJ           1.02205       -0.685306         2.51699
LJ           0.90071         2.26074        0.515037
LJ          -4.90806         6.35325         6.17852
LJ         -0.842337         2.01177         1.28782
LJ          -4.84929        -2.24285         5.86178
LJ            2.6624       -0.234135         2.04907
LJ           1.35436         0.39646        0.945982
LJ          0.142634         1.67284         1.10495
LJ          -2.51769         1.39281         2.47872
LJ         -0.111567       0.0187782         3.59269
LJ         -0.152026       -0.854071        0.254401
LJ         -0.340588        0.310578       -0.180863
LJ           1.06918        -6.32605         5.67287
LJ          0.512221        -1.56778        0.562307
LJ          0.375374         1.00802       -0.768095
LJ          0.602521       -0.340786       -0.668851
LJ          -0.19886       -0.439356         1.91851
LJ          0.153944       0.0304807        0.870592
LJ          0.338437         1.39446         2.53583
LJ          -1.71592         1.34616        0.665029
LJ           1.15125       -0.398839         3.77982
LJ           1.93589         2.50074        -1.33844
LJ          0.287649        0.146694         2.57983
LJ          -0.63507       -0.992847         2.92049
LJ          -1.86016         2.33067         1.26285
LJ          0.142227         2.36877         3.01853
LJ          0.678798        -1.85572         1.67999
LJ           2.58928         5.93658       -0.290232
LJ          -4.56085         4.05404         3.70758
LJ         -0.797851        -4.46487        -0.11745
LJ         -0.432286         1.14076        0.359632
LJ           1.18207         1.62543        -0.51082
LJ           1.61839       -0.510567       -0.763671
LJ           3.85644       -0.745448        -5.27388
LJ           2.60852         2.40137        0.732978
LJ          -1.37447         1.74422       -0.309636
LJ           3.91714      0.00141968         2.01329
LJ          -4.13877       -0.211279         4.90296
LJ          0.936032        0.164724        -1.54223
LJ           0.52256        -2.15609        -1.33014
LJ          -1.47495       0.0349574         5.82313
LJ         -0.875892         4.23438         6.39965
