108
#Comment!
LJ          -1.91497        -1.91567       -0.273092
LJ          -4.64272        -5.41845         4.55079
LJ          -6.16746        -6.00195        -4.19655
LJ           5.81836         6.40955         -3.6256
LJ           2.38112        -2.24157        0.286463
LJ         -0.729715          1.0303        -2.29855
LJ          0.819686        -1.78397       -0.716171
LJ          0.423115        -2.52987     -0.00528595
LJ          -0.22135        -2.25502        -1.71308
LJ            1.1257        0.652496       -0.286899
LJ           3.28126         2.61075         2.81268
LJ           1.11051        -1.38237          2.0104
LJ         -0.668197        -1.45213        -2.50649
LJ         0.0128033         3.28468        -1.39376
LJ          -1.11466         1.26248       0.0290079
LJ         -0.552966         2.31876        -1.22652
LJ          -1.60145       0.0148689        -1.27251
LJ          0.481544        0.167537        0.357434
LJ           -2.0833         1.48706        -1.08885
LJ         -0.603419       -0.828148        -1.14671
LJ           1.17827       -0.969307        -2.60737
LJ           1.12501        -0.79655        -1.35096
LJ          0.342643        -1.32036        -1.88105
LJ           3.69711        -1.52639         4.04223
LJ         -0.387111         3.13648         4.53692
LJ           0.81713         2.86954        -2.14451
LJ          0.961293         2.18762        -1.29976
LJ           3.69178      -0.0841833         3.76041
LJ         -0.375635         2.27413        -2.31087
LJ           -1.0813         3.16299        -1.91714
LJ          -1.45827         3.00494         5.02054
LJ         -0.420876        0.238863        -1.58576
LJ          0.650926         1.74781        -2.59607
LJ          0.361248        0.720392        -2.37877
LJ          0.103132         1.49511        -1.56005
LJ          -1.25348         -0.1317        -2.30576
LJ          -1.25065        -2.04285         -1.0891
LJ          -2.08661       -0.918195         1.54663
LJ          -1.57448        0.840975        0.946633
LJ          0.431613        -2.29685         1.06008
LJ          -1.09835        -1.26926      -0.0194508
LJ         -0.868909        -3.23354        -1.16335
LJ          -2.29969        -1.10235          0.4398
LJ          -0.44455       -0.563799        0.335747
LJ         -0.207412        -3.51364        0.160875
LJ           6.29356          2.4188        -1.71588
LJ         -0.262784        -1.67841       -0.614207
LJ           1.95015        -1.19756       -0.782997
LJ          -0.69448        0.175226       -0.552212
LJ          -1.11267        0.946836        -1.18444
LJ         0.0177236      -0.0200592         1.49976
LJ          -3.11524       -0.294916       -0.525133
LJ          0.264477       -0.377028       -0.447848
LJ           1.16082         1.14748        -1.62596
LJ           1.28637        0.294701         1.25994
LJ          0.979016       -0.660678         1.14047
LJ           1.19545       -0.579664        -0.23185
LJ          0.699529        0.215625        -1.35407
LJ           1.80732      -0.0481904        -1.05398
LJ          0.860274        -1.56607        0.397212
LJ          -1.99982        -1.09696           -0.98
LJ           4.13478         4.75811         4.02982
LJ          -1.94046        0.701259        -0.22068
LJ          -1.60268       -0.375257       -0.243839
LJ          0.663792         1.23536        0.554427
LJ          0.228544        0.897226       -0.595199
LJ         -0.359156         0.68079         0.45169
LJ         -0.262936         1.70086       -0.289672
LJ           3.36638         5.73987         2.85508
LJ           3.66275         3.39798         3.65598
LJ           -4.4286         2.46569         6.06171
LJ           1.56753        -4.48264         6.27641
LJ         -0.961252        -2.41381      -0.0551422
LJ           3.16915         1.84519         1.91195
LJ         -0.617027         0.90555         1.56425
LJ          0.780362       -0.389633         2.15111
LJ          -1.12448        -3.26318        0.914782
LJ           -1.1916        -1.26712         1.02135
LJ         -0.781052         5.07959         4.43975
LJ          -1.75682        -2.15808         1.66026
LJ          -0.19868        -1.70007        0.419296
LJ           1.89295        -1.25641        0.368231
LJ         -0.735313         -2.1609         1.27637
LJ          0.112552        -1.33865         1.37537
LJ          -2.51452       0.0182466         0.51499
LJ          -1.36578       -0.230416        0.855933
LJ          -1.47599        -3.56475         1.84879
LJ          -5.98578        -1.14464         4.20006
LJ        -0.0870343       -0.713725          2.5828
LJ         -0.916946        -1.48405         2.09245
LJ         -0.923787         1.88749        0.827724
LJ          0.382667        -1.35299         3.75677
LJ         0.0544928         -2.1604         2.07817
LJ           2.00575         5.81146        -4.90606
LJ          -4.68725         5.89395         2.21385
LJ          -6.45758         2.37888        -5.82712
LJ          -1.06992       -0.271388         1.98077
LJ          -1.41642         2.04729       -0.534998
LJ          0.503708         2.21704        0.146908
LJ          -0.46903        -4.52691       -0.310797
LJ           4.00194          5.6014         4.97475
LJ           6.25562         2.69199        -4.08943
LJ           2.64062         4.49423          4.0399
LJ           5.32402        -4.69487         3.23441
LJ            2.7484         3.36559         4.12612
LJ          -3.08367        -2.24737        -1.13982
LJ           6.00598        -2.17012        -5.15873
LJ          0.338621         5.92392        -1.93963
