108
#Comment!
LJ          0.519235        -1.08944       -0.189011
LJ           4.37728        0.591481         4.93752
LJ          -2.06518        0.710503      -0.0413288
LJ           -0.3808         -4.6617        -2.07468
LJ           1.38422        -2.03536       -0.828559
LJ          0.799011         2.28281       -0.613805
LJ           1.69877       -0.733639         1.42641
LJ           2.75535        -1.53967         0.87115
LJ           1.23019        -1.76054        0.419758
LJ           1.29965       -0.274168        -1.86781
LJ         -0.894315         2.31801       -0.309956
LJ           1.66123         1.40354         2.09066
LJ         -0.249536        -1.58509        -2.14695
LJ           2.18557        -1.07996        -1.25601
LJ          -1.79212         1.01027         3.21312
LJ           1.28368         3.59501         1.84459
LJ          0.283094         1.71707         -1.7357
LJ         -0.455007       -0.679539        0.654746
LJ         -0.604504          1.8839         1.31339
LJ         -0.365253        -1.05748        -1.29872
LJ          0.208592        -2.30155        -1.39168
LJ            1.2679     -0.00820001        0.727679
LJ         -0.350593         2.19029        -2.49485
LJ            2.6835         5.80345        -2.06593
LJ           2.83947         0.84821        -4.47198
LJ          -1.20003           3.563        0.494152
LJ          -2.26301         2.72091        0.569199
LJ          -4.52396         3.75239         -3.4785
LJ            1.2735         1.69538        0.773824
LJ           5.28853         4.68913         6.36161
LJ          -1.45915        -0.01035         2.49221
LJ          0.752796        -1.18398        -2.36897
LJ         0.0555965        0.282368        -1.30835
LJ           1.03994        -1.18464          -1.278
LJ         -0.968266         1.45932        0.368424
LJ         0.0434456       -0.489834        -2.18022
LJ         -0.627428        -2.28856       -0.687326
LJ          -1.01383         1.71309        -1.84173
LJ          -1.36021        0.809201          1.2522
LJ           2.47275        0.546445         1.02151
LJ          0.721522       -0.967064        0.944724
LJ          0.523681        -2.00595         1.16181
LJ          -1.73563        -1.19299        0.427775
LJ          -0.72196       0.0120708         1.61785
LJ          0.685429       -0.837503         2.09872
LJ           5.55063        -2.22798       -0.508557
LJ          0.975966        -3.04994         1.00253
LJ           2.20626       -0.511818        0.465862
LJ         -0.797401        -1.04353       -0.269177
LJ          -2.03242         1.87311       -0.188191
LJ         -0.328783       -0.326686         2.42114
LJ          -1.46552        0.484761       -0.869185
LJ           0.27872         -2.4677        0.218439
LJ         -0.678623         1.22829        -0.73555
LJ           1.06191        0.699722         1.46978
LJ            1.2521         1.01218       0.0538387
LJ           1.57084       -0.983145       -0.316908
LJ          0.807277       -0.106138       -0.497457
LJ           1.57326        -1.96253        -1.81792
LJ           1.77237        -1.18895        -2.57247
LJ         -0.883571       -0.119835        -1.46745
LJ          -2.58652         1.20868        -2.12457
LJ          -2.91866       0.0213315         0.11549
LJ          -1.70832        -1.74793       -0.714283
LJ          0.260438         1.64202        0.926209
LJ          -0.55542        0.213306       -0.302605
LJ         -0.880913        0.990839         2.13189
LJ          0.729903         2.60863        0.358005
LJ            4.1674        -5.53821       -0.583169
LJ         -0.303964        0.773678         1.00062
LJ          -3.97239         3.80637         5.33505
LJ           4.86981         1.50296         3.92686
LJ          0.239292       -0.139005         1.42516
LJ         -0.311605         2.71498        0.765473
LJ          -1.44646         2.57002         1.19231
LJ          0.986865        0.502242         3.10851
LJ          -0.41382        -2.46196         1.21573
LJ         -0.854034        -1.59903        0.648292
LJ           2.04426        -1.78169        -6.24234
LJ           2.45556       -0.881133         2.40117
LJ          0.279239        0.474912        0.223691
LJ           1.81552        0.217837       -0.483849
LJ         -0.246133         -1.2916         1.60537
LJ           1.47756       0.0415834         2.30862
LJ          0.066774         2.53633         1.83341
LJ          -1.86613      -0.0922813         1.46409
LJ          0.663673         1.62439         2.09193
LJ           2.83497          1.8169       -0.567218
LJ          -0.23667       -0.621263         3.49156
LJ          -1.16766       -0.915043         2.02311
LJ          -1.89439         1.68276        0.854158
LJ         0.0643813        0.685532         2.18829
LJ           1.68275        -1.90582          1.4624
LJ          -5.31377         1.01148         3.95092
LJ           5.99992        -3.08723        -1.59713
LJ          -5.29962         4.99098        -1.75069
LJ          -1.40944       -0.227179        0.504964
LJ         0.0669526         1.62806      -0.0743164
LJ           1.83507         1.69011       -0.816019
LJ           2.93535        -2.28277        -4.45027
LJ           4.03447         3.02138        -6.00527
LJ          -1.89706         1.48733        -1.31323
LJ          -3.15486        -4.38657         6.45116
LJ           6.08341         1.76771         3.30086
LJ          0.536393        0.879192       -0.686311
LJ          -1.56498       -0.840273        -1.83251
LJ           5.48549         2.82358         0.56801
LJ          -6.46228        -5.68668         5.44532
