108
#Comment!
LJ           1.66028       -0.939806         1.07662
LJ           3.31505        -1.60399         2.63642
LJ          -2.02903         0.17938         1.63471
LJ          -1.22868         4.10287         1.12745
LJ           2.94305        -1.61035       -0.519375
LJ           2.24343         1.66315         -1.7712
LJ           1.34532      -0.0809687         1.70856
LJ           2.29076        0.681658       -0.463885
LJ           2.09941        -1.85765        0.237219
LJ          0.969473        -1.38755        -1.57476
LJ         -0.942912          2.8769         1.12076
LJ           1.81052         1.91472         1.87109
LJ         -0.922273        -2.93784        0.432953
LJ           2.07954       -0.432957       -0.533897
LJ          -1.86191        0.452911         2.76249
LJ          0.747964         1.92756         2.05017
LJ          0.671859        -0.39649         -2.1471
LJ         -0.012728        0.410279        0.307628
LJ         -0.465774         1.74422         2.15225
LJ         -0.831804        -0.71482       -0.874032
LJ          0.671627        -3.26885       -0.415321
LJ           1.29911        0.134141      -0.0900215
LJ           1.46576        0.401645        -2.44227
LJ           4.94441         5.38275         1.14681
LJ          -1.94575         5.64193          5.7188
LJ           -1.9229         2.82984        0.412748
LJ          -3.47333         4.81469       -0.179854
LJ          -2.01146         5.64794          -6.022
LJ           1.12623         1.68979         3.01817
LJ          -5.04628         1.89624         2.73961
LJ         -0.845767        0.245713         1.06841
LJ         -0.853187        -2.82996        -5.57591
LJ         -0.313272       -0.539068        -1.77923
LJ          0.174151         -1.2186       -0.678946
LJ          -1.25033         1.86631        0.472261
LJ         -0.167154        -2.10815       -0.105405
LJ          -1.33413        -2.02673       -0.495548
LJ          0.567147        0.950278        -2.12706
LJ          -1.49754         1.17665         1.78711
LJ           1.62534         1.07829        0.447853
LJ            1.9561        0.111735        0.738978
LJ           1.57277        -3.11732        0.381352
LJ          -1.52047        -1.01589      -0.0333486
LJ          -1.21136       -0.992716        0.960512
LJ          0.410007       -0.450841         2.15778
LJ           3.45182         -3.6402         1.87458
LJ           1.13552        -2.21423       0.0813138
LJ           3.19705       0.0885288       0.0401123
LJ         -0.863088       -0.100003       0.0441346
LJ          -2.24892         1.89041        0.876023
LJ          -1.67549       -0.689374         2.67043
LJ          -1.56435        0.721688       -0.390971
LJ         -0.890478        -3.33533         1.49099
LJ          -1.17764         1.70097        -0.67268
LJ          0.672451         1.47639         1.03629
LJ           2.71641         1.65527        0.712874
LJ            1.2328        -1.23851       -0.468912
LJ        -0.0841844       0.0894273       -0.976937
LJ           1.55114        -2.16522       -0.895602
LJ           3.32596       -0.959799        -1.21229
LJ         -0.662419        0.951758        -1.58053
LJ          -3.70966         2.07115        -2.92203
LJ          -2.08372       -0.132502        0.254779
LJ          -1.49961       0.0504516        -1.26836
LJ          -0.17346         2.13868       -0.335118
LJ          0.195466         1.97335        -1.48252
LJ         0.0988526       -0.181784          3.1965
LJ          0.975653         1.89398       -0.063255
LJ          -5.91602        -4.32043         4.02798
LJ         -0.416379         1.28495        0.975214
LJ          -4.95646        -1.79142         5.22762
LJ           1.44842       -0.444582         2.94904
LJ          0.775022       -0.343534        0.798692
LJ          0.130799         2.31586        0.712613
LJ          -1.53372          2.2949         1.93588
LJ          0.462992        0.952313         3.74954
LJ          0.853722        -1.74371        0.947864
LJ         0.0150263        -0.56185        0.112814
LJ           1.54879        -4.66906         6.23647
LJ           1.94908        -1.88077         1.34227
LJ          0.579022         1.04545       -0.610896
LJ           1.04569       -0.379163        -1.17675
LJ         0.0998882       -0.991513         1.18999
LJ          0.198469        0.590562         1.57418
LJ         -0.890616         1.31769         3.10567
LJ          -1.53574        0.933818        0.580138
LJ          0.194369        0.952616         2.63781
LJ            1.6272         2.87815        -2.26788
LJ         -0.625635        0.170457         2.49308
LJ         -0.477098        -1.24345         2.59467
LJ          -2.75242         2.91916         1.23984
LJ         0.0620373         2.04726         3.10239
LJ           1.03423        -1.39282          1.8936
LJ           4.34274         3.97149         1.47064
LJ           -5.4646         6.17989        -6.41363
LJ          -3.05394        -6.14787        -1.04916
LJ         -0.492822        0.964127       -0.508467
LJ           1.88871         1.67428       -0.645148
LJ           2.26168         0.33179        -1.41975
LJ           3.43568        -1.32058        -5.17175
LJ           3.46787         2.96947         3.30256
LJ          -2.24066         2.02087       -0.291577
LJ           6.12427        -1.61544         3.64197
LJ          -5.06836        0.267772         4.56444
LJ           1.23913        0.662693        -1.32722
LJ          0.164741        -2.11745        -1.23272
LJ           1.08502        -3.76478         3.97786
LJ          -2.36816         5.96317         1.55145
