108
#Comment!
LJ          0.324254        -1.34027       -0.224948
LJ           4.99379          1.4379         6.04276
LJ          -1.65451         1.02088       -0.136601
LJ         -0.132575        -3.43551        -2.94808
LJ           1.21263        -2.22302       -0.806634
LJ          0.296453         2.58384        -0.26757
LJ           1.31405        -1.19377        0.850577
LJ           2.10742        -2.14787        0.990648
LJ            1.4786        -2.23877        0.223795
LJ           1.27323      -0.0694446        -1.89345
LJ         -0.721715         1.60589        0.141886
LJ           1.73093        0.569044         1.87544
LJ         0.0360691        -1.35805        -2.19682
LJ           2.13233        -1.15265        -1.59101
LJ          -1.16208         1.37884          2.7301
LJ          0.511384         4.09845         1.92422
LJ         -0.406816         1.11993        -2.26466
LJ         -0.313998       -0.603903        0.514732
LJ          -1.00402         1.63809         1.39185
LJ         -0.101763       -0.654915       -0.891593
LJ          0.434041        -2.10382        -1.56904
LJ          0.937514       -0.462619       0.0823268
LJ         -0.419087         2.00777        -2.89652
LJ           2.05776         5.92861        -2.94547
LJ            4.1619       -0.525647        -3.64848
LJ         -0.780461         3.83836       -0.329413
LJ          -1.69701         2.77327       -0.258994
LJ          -5.24737         3.26566        -2.71768
LJ           1.98419          2.1294         1.27789
LJ           4.60358         5.42211        -5.30809
LJ          -1.18302        0.197892         2.74408
LJ           1.06372        -1.07575        -2.34307
LJ          0.506446        0.747398        -1.55294
LJ           1.07897        -1.07124        -1.31162
LJ         -0.643226         0.58427        0.575373
LJ         0.0835889       -0.163155        -1.83113
LJ         -0.613488        -1.77353       -0.958715
LJ          -1.51744        0.921982        -2.09439
LJ          -1.55764         0.77225         1.07067
LJ            1.5459      -0.0476382        0.773704
LJ           0.28029        -1.41727        0.882944
LJ          0.185257        -2.22861         1.79665
LJ          -1.87109        -1.82048       -0.300007
LJ         -0.833192       -0.218267         1.36877
LJ          0.653092        -1.21391         1.96208
LJ           5.72154        -0.65788        -0.20995
LJ          0.933231        -3.18743         1.00458
LJ           2.26904       -0.880026        0.494155
LJ          -1.07056       -0.749685       -0.340331
LJ          -1.29734         1.84398       -0.752615
LJ        -0.0774004        -0.08963         2.29658
LJ          -1.37701        0.614105        -1.05765
LJ          0.353439        -2.33185        0.211293
LJ         -0.223006         1.30586       -0.968045
LJ           1.34263          1.1517        0.875227
LJ           1.71697        0.335615       -0.438574
LJ           1.69378        -1.32646       -0.372268
LJ           0.77412       -0.103538       -0.896425
LJ            1.4218        -2.01059        -1.92315
LJ           2.29378        -0.22711        -2.34896
LJ          -1.09573       -0.327752        -1.54667
LJ          -3.54818         1.24338        -1.89913
LJ          -2.88333        0.637945        0.517134
LJ          -1.94284        -2.00605        -1.54618
LJ          0.086921         1.95047         2.05126
LJ         -0.464418        0.294334       -0.498622
LJ         -0.710527        0.763619          1.9558
LJ          0.719728         2.40544         1.31224
LJ           3.33776        -5.87368         -1.9149
LJ        -0.0661744         1.11402           1.202
LJ            -3.707         5.31075         5.35944
LJ           6.18278         2.26087         4.62007
LJ          0.683589       -0.395529         1.26882
LJ         -0.403947         2.39611        0.909552
LJ          -2.08435         2.22805          1.9957
LJ          0.733645        0.262857         3.01408
LJ         -0.750311        -2.65802         1.48693
LJ          -1.01239        -1.53846        0.768986
LJ           1.91914        -1.09179         6.43998
LJ           3.62293        -1.07201         2.56015
LJ          0.544322        0.533099         0.19111
LJ           2.38553       -0.559143       -0.456575
LJ         -0.381291         -1.0975         1.85244
LJ           1.36122       -0.345453         2.27242
LJ         -0.881178         2.47405         2.09955
LJ          -1.86182        0.174813         1.93808
LJ           1.37523         1.56097         2.10343
LJ           2.48143         3.04243       -0.305681
LJ         -0.628514       -0.382359         3.34548
LJ          -1.51183       -0.818398         2.64886
LJ          -1.87383         1.99314        0.628338
LJ          0.327715        0.904297         2.29571
LJ           1.33775        -2.25168         1.84664
LJ          -5.02814      -0.0785022         4.45246
LJ           5.95053        -3.20709        -1.18755
LJ          -5.70936         4.61026        -1.96972
LJ          -1.49026       -0.162094        0.566471
LJ          0.322484         1.61797        0.280123
LJ           1.22813         2.13405       0.0157124
LJ           3.02509        -2.37894        -3.80353
LJ           4.25267         3.08174        -5.02005
LJ           -2.5042         1.34815        -1.66118
LJ          -2.12138        -5.16934        -5.67482
LJ           5.98851         2.50785         2.83355
LJ          0.907637         1.61265       -0.824501
LJ          -2.30644        -0.33286        -1.10099
LJ          -6.20287          1.0229       -0.402388
LJ           5.11018        -5.53842         2.86243
