108
#Comment!
LJ         -0.460976        -1.94578       -0.150287
LJ           -5.7848         4.49648        -3.04084
LJ          0.661829          2.9133        -2.57498
LJ          0.856957         1.76558        -3.15352
LJ           1.29674        -1.45302       -0.921279
LJ           0.30032         2.56718       -0.171402
LJ           1.52477        -1.78913        0.228347
LJ          0.994171         -2.4624         1.17274
LJ           1.70013        -2.88506      -0.0277749
LJ           1.77227         0.26241       -0.606249
LJ          0.897634         1.33728        0.549099
LJ             1.408       -0.117553         1.72993
LJ         -0.837909       -0.793227        -2.26599
LJ           0.92327         1.22959        -1.59384
LJ         -0.137826         1.48749        0.999826
LJ         -0.757848         3.38822        0.962873
LJ          -1.39872          1.1093        -1.68867
LJ         -0.259803        -0.55328        0.423834
LJ          0.336974         3.49657        0.600713
LJ         -0.235195       -0.601074        -1.01184
LJ           1.06962        -1.23766        -2.11102
LJ          0.502356        -1.22773      -0.0681253
LJ         -0.991983         1.05468        -2.63601
LJ          0.662191         4.86028         5.59061
LJ           -4.3149        -5.36737       -0.888728
LJ         -0.475678         1.48417        -1.51957
LJ         -0.532248         2.23057        -2.28874
LJ           5.17362         1.93185        0.318527
LJ          0.775415         3.67714       -0.503637
LJ           2.28033         6.09017         -2.0414
LJ          -1.80231        0.846091         1.46083
LJ          0.251794        0.977025        -2.50136
LJ         -0.387099        0.535198          -3.436
LJ           1.07815       -0.179451        -1.73946
LJ         -0.143598        0.539375        0.511951
LJ        -0.0891363        0.454604        -1.69696
LJ          -1.58453        -2.23564       -0.809319
LJ           -2.6565        0.525089        -0.87623
LJ           -0.8664         1.38259        0.114746
LJ           1.28532        -1.48977         1.50126
LJ         -0.668379        -1.26349         1.22446
LJ           -0.3659        -2.88147        0.780977
LJ          -2.01149        -1.44512      -0.0927716
LJ          -1.25553       -0.242991           1.544
LJ         0.0392446        -3.36264         1.73439
LJ          -6.19721          6.0105        0.638547
LJ          0.784917        -2.39538       -0.352601
LJ           2.09871        -2.41498        0.900314
LJ          -1.06709        -0.93417       -0.248342
LJ         -0.941525         1.98085       -0.773479
LJ        -0.0598387       -0.270631         1.37978
LJ          -1.58049        0.990812       -0.491078
LJ         0.0215833        -1.69979       -0.985386
LJ         -0.158988         1.03427       -0.573975
LJ            1.2162        0.266978        0.346336
LJ           2.14623       -0.242825        0.635317
LJ           1.75731       -0.709504       -0.244938
LJ          0.568094       -0.252213       -0.453682
LJ           2.19159       -0.172871        -1.40598
LJ           3.18061       0.0435987       -0.793082
LJ          -1.30978       0.0701495        -1.37078
LJ          -5.57485         2.85016         0.67257
LJ          -1.73799         1.52167        0.703191
LJ           -1.8572        -1.21734        -1.24061
LJ          -0.77681          1.8982         1.81287
LJ          -0.76488         0.24664       -0.376161
LJ         -0.581008        0.586064           1.484
LJ           1.20542         2.54978        0.522954
LJ           2.69739         6.40955        -5.59511
LJ          0.576254        0.591851         1.56999
LJ          -3.25382        -2.42127         5.60236
LJ           -2.9152         4.61564          -6.111
LJ          0.269054        -1.74216        0.819105
LJ          0.891641        0.890114       -0.487431
LJ          -1.13675        0.848098         2.38846
LJ        -0.0736616        0.978617         2.37057
LJ          -1.08378        -2.33856         1.53212
LJ          -1.30787        -2.16374        0.483889
LJ            1.4863         1.25284         5.59733
LJ          -6.29957        -1.68286          2.3508
LJ           1.07118       -0.681375         0.80071
LJ           2.51837         -1.4922       -0.639564
LJ         -0.129846        -2.32089         1.86286
LJ          0.336499        -1.16778         1.93823
LJ          -3.05943         1.16292         1.32087
LJ          -1.35297        0.484441         0.51662
LJ          0.817781         -2.6495         2.27554
LJ          -1.66941         3.74635         2.33146
LJ            1.0771       -0.500627         3.57427
LJ         -0.784286        -1.32422         2.36735
LJ         -0.394767         2.49411          0.5485
LJ        -0.0619928       -0.623325         3.07257
LJ        -0.0919069        -2.16463         3.12491
LJ          -3.63378        -3.80273         5.98897
LJ           5.79817        -4.58612       -0.561411
LJ           6.19066         3.01691        -3.36076
LJ           -1.8284        -0.57367        0.514337
LJ          0.533631         2.22244         1.20704
LJ           1.98648         3.81116         1.13611
LJ           2.89537         -2.4296       -0.965113
LJ           5.06488         3.42869         -1.6159
LJ          -4.42108        0.796598        -2.22032
LJ         -0.458415         5.94947         -2.0685
LJ           5.85771         4.85518         2.32737
LJ           1.86154         1.06208         0.76412
LJ          -1.85074      -0.0769998       -0.482088
LJ          -2.29661        -5.23375        -3.39651
LJ         -0.624378        -3.17288        -5.23834
