108
#Comment!
LJ          0.335722        -1.41107        0.160377
LJ           3.99312       -0.128519         4.19968
LJ          -2.26556        0.971233        0.363588
LJ         -0.544777        -5.47741        -1.43646
LJ           1.47164        -1.99934       -0.367796
LJ          0.898878         1.87316       -0.907523
LJ           1.87503       -0.164514         1.06101
LJ           2.66125       -0.975097        0.820764
LJ            1.9112        -1.71858        0.545226
LJ           1.29555      -0.0178816        -1.97785
LJ          -1.24765         2.71102       -0.262713
LJ           2.24917         1.10639         2.43262
LJ          -0.23342        -2.01064          -1.819
LJ           1.82965       -0.926639        -1.38374
LJ          -2.18747         1.01707         3.33903
LJ           1.35148         2.95536         1.64787
LJ          0.412899        0.903882         -1.9077
LJ         -0.146851       -0.341247        0.499808
LJ         -0.754793          1.6355         1.43422
LJ         -0.167953        -1.02671        -0.79535
LJ          0.637675        -1.96782         -1.0813
LJ           1.34239        0.239321        0.363461
LJ         0.0985684         2.17319        -2.44153
LJ           3.13465         5.72409        -1.43486
LJ           1.89341           1.805        -5.04113
LJ          -1.46797         3.35806        0.561189
LJ          -2.45822         3.00541        0.681191
LJ          -4.02931         4.12945        -3.97644
LJ           1.92305         1.89619         1.30926
LJ           5.75116         4.13963         5.48338
LJ          -1.34806        0.146072         1.85519
LJ           1.02415        -1.42148        -2.16473
LJ          0.265131     -0.00816376        -1.38389
LJ          0.826231        -1.02423        -1.22267
LJ          -1.22436         1.62596        0.391819
LJ        -0.0960834         -0.9534        -2.01555
LJ          -0.80378        -1.99841       -0.352379
LJ         -0.332771          2.0478        -1.23162
LJ          -1.69562         1.17998         1.39741
LJ           1.94039         1.04443        0.893349
LJ           1.10153       -0.876742        0.676616
LJ          0.968606        -1.84828        0.998909
LJ           -1.9154        -1.25946        0.719015
LJ          -1.03542       -0.585164         1.14593
LJ          0.641552       -0.718485         2.22721
LJ           5.16621        -2.52047       -0.034018
LJ          0.781368        -2.90977        0.445729
LJ           2.63899       -0.166173       -0.181483
LJ          -1.04681        -0.48545       0.0506067
LJ          -2.16764         2.02278        0.374655
LJ         -0.601373       -0.562502         2.12024
LJ          -1.44062        0.307454       -0.544778
LJ          0.108979        -2.66722       -0.533968
LJ         -0.762971         1.11604       -0.507556
LJ          0.854709         1.01907         1.11544
LJ            1.2035         1.18793        0.180667
LJ           1.57591       -0.969633       -0.257967
LJ          0.633347       -0.490783       -0.328829
LJ           1.81509        -1.90545        -1.73595
LJ           1.98751       -0.958251        -2.40667
LJ          -1.08376        -0.44384        -1.20636
LJ          -1.41575         1.13028         -2.2062
LJ          -2.34427       -0.231184        0.118758
LJ          -2.20259        -1.04678         -0.9063
LJ        0.00323044          1.6183        0.690442
LJ         -0.388165        0.134955       -0.529482
LJ          -1.07577         1.31241         2.33848
LJ           1.04723         2.20456        0.299342
LJ           4.74386        -5.30771        0.346607
LJ          -0.39306        0.248981         1.40498
LJ          -4.16201         2.74243         5.31626
LJ           3.93117         1.09044          3.4634
LJ          0.754095      -0.0684558         1.26127
LJ         -0.683553         2.55734        0.604563
LJ          -1.48969         2.43681         1.17504
LJ          0.319246         1.26294         3.18553
LJ         0.0794091        -2.43894         1.55126
LJ         -0.867802        -1.50986        0.501827
LJ           2.18238        -2.27952        -5.97645
LJ            2.1454        -1.26746           2.588
LJ          0.196207        0.702235        0.307335
LJ           1.68857        0.126837       -0.894824
LJ        -0.0134559        -1.00661         1.31789
LJ           1.42437        0.507919         1.89819
LJ          0.139859         2.47298         1.63707
LJ          -1.82993        0.149333          1.0022
LJ          0.180988         1.46354         1.97509
LJ           2.84908        0.946051       -0.633058
LJ         0.0618355       -0.560055         3.47883
LJ           -1.4256        -1.41736         1.95679
LJ          -2.45804         1.83981         1.38776
LJ          0.315521        0.216644         2.19494
LJ           1.64198        -1.22745         1.53823
LJ          -5.71882         1.82291         3.53893
LJ           6.28696        -3.81699        -2.56974
LJ          -4.99211         5.22253         -1.6331
LJ         -0.906124        0.539688         0.56657
LJ         0.0175942         1.79027       -0.260561
LJ           1.40638         1.20161        -1.71098
LJ           2.80665        -2.18019        -4.97071
LJ           3.90264         3.00477         6.21363
LJ          -1.85495         1.67037       -0.863982
LJ          -3.88574        -3.83507         5.88604
LJ           6.30566         1.20904          3.6144
LJ          0.599289        0.820554       -0.701714
LJ          -1.24741        -1.56272        -1.33851
LJ           4.60682         4.09066         1.25592
LJ          -5.50609        -5.79356        -5.65709
