108
#Comment!
LJ           2.52486      -0.0332946         1.10065
LJ           3.21965         1.03751        -2.29487
LJ         -0.716908        -2.33245         0.49237
LJ          -2.28037        0.127049       -0.492999
LJ          0.825497       -0.286988         3.57558
LJ           1.12577        0.287312        -2.25313
LJ           1.58212        0.770852       -0.966544
LJ           1.15614       -0.741104        -2.45761
LJ           1.30801       -0.701239         2.44273
LJ          0.389443        -1.49485         1.95016
LJ          0.388502         2.31505         1.87017
LJ            1.0765         1.28703         2.00627
LJ          -1.54945        -1.34922        -1.15884
LJ           3.52223        0.323242      -0.0209561
LJ           -1.8121       -0.479116         0.74696
LJ          -1.33734       -0.749628         1.90658
LJ           -1.4622        -1.89026        -3.42064
LJ          0.284032        0.110523        0.230581
LJ          0.481478         3.58627         3.61843
LJ          -0.57697       -0.850784       -0.744747
LJ         -0.328029        -1.07249         4.10689
LJ          0.813668         1.42123       -0.980435
LJ           2.55911        0.585678       -0.921468
LJ           -5.3573         1.04391        -4.60879
LJ           4.21194         4.38412         5.33339
LJ          -1.10485         1.53125       -0.356779
LJ          -2.99701         -3.3954        -2.08231
LJ          -5.03241        -6.07946       -0.995626
LJ           2.03379         1.27099          1.8159
LJ          -1.14685        -1.33976        0.334539
LJ       0.000916126        -1.88199         1.02304
LJ          -6.22501         5.02823        -2.32883
LJ        -0.0249071        -3.77173       -0.353682
LJ            2.0397       0.0870124        -1.69372
LJ         -0.650167         1.03735        0.727201
LJ           2.55846       -0.525016        -0.94686
LJ           1.21396        -2.24541         0.29448
LJ         -0.465536        -1.67731        -1.33977
LJ         -0.625685       -0.204968        0.304254
LJ           1.45548      -0.0890152       -0.207801
LJ           1.52069         1.72701        0.249411
LJ          0.225673       -0.570506         2.50123
LJ         -0.911841       -0.363495        -1.71803
LJ          -1.44167       -0.524474       -0.373383
LJ           1.53724       -0.546245        0.991483
LJ          -2.97636        -4.43058         6.34019
LJ           2.25485       -0.723064          1.9806
LJ           1.80807        0.621278        0.592721
LJ          -1.83939       0.0749159        -1.77345
LJ          -0.65817        0.335269         1.52399
LJ           0.63004         1.51833         2.85253
LJ         -0.347646           1.837        -2.06094
LJ           6.40695        -3.87859        -1.32271
LJ          0.283516         1.74713        0.552955
LJ           1.61622         0.31969         1.66015
LJ           3.42996        0.826849         1.19224
LJ          0.660334        0.155211       -0.911547
LJ          0.501682        -1.62814       -0.991338
LJ          0.611656        -1.46089         3.45652
LJ           2.51929       0.0299749      -0.0589273
LJ           1.00229         0.90185      -0.0270117
LJ          0.635748         4.39943          -4.149
LJ           0.26846         -2.9436         2.13525
LJ          -1.86063        -0.39193        -2.77414
LJ          0.768382         1.07499         1.07321
LJ          0.140211       -0.326539        -1.67955
LJ           2.15455       -0.967469         3.22972
LJ           2.59124         1.40013         0.71649
LJ          -1.38761         -3.8995        -2.83049
LJ          0.149632        0.929893         2.19402
LJ          -2.19385         0.54267         6.35938
LJ           3.01991         1.13959         2.15392
LJ          0.408029       0.0856294         1.57868
LJ            1.1373         2.13364         1.12916
LJ          -1.82508        0.340167         1.58987
LJ           1.20041        0.818658           3.413
LJ         0.0164596        -1.71651       -0.102182
LJ         -0.140327         1.01887       -0.320803
LJ          0.419891         2.17247         4.73484
LJ           1.37877        -1.71008         1.37481
LJ           1.16127       -0.738402        -1.27941
LJ           0.60797       -0.796149       -0.396957
LJ           2.19164        0.173967         2.68518
LJ          0.546366       -0.676035        0.831128
LJ           1.54702         2.12047         2.41552
LJ           -1.5256        0.777574        0.269858
LJ           -1.0808        -1.76609         1.50524
LJ          0.167779        0.868582        -1.52868
LJ          0.934539        0.305996         2.56669
LJ         -0.496058       -0.758739         1.21351
LJ         -0.788852         1.46876         1.75723
LJ          0.777552          2.7039         3.06701
LJ           0.18483        0.538665         3.27304
LJ          -1.22501        -1.79971        -2.18908
LJ          -1.12495        -2.31657         -0.4756
LJ           2.63705        0.120517        -2.81918
LJ         -0.537199        0.278813       -0.920429
LJ          0.325419         2.59944       -0.479915
LJ             2.393       -0.830058        0.367239
LJ           5.08446        0.939948        -5.56155
LJ           1.89291         4.66554       -0.144928
LJ          -1.15923        0.871572        -1.55551
LJ           1.62014         4.30304        0.815323
LJ          -3.00424         -1.3709        -5.22595
LJ           2.36849          1.3952        -1.58417
LJ           0.16595        -4.17039        -1.47899
LJ           1.76673        -3.14278         -1.3009
LJ           5.01891        -5.34162        0.754181
