108
#Comment!
LJ          -1.64365        -1.64365        -1.64365
LJ          -1.98005        -1.98005        -3.08743
LJ          -3.08743        -1.98005        -1.98005
LJ          -1.98005        -3.08743        -1.98005
LJ          -2.01227        -3.13636        -3.13636
LJ          0.328141        -2.52567        -4.09313
LJ          -1.27327        -2.44394        -2.44394
LJ          0.328141        -4.09313        -2.52567
LJ          0.513187        -2.95263        -2.95263
LJ           1.87297        -1.59089        -2.94913
LJ           0.95713        -2.03825        -2.03825
LJ           1.87297        -2.94913        -1.59089
LJ          -3.13636        -2.01227        -3.13636
LJ          -2.52567        0.328141        -4.09313
LJ          -4.09313        0.328141        -2.52567
LJ          -2.44394        -1.27327        -2.44394
LJ          -1.20567        -1.20567        -2.36848
LJ          0.125006        0.125006        -2.36919
LJ         -0.915021       -0.165458        -1.77808
LJ         -0.165458       -0.915021        -1.77808
LJ           1.44974        -1.40525        -4.09115
LJ           2.06122        0.934067        -3.13736
LJ           1.36946        0.197652        -2.44649
LJ            3.0146        -1.40495        -2.52517
LJ          -2.95263        0.513187        -2.95263
LJ          -1.59089         1.87297        -2.94913
LJ          -2.94913         1.87297        -1.59089
LJ          -2.03825         0.95713        -2.03825
LJ          -1.40525         1.44974        -4.09115
LJ          0.934067         2.06122        -3.13736
LJ          -1.40495          3.0146        -2.52517
LJ          0.197652         1.36946        -2.44649
LJ          0.905458        0.905458        -3.09109
LJ          0.567527        0.567527        -1.64713
LJ          0.905304         2.01283        -1.98137
LJ           2.01283        0.905304        -1.98137
LJ          -3.13636        -3.13636        -2.01227
LJ          -2.44394        -2.44394        -1.27327
LJ          -4.09313        -2.52567        0.328141
LJ          -2.52567        -4.09313        0.328141
LJ          -1.20567        -2.36848        -1.20567
LJ         -0.165458        -1.77808       -0.915021
LJ         -0.915021        -1.77808       -0.165458
LJ          0.125006        -2.36919        0.125006
LJ           1.44974        -4.09115        -1.40525
LJ            3.0146        -2.52517        -1.40495
LJ           1.36946        -2.44649        0.197652
LJ           2.06122        -3.13736        0.934067
LJ          -2.36848        -1.20567        -1.20567
LJ          -1.77808       -0.165458       -0.915021
LJ          -2.36919        0.125006        0.125006
LJ          -1.77808       -0.915021       -0.165458
LJ          -1.06419        -1.06419        -1.06419
LJ        -0.0123931      -0.0123931        -1.06426
LJ          -1.06426      -0.0123931      -0.0123931
LJ        -0.0123931        -1.06426      -0.0123931
LJ           0.69907       -0.912899       -0.912899
LJ           1.28977        0.125784        -1.20357
LJ          0.699885       -0.163661       -0.163661
LJ           1.28977        -1.20357        0.125784
LJ          -4.09115         1.44974        -1.40525
LJ          -2.52517          3.0146        -1.40495
LJ          -3.13736         2.06122        0.934067
LJ          -2.44649         1.36946        0.197652
LJ         -0.912899         0.69907       -0.912899
LJ          0.125784         1.28977        -1.20357
LJ          -1.20357         1.28977        0.125784
LJ         -0.163661        0.699885       -0.163661
LJ           1.36909         1.36909        -1.27403
LJ           2.06136         2.06136         -2.0121
LJ           1.44912         3.01528        0.327603
LJ           3.01528         1.44912        0.327603
LJ          -2.95263        -2.95263        0.513187
LJ          -2.03825        -2.03825         0.95713
LJ          -2.94913        -1.59089         1.87297
LJ          -1.59089        -2.94913         1.87297
LJ          -1.40525        -4.09115         1.44974
LJ          0.197652        -2.44649         1.36946
LJ          -1.40495        -2.52517          3.0146
LJ          0.934067        -3.13736         2.06122
LJ          0.905458        -3.09109        0.905458
LJ           2.01283        -1.98137        0.905304
LJ          0.905304        -1.98137         2.01283
LJ          0.567527        -1.64713        0.567527
LJ          -4.09115        -1.40525         1.44974
LJ          -2.44649        0.197652         1.36946
LJ          -3.13736        0.934067         2.06122
LJ          -2.52517        -1.40495          3.0146
LJ         -0.912899       -0.912899         0.69907
LJ         -0.163661       -0.163661        0.699885
LJ          -1.20357        0.125784         1.28977
LJ          0.125784        -1.20357         1.28977
LJ           1.36909        -1.27403         1.36909
LJ           3.01528        0.327603         1.44912
LJ           1.44912        0.327603         3.01528
LJ           2.06136         -2.0121         2.06136
LJ          -3.09109        0.905458        0.905458
LJ          -1.98137         2.01283        0.905304
LJ          -1.64713        0.567527        0.567527
LJ          -1.98137        0.905304         2.01283
LJ          -1.27403         1.36909         1.36909
LJ          0.327603         3.01528         1.44912
LJ           -2.0121         2.06136         2.06136
LJ          0.327603         1.44912         3.01528
LJ          0.960539        0.960539        0.960539
LJ           1.87368         1.87368        0.513333
LJ          0.513333         1.87368         1.87368
LJ           1.87368        0.513333         1.87368
