108
#Comment!
LJ          -1.84338        -1.84338        -1.84338
LJ          -1.36686        -1.36686        -3.00947
LJ          -3.00947        -1.36686        -1.36686
LJ          -1.36686        -3.00947        -1.36686
LJ          -1.77418        -2.64584        -2.64584
LJ          0.865343        -3.05022        -3.98291
LJ         -0.744762        -2.21749        -2.21749
LJ          0.865343        -3.98291        -3.05022
LJ          0.268902        -3.07191        -3.07191
LJ           1.98385         -1.3306        -3.06088
LJ          0.636575        -1.65311        -1.65311
LJ           1.98385        -3.06088         -1.3306
LJ          -2.64584        -1.77418        -2.64584
LJ          -3.05022        0.865343        -3.98291
LJ          -3.98291        0.865343        -3.05022
LJ          -2.21749       -0.744762        -2.21749
LJ          -1.07354        -1.07354        -1.99646
LJ        0.00185311      0.00185311        -1.85882
LJ         -0.981571       -0.121949         -1.7483
LJ         -0.121949       -0.981571         -1.7483
LJ           1.95637        -1.93246         -3.9672
LJ           1.58351        0.721578        -2.65904
LJ           1.04088       -0.289875        -2.15111
LJ           2.90192        -1.93443        -3.03423
LJ          -3.07191        0.268902        -3.07191
LJ           -1.3306         1.98385        -3.06088
LJ          -3.06088         1.98385         -1.3306
LJ          -1.65311        0.636575        -1.65311
LJ          -1.93246         1.95637         -3.9672
LJ          0.721578         1.58351        -2.65904
LJ          -1.93443         2.90192        -3.03423
LJ         -0.289875         1.04088        -2.15111
LJ           0.25248         0.25248        -2.92494
LJ           0.76859         0.76859        -1.80164
LJ          0.337051         1.96643        -1.41457
LJ           1.96643        0.337051        -1.41457
LJ          -2.64584        -2.64584        -1.77418
LJ          -2.21749        -2.21749       -0.744762
LJ          -3.98291        -3.05022        0.865343
LJ          -3.05022        -3.98291        0.865343
LJ          -1.07354        -1.99646        -1.07354
LJ         -0.121949         -1.7483       -0.981571
LJ         -0.981571         -1.7483       -0.121949
LJ        0.00185311        -1.85882      0.00185311
LJ           1.95637         -3.9672        -1.93246
LJ           2.90192        -3.03423        -1.93443
LJ           1.04088        -2.15111       -0.289875
LJ           1.58351        -2.65904        0.721578
LJ          -1.99646        -1.07354        -1.07354
LJ           -1.7483       -0.121949       -0.981571
LJ          -1.85882      0.00185311      0.00185311
LJ           -1.7483       -0.981571       -0.121949
LJ         -0.870084       -0.870084       -0.870084
LJ         -0.170666       -0.170666       -0.847039
LJ         -0.847039       -0.170666       -0.170666
LJ         -0.170666       -0.847039       -0.170666
LJ          0.609894       -0.969323       -0.969323
LJ           0.93621      -0.0506957        -1.05121
LJ          0.598661       -0.125978       -0.125978
LJ           0.93621        -1.05121      -0.0506957
LJ           -3.9672         1.95637        -1.93246
LJ          -3.03423         2.90192        -1.93443
LJ          -2.65904         1.58351        0.721578
LJ          -2.15111         1.04088       -0.289875
LJ         -0.969323        0.609894       -0.969323
LJ        -0.0506957         0.93621        -1.05121
LJ          -1.05121         0.93621      -0.0506957
LJ         -0.125978        0.598661       -0.125978
LJ           1.00619         1.00619       -0.792522
LJ            1.5503          1.5503        -1.77525
LJ           1.96207         2.89997        0.859253
LJ           2.89997         1.96207        0.859253
LJ          -3.07191        -3.07191        0.268902
LJ          -1.65311        -1.65311        0.636575
LJ          -3.06088         -1.3306         1.98385
LJ           -1.3306        -3.06088         1.98385
LJ          -1.93246         -3.9672         1.95637
LJ         -0.289875        -2.15111         1.04088
LJ          -1.93443        -3.03423         2.90192
LJ          0.721578        -2.65904         1.58351
LJ           0.25248        -2.92494         0.25248
LJ           1.96643        -1.41457        0.337051
LJ          0.337051        -1.41457         1.96643
LJ           0.76859        -1.80164         0.76859
LJ           -3.9672        -1.93246         1.95637
LJ          -2.15111       -0.289875         1.04088
LJ          -2.65904        0.721578         1.58351
LJ          -3.03423        -1.93443         2.90192
LJ         -0.969323       -0.969323        0.609894
LJ         -0.125978       -0.125978        0.598661
LJ          -1.05121      -0.0506957         0.93621
LJ        -0.0506957        -1.05121         0.93621
LJ           1.00619       -0.792522         1.00619
LJ           2.89997        0.859253         1.96207
LJ           1.96207        0.859253         2.89997
LJ            1.5503        -1.77525          1.5503
LJ          -2.92494         0.25248         0.25248
LJ          -1.41457         1.96643        0.337051
LJ          -1.80164         0.76859         0.76859
LJ          -1.41457        0.337051         1.96643
LJ         -0.792522         1.00619         1.00619
LJ          0.859253         2.89997         1.96207
LJ          -1.77525          1.5503          1.5503
LJ          0.859253         1.96207         2.89997
LJ          0.634889        0.634889        0.634889
LJ           1.98968         1.98968        0.264767
LJ          0.264767         1.98968         1.98968
LJ           1.98968        0.264767         1.98968
