108
#Comment!
LJ           3.71688       -0.915788        0.674291
LJ           -2.2823         2.85789        -3.29134
LJ           1.08648        -2.02593         1.68279
LJ         -0.437286         2.79245       -0.147642
LJ          0.757524         -0.2239         3.02099
LJ           1.14657        -2.41708       -0.744884
LJ          0.798339      -0.0554571         -1.2061
LJ           2.28413        -2.09815       -0.369551
LJ           1.76155        -1.22269         2.15048
LJ         -0.128291        -1.14116         2.39355
LJ          -0.59751         2.18552         2.97687
LJ         0.0777828        0.878581        0.597325
LJ          0.224439       -0.723022       -0.152759
LJ           2.15487        -6.05689        -2.80512
LJ           1.26747           -3.77       -0.683593
LJ        -0.0724594        -1.73585        0.344282
LJ            4.9511        -1.77344        -6.43353
LJ          0.737754         1.51539       -0.302532
LJ         -0.280482         4.92409        -4.12187
LJ           1.14032        -1.08528        -1.02335
LJ          -2.31599        0.326025          3.3867
LJ            1.4393         2.40144         -2.5734
LJ           2.47831     -0.00250681        0.163368
LJ          -1.96288        -2.75278        -1.31054
LJ          0.442399        0.971391         3.82025
LJ         0.0678125          1.8037       -0.932361
LJ         -0.970541        0.392711        -1.54397
LJ          -3.73707         5.66707        -1.74101
LJ           2.59469          1.3752         1.87862
LJ           1.49153         -2.6814        0.936335
LJ           2.01563       -0.543521         4.14731
LJ           4.25694        0.193895         3.63376
LJ           1.32183        -3.00036        -1.85343
LJ           0.88333       -0.380245        -2.72942
LJ        -0.0456764         1.99122        0.597797
LJ           2.70543        0.535291       -0.809344
LJ           1.83412        -1.23013        0.708331
LJ          0.668669        -3.51668        -2.78129
LJ          0.845672        0.456406       -0.214267
LJ           1.46957        0.717043        -1.42223
LJ           1.76698         2.04909        0.142602
LJ        -0.0446827        -1.76108         1.46641
LJ          0.646216        -2.16369         -2.0433
LJ         -0.550276       0.0719677        0.296096
LJ           2.76852       0.0371333          3.7881
LJ           4.88333         -4.7331        -3.40137
LJ           3.02973       -0.618067         2.14714
LJ            2.7002        -1.72791         2.47898
LJ           2.24703        -1.70685        -1.40808
LJ          -1.34895         2.21703         1.72614
LJ           2.15958         0.45255         1.73231
LJ         -0.478834         3.34663        -2.38223
LJ          0.386953        -6.18443        -2.85504
LJ         0.0814519         0.94627         1.69302
LJ           2.59706        -1.60073         1.29393
LJ           2.92555        -1.17369       -0.410367
LJ           1.86741         1.03971       -0.229054
LJ           2.04112        -3.03451       -0.858778
LJ          0.994739       -0.813503         3.84237
LJ           3.02514        0.142497         1.20141
LJ          0.465995        0.884282        -1.31802
LJ           -6.0063         6.10804        -4.94487
LJ          0.988731        -1.28565         2.85307
LJ          -0.44935         4.48444        -2.19318
LJ           2.26469         1.17702        0.696753
LJ           1.08263       -0.490928        0.238605
LJ           1.57671        -2.30873         2.72696
LJ           1.24804         2.16185        -1.05409
LJ          0.642156         3.33385        -2.39425
LJ           1.26647         1.60413         2.19404
LJ           1.76295           1.781        -5.54448
LJ           1.84821        0.845493         3.14373
LJ           0.78715         -1.2506        0.903312
LJ           1.47163        0.312362         0.86436
LJ         -0.400094       -0.858948         0.90272
LJ          0.478012       0.0399146         1.07957
LJ           2.14145       -0.577375         1.42778
LJ          -0.43712         1.14497       -0.268912
LJ           3.10507        -1.11995         5.31117
LJ            0.6849       -0.770316         1.84022
LJ           1.74498      -0.0886021       -0.529474
LJ           1.00842        -1.51692       -0.130581
LJ           1.95182      -0.0782286         2.54934
LJ           3.59539        -2.01368         1.51241
LJ          0.989162         1.37096         1.00053
LJ          -1.70966       0.0368387         1.30672
LJ         -0.938461        -2.83976        0.899054
LJ         -0.246329         1.04948        -2.24103
LJ           1.05034        0.389562         1.87309
LJ          0.512404        -2.46656         2.42077
LJ          0.540895           2.613       -0.238503
LJ         -0.992327         1.22875         1.32391
LJ         -0.708386         1.03529           2.987
LJ          0.340744        -1.15783        -1.74859
LJ         0.0431598        -1.58665       -0.736197
LJ           1.19932        0.748423        -5.62984
LJ        -0.0541241         0.22304       -0.678879
LJ         -0.195133          2.9697         1.04179
LJ          -1.92147        -6.14665          4.4127
LJ           5.26433         3.96458         6.44185
LJ         -0.962692         3.60888        -1.00465
LJ         -0.110732       -0.117176        -1.96986
LJ          0.106755         2.91583        -1.48845
LJ           4.75796       -0.248721        -2.54156
LJ          0.337183         3.94083        -1.67042
LJ           -1.2779        -1.48461        0.768141
LJ           2.33392         -2.5738         1.86482
LJ          0.279834        -2.87256         0.99151
