108
#Comment!
LJ          -2.12937         -1.8245       -0.407916
LJ          -4.49001        -4.79909          6.0598
LJ          -5.47628        -4.79069        -3.96462
LJ          -5.55286        -5.99397        -4.25544
LJ           1.57804        -2.85279        -0.44521
LJ         -0.578671        0.826081        -2.56812
LJ           1.20536        -1.73309       -0.887619
LJ          0.425186        -2.42203       -0.381247
LJ         -0.146893        -1.44828        -2.00302
LJ           1.67749        0.366502       -0.132708
LJ           4.16194          2.9622         3.25802
LJ           1.64083        -1.39718         1.41443
LJ          -1.53185        -1.18671        -2.61233
LJ         -0.170435         2.68006        -1.67776
LJ          -1.93534        0.842092       0.0659384
LJ         -0.776639         1.94212        -0.82247
LJ          -1.45397        -0.14637        -1.45682
LJ          0.647955       0.0152355       0.0162527
LJ          -2.08531         1.67753        -2.52905
LJ         -0.888407        -0.99966        -1.12338
LJ           1.14587        -1.48993         -2.6732
LJ           1.20182       -0.968234        -1.63536
LJ          0.126113        -0.64661         -1.2731
LJ           4.47039         -2.3353          5.6134
LJ         -0.675784         2.18247         6.32449
LJ           1.00186         1.82219        -1.94052
LJ          0.560734         2.25377       -0.905756
LJ            4.7602        -2.16462         4.23034
LJ         -0.501412         1.81771        -2.23127
LJ          -1.33921         2.38954         -1.7158
LJ          -2.33882         4.20201         5.80206
LJ          -0.38013         0.34939        -1.50275
LJ          0.461608          1.1162        -3.20532
LJ          0.369333        0.980504        -2.13801
LJ        -0.0292545         1.43044        -1.35408
LJ         -0.331641       -0.535599         -2.4302
LJ          -1.15609         -1.9865        -1.13368
LJ           -2.0919       -0.729274         1.72788
LJ          -2.37455         0.72901         1.39984
LJ          0.573943        -2.45922        0.975666
LJ         -0.973456        -1.18337       -0.107482
LJ        -0.0605172        -2.70986        -1.24267
LJ          -1.24799        -1.68019        0.736101
LJ       -0.00736102       -0.835409        0.371771
LJ          0.696727        -3.44225       -0.456444
LJ           6.06311          4.3498        -2.34105
LJ        -0.0528801        -1.59629       -0.780078
LJ            1.9032       -0.640033       -0.440735
LJ          -1.16605        0.789261        -0.64049
LJ          -1.06412         1.19306        -1.70007
LJ          0.139192       0.0994588         1.33776
LJ          -2.21424        -1.25479        0.458428
LJ         -0.612059       -0.186877       -0.437546
LJ           1.05166        0.926394       -0.900001
LJ           1.16082        0.573317        0.918254
LJ          0.987121       -0.565006        0.814395
LJ          0.943349       -0.685731       -0.648314
LJ          0.750529        0.119954        -1.52573
LJ            1.8537      -0.0886834        -1.59796
LJ          0.738202        -1.46462       0.0466359
LJ          -1.91207        -1.18608        -1.26842
LJ           5.13065         5.03567         6.21255
LJ          -2.10063        0.873673        -1.19656
LJ          -1.83469       -0.286366        -0.30935
LJ           1.13657         1.26672        0.104416
LJ         0.0798759         1.03793       -0.463222
LJ         -0.362553        0.527605        0.436651
LJ          -1.06687          1.4125        0.303837
LJ           3.44181         5.38422         2.12472
LJ           4.17492         4.07383          3.6616
LJ           -3.8959         3.09504         5.51389
LJ            2.7043        -3.96145         5.60788
LJ          -1.18073         -2.4284       -0.186267
LJ           3.22031         2.38722         3.00398
LJ         -0.609505        0.782485         1.53378
LJ          0.693363       -0.660576         1.90092
LJ          -1.26461        -3.24832          1.1859
LJ         -0.666376       -0.886388         1.29862
LJ          -1.91381         5.85589         4.92455
LJ          -1.98101        -2.27959         1.39423
LJ          -0.32119        -1.91796        0.289218
LJ            1.7475        -1.34225        0.377086
LJ         -0.489254        -1.93214         1.62447
LJ          0.309801        -1.41828         1.25618
LJ          -2.40038       -0.130365        0.692951
LJ          -1.14166        -0.30256        0.564352
LJ          -2.43068        -3.43312         1.43777
LJ           6.00714        -2.21529         4.55637
LJ         -0.332331       -0.467649         2.49421
LJ          -1.43327         -1.5139         2.06059
LJ         0.0847074          1.4694        0.668335
LJ         0.0455998          -0.992         3.38309
LJ           0.59224        -1.95758         2.13164
LJ           2.90068         5.41201        -4.09696
LJ          -3.98339         5.44875         3.01115
LJ           5.95874         2.52173         6.40755
LJ          -1.37977        0.177437         1.93037
LJ          -1.87618         1.63788       -0.546314
LJ          -0.19096         2.23037      -0.0495193
LJ          -1.90168        -3.25547        0.172808
LJ           2.93163         5.42908         4.80311
LJ           5.64035         3.22397        -3.69169
LJ           3.27059         4.52263         4.40702
LJ           5.22195         -4.0749         3.39119
LJ           2.80346         3.54493         3.70053
LJ          -4.41325        -4.26458        -1.72285
LJ          -5.00757        -4.31143        -5.30433
LJ          -2.00536         -4.7412        -3.83503
