108
#Comment!
LJ         -0.460244        -1.90773      -0.0328877
LJ          -5.72974         4.59385        -2.78558
LJ          0.909405          2.8867        -2.70393
LJ          0.771348         1.89356        -2.92834
LJ           1.23029        -1.44775       -0.823251
LJ          0.454281         2.46851      -0.0561248
LJ           1.42003        -1.65967        0.264934
LJ          0.866358         -2.6236         1.11021
LJ           1.59558         -2.7812       -0.152939
LJ           1.70607        0.284461       -0.518487
LJ          0.799216         1.38493        0.495373
LJ           1.36341       -0.317624          1.7278
LJ         -0.996797       -0.756965        -2.19927
LJ          0.739761         1.37599        -1.56177
LJ         -0.189412         1.55488        0.886286
LJ         -0.739393         3.49143         1.04163
LJ          -1.47243         1.15251        -1.50082
LJ         -0.144698       -0.582901        0.408947
LJ          0.257607         3.46642        0.484337
LJ          -0.34731       -0.731435       -0.944939
LJ          0.974779        -1.12556        -1.99045
LJ          0.489448        -1.27445      -0.0725314
LJ         -0.763241        0.994916        -2.58718
LJ          0.674189         4.74211         5.30759
LJ          -4.07616        -5.60347       -0.767289
LJ         -0.341478         1.51913        -1.64837
LJ         -0.293757         2.29598        -2.40736
LJ           5.05516         1.87996        0.470815
LJ          0.707795         3.76472       -0.525729
LJ           2.20508         5.98859        -1.96126
LJ           -1.8244         0.80401          1.4413
LJ          0.204912         1.19151        -2.48653
LJ         -0.369747         0.49714          -3.578
LJ           1.20763     -0.00467861        -1.71713
LJ        -0.0115658        0.632727        0.333147
LJ         -0.214405        0.471152         -1.5415
LJ          -1.52483         -2.3045       -0.837059
LJ          -2.86741        0.315077       -0.781975
LJ         -0.865748         1.38768        0.120926
LJ           1.19347        -1.55772         1.58037
LJ         -0.609725         -1.2411         1.20963
LJ         -0.387251        -2.84802        0.656439
LJ          -1.88224        -1.47785      -0.0822114
LJ           -1.1304       -0.256457         1.57184
LJ        -0.0538929        -3.42157         1.62245
LJ          -6.12421         6.34082          0.5942
LJ          0.611219        -2.23039       -0.260774
LJ           1.91738        -2.32874         1.07685
LJ         -0.955939       -0.946948       -0.114223
LJ         -0.933625         2.05776       -0.686935
LJ         0.0546633       -0.277173         1.54947
LJ          -1.65769        0.910959        -0.48153
LJ          0.120679         -1.7512        -1.11818
LJ        -0.0755739         1.15939       -0.690167
LJ           1.21649         0.19618        0.423231
LJ           2.23726       -0.271641        0.754788
LJ           1.84247       -0.800633       -0.153249
LJ          0.400203      0.00261451       -0.298449
LJ           2.24057      -0.0932522        -1.50738
LJ           3.26332        0.108827        -0.71466
LJ          -1.15083       0.0366781        -1.43942
LJ          -5.71762         2.96523        0.813609
LJ          -1.86054         1.47012        0.439489
LJ          -1.74356        -1.12975        -1.13807
LJ         -0.661596         1.75908          1.7903
LJ         -0.780429       0.0773553       -0.305438
LJ         -0.677963        0.761611         1.34482
LJ           1.39261          2.6433        0.341887
LJ           2.71798         6.39263         -5.7396
LJ          0.534713        0.689988         1.31878
LJ          -3.37119        -2.20914         5.67531
LJ          -2.71917         4.73696        -5.99631
LJ          0.137175         -1.9154        0.786736
LJ          0.902326        0.923514       -0.447102
LJ          -1.21242         1.01817         2.29818
LJ          0.112255        0.831565         2.37665
LJ          -1.08101        -2.64324         1.56912
LJ          -1.33849        -2.13931        0.612244
LJ           1.46189         1.37249          5.5497
LJ          -6.14768        -1.71417         2.33781
LJ           1.03403       -0.783625        0.834366
LJ           2.40692        -1.56697       -0.639419
LJ        -0.0735551        -2.28395         1.86384
LJ          0.167042        -1.28082         1.87239
LJ           -2.8847         1.06224         1.17689
LJ           -1.3929         0.49171        0.520342
LJ          0.890144        -2.71704         2.18844
LJ          -1.84394         3.60123         2.42522
LJ           1.08115       -0.499889         3.55036
LJ         -0.939715        -1.28247         2.21942
LJ         -0.593519         2.49413        0.578292
LJ          0.111849       -0.776982          3.0135
LJ        0.00303866        -2.22264         2.92798
LJ          -3.42011        -3.93851         6.00781
LJ           5.78196        -4.67127       -0.508264
LJ           6.22323         2.98491        -3.47393
LJ          -1.80242        -0.48084        0.546474
LJ          0.465416         2.41641         1.08424
LJ           1.96714         3.79696         1.02031
LJ            2.9327        -2.56069       -0.888175
LJ           5.07668         3.44527        -1.43146
LJ          -4.49553        0.851692        -2.28763
LJ         -0.474065         5.90288        -1.83861
LJ           5.83613         4.98441         2.36886
LJ           1.95562        0.886561        0.861162
LJ          -1.86568        -0.18937       -0.488007
LJ          -2.09029        -5.55117         -3.5453
LJ          -1.00313         -2.9136        -5.59861
