108
#Comment!
LJ          -1.93036        -1.93036        -1.93036
LJ          -1.06094        -1.06094        -3.00495
LJ          -3.00495        -1.06094        -1.06094
LJ          -1.06094        -3.00495        -1.06094
LJ           -1.7507        -2.79373        -2.79373
LJ          0.520747        -3.27946        -4.08725
LJ         -0.518498        -2.27373        -2.27373
LJ          0.520747        -4.08725        -3.27946
LJ          0.258682        -2.90516        -2.90516
LJ           1.83181        -1.33485        -2.88968
LJ           1.24302        -2.40412        -2.40412
LJ           1.83181        -2.88968        -1.33485
LJ          -2.79373         -1.7507        -2.79373
LJ          -3.27946        0.520747        -4.08725
LJ          -4.08725        0.520747        -3.27946
LJ          -2.27373       -0.518498        -2.27373
LJ          -1.15295        -1.15295        -1.92542
LJ         0.0550982       0.0550982        -1.78593
LJ          -1.27301       0.0727671        -2.22365
LJ         0.0727671        -1.27301        -2.22365
LJ           2.17237        -1.58442        -4.07278
LJ           1.72661        0.764205        -2.74545
LJ          0.951122       -0.529517        -2.16317
LJ           2.99476        -1.57523        -3.25138
LJ          -2.90516        0.258682        -2.90516
LJ          -1.33485         1.83181        -2.88968
LJ          -2.88968         1.83181        -1.33485
LJ          -2.40412         1.24302        -2.40412
LJ          -1.58442         2.17237        -4.07278
LJ          0.764205         1.72661        -2.74545
LJ          -1.57523         2.99476        -3.25138
LJ         -0.529517        0.951122        -2.16317
LJ         -0.142122       -0.142122        -3.05849
LJ          0.938938        0.938938        -2.07285
LJ          0.153536         2.01484        -1.21553
LJ           2.01484        0.153536        -1.21553
LJ          -2.79373        -2.79373         -1.7507
LJ          -2.27373        -2.27373       -0.518498
LJ          -4.08725        -3.27946        0.520747
LJ          -3.27946        -4.08725        0.520747
LJ          -1.15295        -1.92542        -1.15295
LJ         0.0727671        -2.22365        -1.27301
LJ          -1.27301        -2.22365       0.0727671
LJ         0.0550982        -1.78593       0.0550982
LJ           2.17237        -4.07278        -1.58442
LJ           2.99476        -3.25138        -1.57523
LJ          0.951122        -2.16317       -0.529517
LJ           1.72661        -2.74545        0.764205
LJ          -1.92542        -1.15295        -1.15295
LJ          -2.22365       0.0727671        -1.27301
LJ          -1.78593       0.0550982       0.0550982
LJ          -2.22365        -1.27301       0.0727671
LJ         -0.737476       -0.737476       -0.737476
LJ         0.0314717       0.0314717       -0.722109
LJ         -0.722109       0.0314717       0.0314717
LJ         0.0314717       -0.722109       0.0314717
LJ          0.623049       -0.973164       -0.973164
LJ          0.976253        0.105364        -1.21445
LJ           1.10587       0.0460904       0.0460904
LJ          0.976253        -1.21445        0.105364
LJ          -4.07278         2.17237        -1.58442
LJ          -3.25138         2.99476        -1.57523
LJ          -2.74545         1.72661        0.764205
LJ          -2.16317        0.951122       -0.529517
LJ         -0.973164        0.623049       -0.973164
LJ          0.105364        0.976253        -1.21445
LJ          -1.21445        0.976253        0.105364
LJ         0.0460904         1.10587       0.0460904
LJ           1.02162         1.02162       -0.307461
LJ           1.67859         1.67859        -1.78688
LJ           2.18065         3.01184         0.51437
LJ           3.01184         2.18065         0.51437
LJ          -2.90516        -2.90516        0.258682
LJ          -2.40412        -2.40412         1.24302
LJ          -2.88968        -1.33485         1.83181
LJ          -1.33485        -2.88968         1.83181
LJ          -1.58442        -4.07278         2.17237
LJ         -0.529517        -2.16317        0.951122
LJ          -1.57523        -3.25138         2.99476
LJ          0.764205        -2.74545         1.72661
LJ         -0.142122        -3.05849       -0.142122
LJ           2.01484        -1.21553        0.153536
LJ          0.153536        -1.21553         2.01484
LJ          0.938938        -2.07285        0.938938
LJ          -4.07278        -1.58442         2.17237
LJ          -2.16317       -0.529517        0.951122
LJ          -2.74545        0.764205         1.72661
LJ          -3.25138        -1.57523         2.99476
LJ         -0.973164       -0.973164        0.623049
LJ         0.0460904       0.0460904         1.10587
LJ          -1.21445        0.105364        0.976253
LJ          0.105364        -1.21445        0.976253
LJ           1.02162       -0.307461         1.02162
LJ           3.01184         0.51437         2.18065
LJ           2.18065         0.51437         3.01184
LJ           1.67859        -1.78688         1.67859
LJ          -3.05849       -0.142122       -0.142122
LJ          -1.21553         2.01484        0.153536
LJ          -2.07285        0.938938        0.938938
LJ          -1.21553        0.153536         2.01484
LJ         -0.307461         1.02162         1.02162
LJ           0.51437         3.01184         2.18065
LJ          -1.78688         1.67859         1.67859
LJ           0.51437         2.18065         3.01184
LJ           1.03743         1.03743         1.03743
LJ           1.83226         1.83226        0.264156
LJ          0.264156         1.83226         1.83226
LJ           1.83226        0.264156         1.83226
