108
#Comment!
LJ           3.71268        -1.40628         1.28606
LJ          -2.98127         2.64296        -6.01715
LJ            1.5812         -2.0588          2.6562
LJ          -1.41191           2.773        0.672498
LJ          -1.15678        0.438914         2.15073
LJ           1.43089        -2.64038       -0.388283
LJ          0.838142       -0.270458       -0.731956
LJ           3.24238        -2.42984       -0.285245
LJ           1.77612       -0.866066         1.80841
LJ          -1.66136         -3.2499         3.08936
LJ          0.971818        0.699334         3.71828
LJ          0.706047        0.579379       -0.198449
LJ          0.394153         -1.2581        0.448923
LJ            2.8573        -3.18147        -4.96816
LJ           2.21814        -2.24389        -0.89814
LJ          0.468719        -3.16906        0.789934
LJ           2.36865        -2.20614         4.55454
LJ           1.45997         1.47675       -0.378339
LJ         -0.621711         5.35392        -1.95586
LJ           2.16056        -1.94248        0.242166
LJ          -2.12875        0.311498        0.943886
LJ           1.97085         3.39652        -1.87595
LJ           2.49356        0.164144        0.584984
LJ           1.02636        -3.72194       -0.618189
LJ          0.615209         2.15495         1.15283
LJ         -0.199881         2.40766        -1.42759
LJ          -1.29849      0.00560919        -1.05822
LJ           4.75006         5.05244        -1.97274
LJ           3.25503         1.92595         2.53095
LJ           1.32098        -3.22756         1.80831
LJ          0.791535        -1.31052          5.5448
LJ           4.98554        -1.22032        0.896473
LJ           1.38055        -1.46545        -1.42733
LJ          0.811742       -0.592477        -1.67821
LJ         0.0887431         1.72209       -0.503627
LJ           3.15829       0.0854592       -0.267902
LJ           2.59225       -0.914038         0.77449
LJ         -0.171967        -3.44563       -0.832567
LJ          0.964213       -0.341341        0.236897
LJ           1.77307         0.14999        -0.26733
LJ           2.65437         2.41337       -0.325544
LJ        -0.0510594        -1.50491         2.10665
LJ           1.14664        -1.53627       -0.439089
LJ        -0.0448702       -0.213626       0.0130435
LJ           2.40747         1.48024         3.07823
LJ           2.68185        -4.80346        -2.24859
LJ           3.22188        0.555657         1.59666
LJ           2.24378        -1.19263          2.7515
LJ           2.13873       -0.524992       -0.941071
LJ          -0.78976         1.93823        0.223726
LJ           2.80963         1.39654         1.07146
LJ          0.320606         4.52265        -1.16732
LJ          -2.55828         5.37548        -3.54458
LJ         -0.111064       -0.161173        0.991485
LJ           2.23905        -1.96832          1.6061
LJ           2.97763        -1.07545        -0.18118
LJ            2.4303         1.01911       -0.548431
LJ           4.19943       -0.824507       -0.673182
LJ        -0.0686751       -0.672704         3.32897
LJ            3.4775       -0.345611        0.868377
LJ          0.911798         1.02378        -1.20135
LJ           4.30569        -6.18165        -5.27478
LJ          0.939174         -1.1072         2.20647
LJ         -0.818844         4.53376        -1.38306
LJ           1.91642         1.54702        0.545256
LJ           1.35051        -1.45452        0.865617
LJ           1.43532        -3.50264         3.11223
LJ          0.907261         2.14812        -1.06482
LJ          0.738854          1.6975        -2.07094
LJ           2.28898         1.10133         1.89977
LJ           2.35413        0.754663        -4.32862
LJ       -0.00667783        0.221075         2.51823
LJ          0.786918        -2.35008         1.85183
LJ           1.36821        0.492698        0.786037
LJ         -0.640298        -1.24051         1.27445
LJ          0.897903       -0.527748         1.30907
LJ           2.22122        0.129617         1.59187
LJ          -1.19631         1.10178       -0.372795
LJ           3.64765       -0.618279          4.2769
LJ           1.09085        0.191659         2.12287
LJ           1.83878       -0.830644       0.0357469
LJ           1.40472        -2.57614        0.811601
LJ           2.27589        0.315517         3.27035
LJ           2.98832       -0.734683         2.04625
LJ           1.19763         2.46889       0.0240327
LJ          -1.14053      -0.0988612        0.852973
LJ         -0.473722        -1.53457       -0.111817
LJ         -0.096722         1.28109        -1.45307
LJ           1.23977          1.2921         1.97967
LJ          0.477279        -3.24954         2.67708
LJ         0.0104772         2.89148       -0.252566
LJ          0.685207         1.30782        0.628198
LJ          0.469935        0.668756         1.49444
LJ         -0.249144       -0.853905       -0.959231
LJ           0.35373        -2.33929      -0.0626546
LJ           2.25611           1.352         4.21213
LJ        -0.0880877        0.237054       -0.976761
LJ          -0.69426         3.60342         0.43051
LJ          -4.15274         5.70724          5.9453
LJ            4.7185         5.56504         5.76794
LJ         -0.955125          2.7454       -0.325653
LJ         -0.699342        0.594208        -1.88139
LJ          0.694763         3.20589        -1.29713
LJ           1.55055        0.157304        -1.44538
LJ         -0.692704          3.7075       -0.725705
LJ          -1.22536       -0.822731         2.01831
LJ           6.34528         -4.4853        -1.59655
LJ           2.40701        -3.12818       -0.234454
