108
#Comment!
LJ           3.85419        -1.07831        0.915576
LJ           -2.8656         2.67797        -5.55528
LJ           1.24772        -1.91712         2.69832
LJ          -1.72107         2.83116        0.451624
LJ           -1.0694      -0.0722212         1.97854
LJ           1.37018         -2.8035       -0.271565
LJ          0.852447       -0.351345        -0.81589
LJ           3.14167         -2.6661       -0.590982
LJ           1.90483       -0.811297         1.64194
LJ          -1.33512        -3.07129         2.96757
LJ            0.8106        0.750633         3.35468
LJ          0.672492        0.542177       -0.137036
LJ          0.542432        -1.49405         0.72999
LJ           2.71122        -3.66878        -4.63034
LJ            2.2974        -2.56505        -1.19043
LJ          0.383361        -2.91608        0.909302
LJ           2.79433        -2.18537         4.90636
LJ           1.50357         1.34275       -0.372941
LJ         -0.494239         5.39531        -2.43568
LJ           2.09331        -1.79018       -0.190568
LJ          -2.16461        0.415762         1.66398
LJ           2.03109         3.47883        -1.88192
LJ           2.63676        0.132575        0.610113
LJ          0.465573         -3.5836       -0.589729
LJ          0.858199         1.94663         1.57901
LJ         -0.327315         2.53687        -1.15273
LJ          -1.36999        0.687222       -0.937317
LJ           5.50859         5.15684        -1.93249
LJ           3.63626         1.68047         2.26251
LJ           1.36035        -3.16218         1.52834
LJ          0.991353        -1.04417         5.49494
LJ           4.79435        -1.05425         1.36901
LJ           1.63631        -1.69298        -1.34289
LJ          0.604022        -0.69573        -1.95931
LJ          0.134303         1.67095       -0.219761
LJ           2.84159      -0.0928037       -0.484406
LJ           2.81435        -1.54651        0.888799
LJ         -0.125041        -2.61989        -1.16107
LJ          0.918888       -0.353876        0.273583
LJ           1.62863        0.319107       -0.289694
LJ           2.59738         1.95392       -0.439926
LJ         -0.312211        -1.93718          2.0184
LJ           1.14564        -1.32024       -0.474441
LJ         -0.206167      -0.0805666        0.235893
LJ            2.0297         1.40752         3.38716
LJ           3.08847        -4.80969        -2.42985
LJ           2.96221        0.549221         1.71297
LJ           2.23785        -1.05267         2.83791
LJ           2.39048       -0.927109        -1.15948
LJ         -0.537756         1.92988        0.604372
LJ           2.59248         1.17641        0.932227
LJ          0.198218         4.17436        -1.56887
LJ          -2.14238         5.72932        -3.47746
LJ          0.021695       -0.137182         1.27967
LJ           1.92402        -2.00182         1.63228
LJ           2.97202        -1.26393       -0.113231
LJ           2.52456        0.835311       -0.113679
LJ           4.19079         -1.4007        -1.03292
LJ          0.535038       -0.907928         3.19886
LJ            3.6738       0.0479608        0.993893
LJ          0.831653         1.14421        -1.40516
LJ           4.75437        -6.28206        -5.20892
LJ          0.717963        -1.16468         2.23118
LJ         -0.881259         4.63188         -1.4854
LJ           1.65013         1.63321         0.76366
LJ           1.71791         -1.3233        0.698408
LJ           1.43467         -3.4756         3.05651
LJ          0.830293         2.20269        -1.03014
LJ          0.877367         1.85828        -2.20732
LJ           2.48832         1.31412         2.34041
LJ            2.2679        0.950466        -4.52431
LJ         -0.151077        0.203485         2.50417
LJ          0.903668        -1.96715          1.5706
LJ            1.4052        0.538487        0.712062
LJ         -0.352325        -1.16011         1.01969
LJ          0.918553       -0.755981         1.33754
LJ           1.98118        0.296496         1.84683
LJ          -1.13958         1.61349       -0.502681
LJ           3.66297        -0.68629         4.49671
LJ          0.946732      -0.0250111          2.2066
LJ           1.99072       -0.714805       -0.121321
LJ           1.37155        -2.45345        0.745051
LJ           1.69746        0.356668         2.80078
LJ           2.98149       -0.543288         1.60192
LJ          0.738258         2.39909        0.382265
LJ          -1.09625       -0.337667        0.967251
LJ          -0.53694        -1.49237        0.106897
LJ         -0.225895         1.46198        -1.29055
LJ           1.29654         1.04876         1.80509
LJ          0.434433        -2.96922          2.2009
LJ          0.282388         2.99141       -0.367515
LJ          0.552898         1.24287        0.706002
LJ         0.0932435         1.14522         1.66141
LJ         -0.186296       -0.941394       -0.718732
LJ           0.20245        -2.17815       0.0270163
LJ           2.10938         1.20327         4.49428
LJ         -0.263357        0.406254       -0.956198
LJ         -0.613873         3.25787        0.212174
LJ          -3.77179         5.89071         5.68324
LJ           4.81031         5.28249         5.87167
LJ          -1.25775         2.60145       -0.638591
LJ         -0.620075        0.180521        -1.98343
LJ          0.811776         3.35949        -1.49932
LJ           1.79326       0.0743601        -1.47395
LJ         -0.378847         3.60533        -0.88908
LJ          -1.51287        -1.00139         2.15274
LJ           5.36803         -4.1556        -1.02067
LJ           2.41406        -3.09721        0.257382
