108
#Comment!
LJ          -4.49067        -4.47825        -4.48632
LJ         -0.445349       -0.438835        -3.82635
LJ          -3.82072       -0.436806       -0.442781
LJ         -0.438495         -3.8309       -0.437806
LJ          -1.18445        -2.73066        -2.73417
LJ          0.185952       -0.772204        -3.00338
LJ          0.393917        -1.05746        -1.06368
LJ          0.186466        -2.99657       -0.768659
LJ           1.87515        -1.96741        -1.96373
LJ           1.85867       0.0821432       -0.652968
LJ          -4.10338         5.01292         5.01292
LJ           1.85334       -0.657217       0.0837884
LJ          -2.75451        -1.19144        -2.75537
LJ         -0.762251        0.180963        -2.99577
LJ           -2.9968        0.176545       -0.769986
LJ           -1.0526        0.401551        -1.04783
LJ         -0.920364        -0.92211        -2.92351
LJ         0.0176436       0.0131053       -0.877835
LJ          -1.79968        0.366561         -2.5531
LJ          0.372769        -1.80087         -2.5439
LJ           2.23704       -0.977563        -2.12023
LJ           1.09739        -1.11687        -2.24225
LJ         -0.236791       -0.936918        -1.96492
LJ           5.17835        -2.87516        -4.06474
LJ          -1.95858         1.87403        -1.95786
LJ         0.0786432          1.8548       -0.660136
LJ         -0.655061         1.85591       0.0805304
LJ           5.01292        -4.10338         5.01292
LJ         -0.979063         2.23412        -2.12021
LJ           -1.1214         1.09354        -2.25003
LJ          -2.87536         5.17876        -4.06482
LJ         -0.950004       -0.218781        -1.95322
LJ            0.2328         0.21506        -1.99107
LJ          0.467188        0.458636        -3.19382
LJ          0.278498         1.96212        -1.85439
LJ           1.94593        0.279751        -1.85436
LJ          -2.75059        -2.74794        -1.19184
LJ          -1.05656         -1.0472        0.402404
LJ          -3.00511       -0.776138        0.184326
LJ         -0.764461        -2.99902        0.182775
LJ         -0.926351        -2.91948       -0.921354
LJ          0.365479        -2.54426        -1.80346
LJ           -1.8003        -2.55143        0.357896
LJ         0.0137835       -0.883458       0.0103421
LJ           2.23206        -2.12099         -0.9764
LJ           5.17848        -4.06494         -2.8756
LJ         -0.224737        -1.96207       -0.935016
LJ           1.09472        -2.25004        -1.12001
LJ          -2.93084        -0.91963       -0.918548
LJ          -2.54739        0.381667        -1.79681
LJ         -0.870481       0.0154937       0.0176907
LJ          -2.54005        -1.79973        0.384646
LJ          -1.78001        -1.80526        -1.79152
LJ          0.851304        0.848062        -0.83827
LJ         -0.815735        0.851878        0.852125
LJ          0.833464       -0.853879         0.83437
LJ          0.838741       -0.231258       -0.230677
LJ           1.01757       -0.201595        -1.33569
LJ           1.82064        -1.01451        -1.02458
LJ           1.01394        -1.33675       -0.203514
LJ           -2.1224         2.24379        -0.97807
LJ          -4.06474         5.17854        -2.87524
LJ           -2.2441         1.10156        -1.11418
LJ          -1.95804       -0.226934       -0.948789
LJ         -0.238939        0.843401       -0.236728
LJ          -0.19001         1.00856        -1.33871
LJ          -1.33659         1.00773       -0.183018
LJ          -1.03932         1.82522        -1.02869
LJ           2.91245         2.91229         2.09344
LJ           3.32535         3.32574        0.861104
LJ         -0.646324         2.92409        -5.17697
LJ           2.92384       -0.646327         -5.1771
LJ          -1.96444        -1.96183         1.87406
LJ           5.01292         5.01292        -4.10338
LJ         -0.656533       0.0829741         1.85789
LJ         0.0791446       -0.659445         1.85229
LJ         -0.984508        -2.12011         2.22912
LJ         -0.941757        -1.95461       -0.218832
LJ          -2.87559        -4.06502         5.17878
LJ           -1.1254        -2.25688         1.09251
LJ          0.233387        -1.99082        0.220797
LJ            1.9546        -1.85571        0.287848
LJ          0.280587        -1.85601         1.96168
LJ          0.471051        -3.19789        0.468156
LJ          -2.11511       -0.978982         2.24095
LJ          -1.96203       -0.933989       -0.228905
LJ          -2.25007        -1.10846         1.10545
LJ          -4.06465        -2.87512         5.17826
LJ         -0.238652       -0.235169        0.840015
LJ          -1.03138        -1.02588         1.82091
LJ          -1.33767       -0.186555         1.00929
LJ         -0.190436        -1.33786         1.00861
LJ           2.91203         2.09285          2.9122
LJ           2.92454        -5.17773       -0.646565
LJ         -0.646565        -5.17738         2.92421
LJ           3.32471        0.860971          3.3249
LJ           -1.9996        0.219892        0.227123
LJ          -1.85426         1.94951        0.273235
LJ          -3.18482        0.459485        0.461962
LJ          -1.85774        0.274844         1.94397
LJ           2.09334         2.91216         2.91248
LJ          -5.17539         2.92292       -0.646757
LJ          0.861179         3.32566         3.32534
LJ          -5.17658       -0.646441         2.92403
LJ          -5.58153        -5.58804        -5.58381
LJ           2.19863         2.18903       -0.864086
LJ         -0.876525          2.1983         2.20397
LJ           2.20609       -0.851026         2.17786
