108
#Comment!
LJ          -1.16093        -2.51011        0.213028
LJ          -5.00507         5.99208         1.03826
LJ           3.49502         4.30419        -3.38138
LJ           4.24067         5.32863        -3.64223
LJ           1.48159        -1.58606         -1.5626
LJ         -0.237823         1.58783        -1.01279
LJ          0.886983        -1.75387        0.262549
LJ           0.70806        -3.45521        0.247414
LJ           1.08527        -2.53896        -0.55929
LJ           1.40798        0.793167       -0.287561
LJ           2.53404         2.21316         1.53386
LJ           1.13074        -1.93841         2.35544
LJ          -1.26106       -0.899098        -1.26558
LJ          0.936661         2.70485        -1.80291
LJ          -0.96003         1.90908         0.37457
LJ         -0.207345         2.49406       -0.430811
LJ          -1.84796         1.18951        -1.44791
LJ         -0.598263       -0.447917      -0.0850491
LJ          -1.30478         2.93655        0.212567
LJ         -0.194484       -0.391212        -1.13181
LJ          0.888568        0.371991        -1.17431
LJ          0.161561        -1.27524         -0.6338
LJ           0.78447       -0.968979        -2.15776
LJ          0.992752         2.26551         1.60807
LJ          -1.29204         4.03626         1.30975
LJ         -0.217699         2.54551        -2.90376
LJ           2.17399         2.78632         -1.9507
LJ           2.89625         1.20458         2.71871
LJ         -0.358767         2.52941        -1.63978
LJ          0.817709         3.91741       -0.711023
LJ           0.22922         1.88104         2.14112
LJ          0.234295        0.740181         -2.0434
LJ          0.271704         1.82235        -2.05899
LJ           1.82447        0.898964        -1.92642
LJ           0.40607         1.32155       -0.217688
LJ         -0.821839        0.860004        -1.63256
LJ          -1.17935         -2.3643        -1.16101
LJ          -2.88312       -0.434545          1.2884
LJ          -1.60713        0.868779        0.728554
LJ          0.721268        -2.05155         1.25269
LJ         -0.793006        -1.52501      -0.0427624
LJ         -0.506394        -3.33826       -0.150116
LJ          -1.66068        -1.08847        0.667631
LJ         -0.844104       -0.521863        0.975058
LJ         -0.100801        -3.95489        0.783423
LJ          -6.14109        -1.76955       -0.535604
LJ         -0.102188         -2.3256       -0.566879
LJ           1.44091        -2.57605         0.50868
LJ          -1.28589        0.134734       -0.904811
LJ          -1.26615         1.96363       -0.610512
LJ          0.230293       -0.198108         1.26787
LJ          -2.51983       0.0565289       -0.670028
LJ         -0.404912        -1.59826        -1.38912
LJ           0.92082         1.38114        -1.27677
LJ           1.46743        0.519941        0.667993
LJ           1.02882       -0.986747          1.4241
LJ          0.871192       -0.753613        0.154681
LJ          0.223168        0.276483       0.0660689
LJ           1.71903       -0.316898       -0.269292
LJ           1.92881        -1.06339        0.514154
LJ          -1.62027      -0.0192055         -1.8647
LJ           4.93399         4.70231         2.73114
LJ          -1.78952         0.82786       -0.321043
LJ          -1.88972       -0.704667       -0.440262
LJ          0.309204         1.27679        0.835405
LJ         -0.764268        0.782629       -0.030016
LJ         -0.657649        0.454312        0.950579
LJ          0.770168         2.20547       -0.751382
LJ           3.02028         6.13162         5.01855
LJ           2.02407         2.50856         2.85358
LJ          -4.52181         0.51142          6.4435
LJ         -0.611853        -6.10959        -5.28742
LJ        -0.0851579        -2.23557         0.53988
LJ           2.79501         1.76274        0.469846
LJ         -0.374347        0.786708           1.996
LJ          0.877122        0.504571         1.76187
LJ          -1.14071        -3.39626        0.863931
LJ         -0.890939        -1.68161         1.23406
LJ           1.11315         3.13559         4.70262
LJ          -3.82451        -2.15296         2.12495
LJ         0.0826997        -1.21168        0.647186
LJ           1.86057         -1.7437       -0.322701
LJ         -0.654341        -2.62577         1.54172
LJ        -0.0231387        -1.25513         1.70234
LJ          -2.52435        0.514256        0.300169
LJ          -1.44268      -0.0280199        0.169401
LJ         -0.127361        -3.47242         1.98555
LJ           -4.0741          1.1694         3.42289
LJ          0.429468       -0.376347         2.19796
LJ         -0.740449        -1.51457         2.56623
LJ          -2.05796         1.91055        0.851216
LJ          0.644392        -1.14698         2.88805
LJ          0.158154        -2.41634           2.317
LJ         -0.187882        -5.75843         6.34038
LJ          -6.22664        -5.87655        0.777252
LJ          -6.15011         2.55999        -5.05614
LJ          -1.66893      -0.0451432         1.30022
LJ          0.147386         2.30412        0.578166
LJ           1.04908         3.06002       0.0171288
LJ           2.01713        -2.96507       -0.902459
LJ           5.32759         3.71743         1.57268
LJ          -5.56147          1.6972        -3.27261
LJ          0.120977         5.18496         1.65471
LJ           5.55108        -6.09121         2.90002
LJ           2.13638         2.45146         3.91941
LJ          -3.08402       -0.696327       -0.145777
LJ           1.87408         2.39635        -4.79219
LJ           5.61182         1.15384         2.25001
