108
#Comment!
LJ           3.45133       -0.388977        0.624972
LJ          -2.60024         2.75973        -4.49817
LJ           1.12819         -1.8881         2.03822
LJ          -1.57332         2.69464       -0.239768
LJ         -0.568754       -0.249859          2.3543
LJ           1.26795        -2.79961       -0.624313
LJ          0.713454       -0.082359        -1.27579
LJ           2.50895        -2.63327       -0.281315
LJ           1.78182        -1.02544          2.2246
LJ         -0.903323         -2.2852         2.69717
LJ         -0.151548         1.74943         3.30568
LJ          0.378551        0.777875        0.130685
LJ            0.4847        -1.07009        0.180231
LJ           2.39939         -4.7947        -3.81695
LJ            2.2965        -3.25619        -1.13369
LJ           0.36425        -1.91037        0.774079
LJ           3.83462        -1.90012         5.61507
LJ           1.27824         1.52228        0.150017
LJ         -0.361365         5.08554        -3.04975
LJ           1.95149         -1.8587       -0.649645
LJ          -2.44807        0.427366         2.55349
LJ           1.44848         3.29824        -1.65714
LJ           2.39006       -0.224196        0.448414
LJ         -0.937476        -3.27816       -0.877672
LJ          0.367183         1.70304         1.95919
LJ        -0.0324235         2.29258        -1.15412
LJ          -1.09655        0.820303        -1.29609
LJ          -5.68584         5.39677        -1.84144
LJ           3.56785         1.25556         1.53862
LJ           1.69807        -2.57594          1.3179
LJ           1.51547       -0.374283         5.26669
LJ            4.7652       -0.467417          2.5459
LJ           1.48205        -2.38128        -1.54569
LJ          0.411629       -0.825474        -2.04621
LJ       -0.00593483         2.24707       0.0501451
LJ           3.20185      0.00667953       -0.523173
LJ           2.21464        -1.31125          1.0501
LJ          0.287037        -2.52682        -1.96032
LJ           0.88308       -0.132869        -0.20723
LJ           1.67203        0.806384       -0.637397
LJ            2.1362         2.04581       -0.362807
LJ         -0.155144        -1.95477         1.74059
LJ          0.923483        -1.47294        -1.11287
LJ         -0.143648       -0.219534        0.447935
LJ           2.02446         1.10421         3.30467
LJ            3.9937        -4.78622        -2.85811
LJ            2.7759       -0.489699         1.44088
LJ            2.5401        -1.53446         2.94741
LJ            2.6764         -1.7679        -1.66356
LJ         -0.832499         1.96908         1.17946
LJ           2.30013        0.482976         1.41666
LJ         -0.179154         3.90389        -2.51312
LJ          -1.06208         6.45066         -3.2379
LJ        -0.0418902        0.351232         1.30692
LJ           2.47516        -1.89252          1.9637
LJ           2.67696        -1.23839       0.0391639
LJ           2.38547        0.861998        0.129809
LJ            3.1232        -2.66473        -1.22818
LJ           1.06057       -0.903569         3.46597
LJ           3.26236        0.686642        0.822241
LJ          0.371845         0.87965        -1.20713
LJ           5.77771         6.39906         -5.0785
LJ          0.113907        -1.44243         2.60379
LJ          -0.72765           4.789        -1.94576
LJ           1.49924         1.46928         1.23444
LJ           1.55263       -0.871207        0.168462
LJ           1.80582        -2.81099         2.35046
LJ           0.96842          1.8029        -1.20035
LJ          0.615774         2.48844        -1.92947
LJ           2.00339         1.43752         2.24441
LJ           2.06379         1.39728        -4.95849
LJ          0.385434        0.490645         3.39907
LJ           1.18735        -1.34392         1.17709
LJ           1.56358        0.460569        0.687397
LJ          -0.11088       -0.946542         1.30034
LJ          0.751435       -0.393846        0.949966
LJ            1.6503       -0.451535         1.36294
LJ         -0.675425         1.30746       0.0106858
LJ           3.49988        -1.02802         4.98888
LJ          0.431722       -0.237146         1.99626
LJ           2.10228       -0.360724       -0.489707
LJ           1.32383        -2.10868        0.270804
LJ           2.05494       0.0201435         2.50768
LJ           3.30058        -1.55162         1.59643
LJ          0.793975         2.25496        0.909362
LJ          -1.23894       0.0180805          1.0354
LJ         -0.585712        -1.20274        0.261703
LJ         -0.354879          1.0235        -2.09206
LJ            1.0935        0.538171         1.72434
LJ          0.555394        -2.69361         2.43826
LJ           1.02291         2.47344       -0.274289
LJ          0.054299         1.39622          1.0643
LJ         -0.120583        0.785952         2.53446
LJ          0.131033        -0.83431        -0.76928
LJ          0.373099        -2.22369       -0.357171
LJ           1.60784         0.54047         5.69319
LJ         -0.209386        0.237682       -0.556214
LJ          0.168157         3.30068        -0.25333
LJ          -2.90106          6.3093         5.08516
LJ           5.02106         4.65437         6.13167
LJ          -1.30441         3.40603        -1.01925
LJ         -0.264744       0.0566208        -1.54616
LJ          0.643064         3.17659        -1.06708
LJ           3.03878        -0.24779        -1.79092
LJ          -0.35806         3.94496        -1.33147
LJ          -1.36529        -1.76353         1.83469
LJ           3.10438        -3.37867        0.323935
LJ           2.14296        -3.31266         0.48571
