108
#Comment!
LJ           -1.8425         -1.8425         -1.8425
LJ            -1.675          -1.675        -3.17289
LJ          -3.17289          -1.675          -1.675
LJ            -1.675        -3.17289          -1.675
LJ          -2.03225        -2.98026        -2.98026
LJ           1.06992        -2.88808        -3.90119
LJ         -0.731324        -2.44416        -2.44416
LJ           1.06992        -3.90119        -2.88808
LJ          0.234765        -3.08702        -3.08702
LJ           2.00721        -1.31082        -3.08283
LJ          0.868494        -1.94982        -1.94982
LJ           2.00721        -3.08283        -1.31082
LJ          -2.98026        -2.03225        -2.98026
LJ          -2.88808         1.06992        -3.90119
LJ          -3.90119         1.06992        -2.88808
LJ          -2.44416       -0.731324        -2.44416
LJ          -1.00003        -1.00003        -2.70966
LJ         -0.112076       -0.112076        -2.71528
LJ          -1.04177      -0.0324066        -1.87278
LJ        -0.0324066        -1.04177        -1.87278
LJ           1.81054        -2.14735        -3.89728
LJ           1.90658        0.962184        -2.98564
LJ           1.38591        -0.34805        -2.46074
LJ           2.82127        -2.14517        -2.88734
LJ          -3.08702        0.234765        -3.08702
LJ          -1.31082         2.00721        -3.08283
LJ          -3.08283         2.00721        -1.31082
LJ          -1.94982        0.868494        -1.94982
LJ          -2.14735         1.81054        -3.89728
LJ          0.962184         1.90658        -2.98564
LJ          -2.14517         2.82127        -2.88734
LJ          -0.34805         1.38591        -2.46074
LJ          0.615501        0.615501         -3.1752
LJ          0.765543        0.765543         -1.8355
LJ          0.613335         2.10222        -1.68952
LJ           2.10222        0.613335        -1.68952
LJ          -2.98026        -2.98026        -2.03225
LJ          -2.44416        -2.44416       -0.731324
LJ          -3.90119        -2.88808         1.06992
LJ          -2.88808        -3.90119         1.06992
LJ          -1.00003        -2.70966        -1.00003
LJ        -0.0324066        -1.87278        -1.04177
LJ          -1.04177        -1.87278      -0.0324066
LJ         -0.112076        -2.71528       -0.112076
LJ           1.81054        -3.89728        -2.14735
LJ           2.82127        -2.88734        -2.14517
LJ           1.38591        -2.46074        -0.34805
LJ           1.90658        -2.98564        0.962184
LJ          -2.70966        -1.00003        -1.00003
LJ          -1.87278      -0.0324066        -1.04177
LJ          -2.71528       -0.112076       -0.112076
LJ          -1.87278        -1.04177      -0.0324066
LJ          -1.14095        -1.14095        -1.14095
LJ         0.0422167       0.0422167        -1.05971
LJ          -1.05971       0.0422167       0.0422167
LJ         0.0422167        -1.05971       0.0422167
LJ          0.781886        -1.04527        -1.04527
LJ           1.61492      -0.0868254       -0.990127
LJ          0.782017      -0.0369837      -0.0369837
LJ           1.61492       -0.990127      -0.0868254
LJ          -3.89728         1.81054        -2.14735
LJ          -2.88734         2.82127        -2.14517
LJ          -2.98564         1.90658        0.962184
LJ          -2.46074         1.38591        -0.34805
LJ          -1.04527        0.781886        -1.04527
LJ        -0.0868254         1.61492       -0.990127
LJ         -0.990127         1.61492      -0.0868254
LJ        -0.0369837        0.782017      -0.0369837
LJ           1.37678         1.37678       -0.730619
LJ           1.91155         1.91155        -2.03783
LJ           1.81002         2.82251         1.07005
LJ           2.82251         1.81002         1.07005
LJ          -3.08702        -3.08702        0.234765
LJ          -1.94982        -1.94982        0.868494
LJ          -3.08283        -1.31082         2.00721
LJ          -1.31082        -3.08283         2.00721
LJ          -2.14735        -3.89728         1.81054
LJ          -0.34805        -2.46074         1.38591
LJ          -2.14517        -2.88734         2.82127
LJ          0.962184        -2.98564         1.90658
LJ          0.615501         -3.1752        0.615501
LJ           2.10222        -1.68952        0.613335
LJ          0.613335        -1.68952         2.10222
LJ          0.765543         -1.8355        0.765543
LJ          -3.89728        -2.14735         1.81054
LJ          -2.46074        -0.34805         1.38591
LJ          -2.98564        0.962184         1.90658
LJ          -2.88734        -2.14517         2.82127
LJ          -1.04527        -1.04527        0.781886
LJ        -0.0369837      -0.0369837        0.782017
LJ         -0.990127      -0.0868254         1.61492
LJ        -0.0868254       -0.990127         1.61492
LJ           1.37678       -0.730619         1.37678
LJ           2.82251         1.07005         1.81002
LJ           1.81002         1.07005         2.82251
LJ           1.91155        -2.03783         1.91155
LJ           -3.1752        0.615501        0.615501
LJ          -1.68952         2.10222        0.613335
LJ           -1.8355        0.765543        0.765543
LJ          -1.68952        0.613335         2.10222
LJ         -0.730619         1.37678         1.37678
LJ           1.07005         2.82251         1.81002
LJ          -2.03783         1.91155         1.91155
LJ           1.07005         1.81002         2.82251
LJ          0.878412        0.878412        0.878412
LJ           2.00766         2.00766        0.233615
LJ          0.233615         2.00766         2.00766
LJ           2.00766        0.233615         2.00766
