108
#Comment!
LJ            2.5364        0.169023         1.15893
LJ           3.22978        0.703157        -2.29984
LJ         -0.834148        -2.35711        0.466298
LJ          -2.33167        0.331463       -0.499304
LJ           1.06122        -0.37342         3.38879
LJ           1.08409        0.468634        -2.05274
LJ           1.61038        0.746516       -0.823328
LJ           1.15107        -0.63929        -2.33508
LJ           1.31349       -0.724102         2.38987
LJ          0.449617        -1.49992         2.01803
LJ          0.375621          2.4123         2.00927
LJ           1.17583         1.27836         2.06602
LJ           -1.6089        -1.16005        -1.21094
LJ           3.56126        0.260809        0.143832
LJ          -1.73036       -0.595939         1.04183
LJ          -1.37271       -0.623327         1.97166
LJ          -1.30423        -2.01345        -3.33853
LJ          0.283272        0.109931       0.0577446
LJ          0.484936         3.54025         3.45703
LJ         -0.419763       -0.817952       -0.825405
LJ         -0.393908        -1.09817         3.91773
LJ           0.72709         1.52843       -0.970916
LJ             2.806        0.459854        -1.11598
LJ          -5.40535         1.14942        -4.76197
LJ           4.33307         4.10994         5.32361
LJ          -1.14837         1.59537       -0.297954
LJ          -2.99903        -3.58607        -1.98132
LJ          -4.70146        -6.03405       -0.977262
LJ           2.25648         1.55991         2.02217
LJ          -1.32223        -1.36864        0.430331
LJ         0.0648779        -1.83089          1.0074
LJ          -6.10967         5.13675        -2.11159
LJ        -0.0153306        -3.54024       -0.305753
LJ           2.07162       0.0586805        -1.80773
LJ         -0.765803         1.33962        0.797711
LJ           2.47316       -0.607129       -0.969822
LJ           1.10827        -2.33958        0.465403
LJ          -0.61331        -1.72648        -1.40468
LJ         -0.718536       -0.297806        0.360099
LJ           1.45588       -0.183198       -0.368611
LJ           1.65043          1.6843         0.36746
LJ          0.168704       -0.578454         2.56834
LJ         -0.873931       -0.302858        -1.87275
LJ          -1.53981       -0.507012       -0.294514
LJ           1.45089       -0.505874         1.25466
LJ          -2.83112        -4.42079         6.24981
LJ           2.24956       -0.647872         1.81603
LJ           1.63545         0.62299        0.580962
LJ          -1.92419       0.0395547        -1.59709
LJ         -0.620452        0.179107          1.5011
LJ          0.440084         1.55119         3.10626
LJ         -0.359771         1.77299        -1.88607
LJ          -6.35874        -3.82927        -1.27015
LJ          0.125938         1.81391        0.386117
LJ           1.70493        0.450667         1.72524
LJ           3.34504        0.752523         1.05078
LJ          0.598206        0.298057       -0.863219
LJ          0.647637        -1.67514         -1.2387
LJ          0.623331        -1.46216         3.30505
LJ           2.42745        0.324404       0.0289252
LJ          0.721664          1.1257      -0.0355365
LJ          0.826759         4.34997        -4.12427
LJ          0.127035        -3.02179         2.05538
LJ          -1.80147       -0.494394        -2.74179
LJ           0.58748        0.954971         1.04732
LJ          0.176387       -0.404433        -1.81494
LJ           2.17449       -0.795204         3.12994
LJ           2.54917          1.3659        0.724898
LJ           -1.6026        -3.69125        -2.96981
LJ          0.120937        0.894631         2.21027
LJ          -2.29491        0.524982         6.35902
LJ           3.21805        0.905129         2.13195
LJ           0.59448      -0.0390837         1.60679
LJ           1.05287         2.02564         1.26637
LJ          -1.63863        0.359922         1.60817
LJ           1.30344         0.87697         3.60852
LJ         -0.064435        -1.63561       -0.212145
LJ          -0.26255         1.01273       -0.371223
LJ          0.391116         2.24752         4.61249
LJ           1.35189         -1.5839         1.48437
LJ           1.13636       -0.691202        -1.33863
LJ          0.553137       -0.800775       -0.347411
LJ           2.10163       0.0659029         2.61758
LJ          0.364867       -0.705854         0.72642
LJ           1.41173         2.28015         2.36442
LJ          -1.68353         0.72114         0.22848
LJ          -1.05735        -1.61986          1.5666
LJ         0.0350332        0.852759        -1.64511
LJ           1.02759         0.35595         2.53877
LJ          -0.48494       -0.853537         1.27921
LJ         -0.671993         1.40079         1.97049
LJ          0.861307         2.57368         3.17198
LJ          0.156813        0.338734          3.2443
LJ          -1.22315        -1.66818        -2.30521
LJ          -1.21739        -2.29597        -0.55942
LJ           2.78563        -0.20709        -2.73517
LJ         -0.600347        0.175038       -0.917117
LJ          0.396748         2.56313        -0.67852
LJ            2.1788       -0.724903        0.411005
LJ           5.04243        0.886181        -5.55122
LJ           1.90839         4.58766       -0.255801
LJ         -0.978622          1.0594        -1.53065
LJ           1.73125         4.29913          0.9418
LJ          -3.01439         -1.3978        -5.33291
LJ           2.58696         1.28142        -1.70771
LJ          0.248459        -4.16862        -1.53103
LJ            2.0996        -3.42041        -1.49734
LJ           4.71209        -5.43039        0.659692
