108
#Comment!
LJ         0.0305685        -1.69163        0.124394
LJ            5.8856         2.64143        -5.56696
LJ          -1.77074         1.88274       -0.107833
LJ          0.310907        -1.56319         -3.7482
LJ          0.914486        -2.08054       -0.793305
LJ         0.0545969          1.9793         -1.1964
LJ           1.27383        -1.77968        0.548763
LJ           1.68208        -1.60366         1.85921
LJ           2.25381        -2.45646        0.301073
LJ           1.70356        0.320068        -1.45325
LJ         -0.256956         2.14147       -0.169215
LJ           1.47482        0.343709         1.29346
LJ         -0.176773       -0.830752        -1.76188
LJ           1.78138       -0.816699        -1.49051
LJ          -1.07029         1.04909         1.37963
LJ         -0.602511         4.02629         1.74191
LJ         -0.851076         0.80448        -1.85831
LJ         -0.373253       -0.817914        0.376541
LJ        -0.0143685         2.25217        0.780607
LJ         -0.189802       -0.744161       -0.686887
LJ          0.653079          -2.131        -1.80674
LJ          0.813358       -0.826184      -0.0462009
LJ         -0.871367         1.57617        -3.10068
LJ           1.13426         6.07027        -4.09191
LJ           5.75077        -2.37035        -2.53924
LJ         -0.091128         3.09523         -1.1182
LJ          -1.96722         2.71761         -0.6699
LJ          -6.25238         2.67718        -1.50364
LJ           1.88161         3.05716        0.759163
LJ           3.64787          6.3359        -3.64602
LJ          -1.22245         0.73136           2.603
LJ          0.993561       -0.238232        -2.09332
LJ          0.617917         0.67738        -1.78808
LJ          0.734798        -1.05023        -1.30382
LJ         -0.511564        0.168179         1.05631
LJ         -0.218345        0.207677        -1.17415
LJ         -0.842161        -1.45407       -0.864093
LJ          -2.04974        0.593351        -2.03238
LJ         -0.891182        0.991668        0.332293
LJ           1.62595       -0.536618        0.548117
LJ         -0.547016        -1.68966         1.16766
LJ         -0.216248        -2.41023         1.90447
LJ          -2.23651         -1.2516       -0.458634
LJ          -1.03232        -0.75063         1.26318
LJ          0.434993        -1.63505         1.78735
LJ           5.98336         1.84978        0.439672
LJ          0.520955        -2.70503        0.169536
LJ           2.49313         -1.3447        0.347594
LJ          -1.28336       -0.665188       -0.424398
LJ          -1.01504         2.11084       -0.961739
LJ        -0.0753899       -0.634512         1.72728
LJ          -1.15375        0.609416       -0.790659
LJ         -0.174847        -2.40546       -0.718894
LJ         -0.212909         1.15454       -0.628288
LJ           1.24509         1.19369        0.601808
LJ            1.9773        0.213471       -0.429591
LJ           1.92141         -1.3061       -0.511798
LJ          0.727284      -0.0509085       -0.841258
LJ           1.99223        -1.89562        -2.30923
LJ            2.9155       0.0749241        -1.55508
LJ          -1.19152       -0.272305        -1.47823
LJ          -3.87357         1.40024        -1.05676
LJ          -2.30421         1.56603        0.813982
LJ          -2.69374        -1.23488        -1.69316
LJ          0.330196         1.35434         2.53907
LJ         -0.424383         0.20401       -0.052214
LJ         -0.301785        0.432265         2.09093
LJ           1.09058         2.37318        0.912617
LJ           2.43445        -6.30274        -3.65635
LJ          0.386284        0.692478         1.40721
LJ          -3.36247        -5.66787         5.39302
LJ          -5.27146         3.15984          5.4447
LJ          0.681884       -0.945015        0.990412
LJ          0.827817          2.0212       -0.175075
LJ          -2.77977         1.11435         2.30139
LJ         -0.146489        0.476704          3.2743
LJ          -1.51496         -2.1545         1.22571
LJ          -1.33963        -1.27721        0.413283
LJ           1.76164       -0.200195         6.13336
LJ           4.79609        -1.30665         2.50055
LJ          0.761508        0.213602        0.457364
LJ           2.86744       -0.391557       -0.627607
LJ          -0.79117        -1.29428          2.1102
LJ           1.07031       -0.590111         2.19405
LJ           -2.4637         1.94919         1.75667
LJ          -1.43355        0.134082         1.62848
LJ           1.96956        0.483227         2.86423
LJ           1.32917         3.85132        0.429848
LJ        -0.0517137       -0.553232         3.00024
LJ          -1.33008       -0.488529         2.64533
LJ          -1.22529         2.02176        0.993399
LJ          0.813349        0.434913         2.60625
LJ          0.689855         -2.7652         2.50184
LJ            -4.674        -1.47073         5.09482
LJ            6.0145          -3.725        -1.01421
LJ          -6.15808         4.05189        -2.47349
LJ           -1.5268      -0.0479726        0.428422
LJ          0.134709            1.13        0.290684
LJ          0.782967          3.3164         1.53891
LJ           3.04539        -2.34311        -2.81687
LJ           4.56275         3.18988        -3.77826
LJ          -2.94744         0.46472        -1.29131
LJ         -0.783508        -6.18403        -4.63929
LJ           6.00088          3.4395         2.44195
LJ           1.86932         1.31592       -0.986359
LJ          -2.09632         -0.1829        -1.03629
LJ          -4.76164        -1.39535        -1.57578
LJ           3.35717        -5.34481        -0.48101
