108
#Comment!
LJ           2.81504        0.627877         1.66011
LJ           2.56614        -3.50316       -0.846823
LJ         -0.737498        -1.01424         0.54881
LJ          -2.61606        0.754382       -0.382883
LJ           1.41782        -2.10784         2.36479
LJ           1.78978         1.71323        -1.58138
LJ           2.25157          1.1648        0.776922
LJ           1.51453        0.387211        -1.67144
LJ           1.20493       -0.315806        0.886495
LJ          0.813744        -3.71421        0.329125
LJ          -2.40931         2.04622         1.81505
LJ           1.55107         1.53069         2.88231
LJ          -1.14566        -1.24945       -0.358416
LJ           2.61407        -1.07239       -0.328887
LJ         -0.661887         0.16451         2.83613
LJ         0.0506171        0.823151         2.20717
LJ          0.188815        -2.62314        -1.69006
LJ         -0.288606        0.985016        0.646344
LJ          0.488503         1.95277         2.72631
LJ         -0.589085        0.100068        -1.24041
LJ          0.776902        -2.66814         1.78828
LJ           1.11177          1.0902       -0.903966
LJ           2.20072        -1.77036        -1.49592
LJ           -6.3437         2.91131         5.44965
LJ            6.4632       -0.637799         5.22807
LJ          -2.48689          1.7005        0.272578
LJ          -3.11728        -5.76919        -1.10372
LJ          0.301183        -4.98337         0.25292
LJ           2.42597         2.23506         2.66782
LJ          -3.17507        0.157211         1.20755
LJ         -0.470099      -0.0889985           1.779
LJ          -4.05295        -5.84806          1.6581
LJ        -0.0359825       -0.960709        -1.65025
LJ           1.64929       -0.902409        -1.12986
LJ          -1.46079         2.27955        0.906844
LJ          0.472844        -1.25829       -0.612638
LJ          0.392732        -2.35424        0.918475
LJ          0.368835        -1.23158        -2.62944
LJ          -2.01046      -0.0646468         2.28239
LJ           1.76754        0.813087        -0.10822
LJ           1.15886         1.16432        0.692258
LJ          0.507624        -1.29714         1.53873
LJ          -1.09834       -0.926335        -1.41806
LJ          -1.64049       -0.268839        0.174648
LJ           1.65983        0.605153           1.384
LJ         -0.314129        -4.22486         4.68608
LJ           1.53377          -1.272        0.264323
LJ           2.54832        0.205883        0.451378
LJ          -1.64132       0.0293858       -0.982943
LJ          -1.08744        0.425877         1.04911
LJ          -0.48664         1.84966         3.06104
LJ         -0.628375         1.13826        -1.06111
LJ          -3.49661        -3.02407       -0.364343
LJ         -0.526923         2.33565        -1.00424
LJ           1.03552         1.22672         2.06924
LJ           1.79714        0.397154         2.46694
LJ          0.652196        0.432832        0.194824
LJ          0.633384       -0.269136        -2.14481
LJ           1.76907        -1.62175           1.389
LJ           3.63425        0.441933         0.75365
LJ          0.506752         1.50581      -0.0407021
LJ           4.13259         3.46786        -3.66506
LJ         -0.180374        -2.04038         2.05828
LJ           -1.3088       -0.151895        -2.05611
LJ         -0.843727         2.07644       0.0260697
LJ         -0.386383        0.535841        -2.81612
LJ           2.13657       -0.380963         1.40807
LJ           2.16679         1.96004         1.57914
LJ          -4.06167         1.29341        -4.68321
LJ         -0.373512         2.32013          1.5343
LJ          -3.93047       -0.575755         6.43327
LJ           3.33831       -0.658427         1.72347
LJ          0.613694        0.555324         1.30112
LJ          0.673444         1.98148         1.02368
LJ          -2.39032        0.908059         1.99714
LJ           1.08942       0.0485223         3.35709
LJ        -0.0198981       -0.467869       -0.131354
LJ           0.13343        0.653417       -0.571597
LJ          0.373338         4.47139          4.8881
LJ           0.54912        -1.11209        0.427958
LJ          0.256426        0.770586        -1.75637
LJ           0.87009       -0.198493       -0.883531
LJ           1.36946       -0.782597         2.09564
LJ        -0.0917919      -0.0519147        0.792713
LJ           1.38473         2.36575         2.16065
LJ          -2.03147        0.815107        0.649012
LJ         -0.796412       -0.826317         2.43567
LJ         -0.716021         1.36669        -2.23236
LJ          0.848591        0.163073         2.19906
LJ           0.21508       -0.503189         2.81975
LJ           -1.0899         1.35666         2.01419
LJ          0.267986         1.01583         3.24158
LJ          0.876537        -1.37388         2.87284
LJ          0.445845        -4.35035        -2.42246
LJ          -3.70105         1.17021        0.506744
LJ           2.11783        -2.41903       -0.432203
LJ         -0.900829        0.365449       -0.136364
LJ           1.27047         2.16203       -0.763731
LJ           1.61285       -0.332534       -0.120527
LJ           4.38609     -0.00320757        -5.38479
LJ           1.98181         2.38423        0.644859
LJ          -1.51942         1.25674       -0.468106
LJ           3.07905         3.36822        0.537711
LJ           -3.2708        -1.08795          5.8074
LJ           2.10904       -0.505879        -2.08267
LJ           1.32052        -2.27041         -1.0872
LJ          -5.29047         4.77572         -4.8181
LJ          0.561374         4.79492        -1.36981
