108
#Comment!
LJ          -2.97148        -2.97148        -2.97148
LJ          -1.06226        -1.06226        -3.21404
LJ          -3.21404        -1.06226        -1.06226
LJ          -1.06226        -3.21404        -1.06226
LJ          -1.27028        -2.03277        -2.03277
LJ         -0.387246        -1.91014        -3.64076
LJ         -0.196326        -1.35825        -1.35825
LJ         -0.387245        -3.64076        -1.91014
LJ          0.865565        -1.78895        -1.78895
LJ           2.12245         -0.2396        -1.42898
LJ           3.52004         5.10712         5.10712
LJ           2.12245        -1.42898         -0.2396
LJ          -2.03277        -1.27028        -2.03277
LJ          -1.91014       -0.387246        -3.64076
LJ          -3.64076       -0.387246        -1.91014
LJ          -1.35825       -0.196328        -1.35826
LJ          -1.03469        -1.03469        -2.11819
LJ        -0.0264386      -0.0264384        -1.48751
LJ          -1.79252       -0.194859        -2.56936
LJ         -0.194857        -1.79252        -2.56936
LJ           1.16612        0.324273        -3.21004
LJ           1.54358       -0.888488        -2.28904
LJ          0.282933       -0.942802        -2.19387
LJ           3.16946       -0.224254        -2.18264
LJ          -1.78895        0.865568        -1.78895
LJ         -0.239598         2.12245        -1.42898
LJ          -1.42898         2.12246       -0.239597
LJ           5.10712         3.52004         5.10712
LJ          0.324272         1.16613        -3.21004
LJ         -0.888495         1.54358        -2.28904
LJ         -0.224255         3.16946        -2.18264
LJ         -0.942801        0.282936        -2.19387
LJ          0.133506        0.133504         -2.5163
LJ          0.735023        0.735024        -2.01311
LJ           0.65649         1.79671        -2.33899
LJ           1.79671         0.65649        -2.33899
LJ          -2.03277        -2.03277        -1.27028
LJ          -1.35825        -1.35825        -0.19633
LJ          -3.64076        -1.91013       -0.387246
LJ          -1.91014        -3.64076       -0.387245
LJ          -1.03469        -2.11819        -1.03469
LJ         -0.194863        -2.56936        -1.79252
LJ          -1.79251        -2.56936       -0.194864
LJ        -0.0264401        -1.48751        -0.02644
LJ           1.16613        -3.21004        0.324273
LJ           3.16946        -2.18264       -0.224254
LJ          0.282934        -2.19387       -0.942803
LJ           1.54358        -2.28904       -0.888485
LJ          -2.11819        -1.03469        -1.03469
LJ          -2.56936       -0.194859        -1.79252
LJ          -1.48751      -0.0264378      -0.0264383
LJ          -2.56936        -1.79252       -0.194854
LJ         -0.419805       -0.419803       -0.419805
LJ          0.423501          0.4235       -0.471722
LJ         -0.471724        0.423499          0.4235
LJ          0.423503       -0.471719        0.423503
LJ          0.424204       -0.815401       -0.815402
LJ           1.11152       -0.129622        -1.55817
LJ           1.68136       -0.511078       -0.511063
LJ           1.11152        -1.55817       -0.129622
LJ          -3.21004         1.16613        0.324272
LJ          -2.18264         3.16946       -0.224255
LJ          -2.28904         1.54358       -0.888494
LJ          -2.19387        0.282936       -0.942801
LJ         -0.815402        0.424205       -0.815401
LJ         -0.129621         1.11152        -1.55817
LJ          -1.55817         1.11152       -0.129621
LJ         -0.511073         1.68137       -0.511074
LJ          0.966712        0.966719       0.0910124
LJ           1.05175         1.05175        -0.98449
LJ           1.75468         2.65288        -2.43339
LJ           2.65288         1.75468        -2.43339
LJ          -1.78895        -1.78895        0.865566
LJ           5.10712         5.10712         3.52004
LJ          -1.42898       -0.239599         2.12245
LJ           -0.2396        -1.42898         2.12245
LJ          0.324272        -3.21004         1.16613
LJ         -0.942803        -2.19386        0.282936
LJ         -0.224255        -2.18264         3.16946
LJ          -0.88849        -2.28904         1.54358
LJ          0.133505         -2.5163        0.133504
LJ           1.79671        -2.33899        0.656488
LJ           0.65649        -2.33899         1.79671
LJ          0.735024        -2.01311        0.735024
LJ          -3.21004        0.324273         1.16612
LJ          -2.19387       -0.942801        0.282934
LJ          -2.28904       -0.888492         1.54358
LJ          -2.18264       -0.224254         3.16946
LJ         -0.815403       -0.815403        0.424203
LJ         -0.511068       -0.511079         1.68137
LJ          -1.55817       -0.129622         1.11152
LJ         -0.129622        -1.55817         1.11152
LJ          0.966717       0.0910146        0.966718
LJ           2.65288        -2.43339         1.75468
LJ           1.75468        -2.43338         2.65288
LJ           1.05175       -0.984489         1.05174
LJ          -2.51631        0.133505        0.133506
LJ          -2.33899         1.79671        0.656486
LJ          -2.01311        0.735023        0.735023
LJ          -2.33899        0.656486         1.79671
LJ         0.0910103        0.966718        0.966711
LJ          -2.43338         2.65288         1.75468
LJ         -0.984493         1.05175         1.05175
LJ          -2.43338         1.75468         2.65288
LJ           3.90533         3.90533         3.90533
LJ           2.06208         2.06208       -0.893145
LJ         -0.893146         2.06208         2.06208
LJ           2.06208       -0.893147         2.06208
