108
#Comment!
LJ          -1.92306        -2.42749      -0.0439182
LJ          -4.72584        -5.74598         3.75374
LJ           6.17537         6.14616        -4.20721
LJ           5.22129         6.28758        -3.41969
LJ           2.77604        -2.18705       -0.315196
LJ         -0.722891         1.13958        -2.28197
LJ          0.614211        -1.72712       -0.624977
LJ          0.581608         -2.6365       0.0323582
LJ          0.133419        -2.42544        -1.30371
LJ           1.28344        0.713917       -0.378945
LJ           3.10191         2.43517         2.51552
LJ           0.74011        -1.52267         2.06668
LJ          -1.10586         -1.3714        -2.03667
LJ          0.240878          3.1934        -1.58549
LJ          -1.00194         1.35225       -0.105061
LJ         -0.644671         2.12575        -1.36136
LJ          -1.70729        0.221593        -1.20944
LJ          0.639394        0.235862        0.450267
LJ          -1.79905         1.89935       -0.826111
LJ         -0.696998       -0.577691        -1.30504
LJ           1.08137       -0.222962        -1.91148
LJ           1.29694       -0.884851       -0.907225
LJ          0.343258       -0.953457         -1.7326
LJ           3.28643       -0.809524          3.1785
LJ         -0.568443         3.71691         3.72223
LJ          0.930475         3.07595         -2.5566
LJ          0.722582         2.31843        -1.04407
LJ           3.14577        0.727049         3.53536
LJ         -0.372329         2.52692        -2.50985
LJ         -0.923346         3.25919        -1.75849
LJ         -0.668284         2.41177         4.47046
LJ         -0.238209        0.492993        -1.43961
LJ          0.741062         2.00016        -2.43633
LJ           0.37872        0.605093        -2.32651
LJ          0.172897         1.43689        -1.40675
LJ           -1.0984      -0.0699381        -2.15327
LJ          -1.37092        -1.96515        -1.13914
LJ          -2.07079       -0.879905          1.3902
LJ          -1.41034        0.840359        0.902897
LJ          0.451783        -2.43413         1.08801
LJ          -1.20271        -1.40565       -0.257374
LJ          -1.12554        -2.98676       -0.655873
LJ          -2.06417        -1.50343         0.49023
LJ          -0.47873       -0.499091        0.208826
LJ         -0.260833        -3.25149        0.709901
LJ           6.41103         1.39623        -1.42548
LJ         -0.383925        -1.50438       -0.874876
LJ           1.62363        -2.05937       -0.521805
LJ          -1.06555        0.410199       -0.279872
LJ         -0.893117          1.0937        -1.10804
LJ          0.105616       -0.198529         1.33056
LJ          -2.70216       -0.104044       -0.697763
LJ          0.330624       -0.686318       -0.530738
LJ            1.3481        0.934054         -1.5825
LJ           1.39114        0.171892         1.36842
LJ           1.03476       -0.804359         1.17816
LJ           1.32371       -0.467735       0.0755253
LJ          0.685316         0.14977        -1.02783
LJ           1.76259        0.026155        -1.09697
LJ           1.20555        -1.64767        0.555294
LJ          -1.90326       -0.961102        -1.52574
LJ           4.03765         4.95097         3.28012
LJ          -2.12409        0.852472       0.0758466
LJ          -1.88397        -0.69107       -0.457689
LJ          0.509177         1.33042        0.291706
LJ        -0.0270884        0.624567       -0.410486
LJ         -0.458088        0.576641        0.574261
LJ         -0.117501         2.10098       -0.466443
LJ           3.34144         5.80255         3.41995
LJ           3.38425         3.12319         3.43861
LJ          -4.72054         2.13785          6.3606
LJ          0.971195        -4.75891         -6.2985
LJ         -0.928909        -2.55259        0.251233
LJ           3.14703          1.8218         1.65047
LJ         -0.616996        0.886283         1.63227
LJ          0.536211        0.211353         2.25678
LJ          -1.71826        -2.94934        0.899998
LJ          -1.08551        -1.47792        0.884945
LJ          -0.17936         4.55005         4.19324
LJ          -1.71381        -2.08946         1.41336
LJ         -0.103786        -1.61875        0.295064
LJ           2.21848         -1.4019        0.151407
LJ         -0.632385        -2.48653         1.25556
LJ        -0.0987922        -1.63573         1.39267
LJ          -2.41018        0.144413        0.910294
LJ          -1.38927       -0.427029        0.749273
LJ          -0.83876        -3.36366         1.96545
LJ          -5.52148       -0.580551         4.01112
LJ        -0.0338305        -0.65766         2.63192
LJ          -1.11115        -1.75304         2.24101
LJ          -1.68786         1.92282        0.635761
LJ          0.562401        -1.53093         3.87568
LJ         -0.116963        -2.35546         2.16185
LJ           1.53462         6.02321        -5.33356
LJ          -5.05752         6.13151         1.79961
LJ          -6.18354         2.32633        -5.35926
LJ         -0.922928       -0.482802         1.76374
LJ          -1.15882         2.53684       -0.270947
LJ           1.01423         2.40413        0.183441
LJ          0.373491        -4.43941       -0.488187
LJ           4.65175          5.0766          4.5354
LJ          -6.32846         2.39849        -4.37726
LJ           1.77857         4.65224         3.66303
LJ            5.3769        -5.02157         3.15474
LJ           2.40901         3.11743         4.44325
LJ          -2.93196        -1.19829       -0.691316
LJ            4.9984        -1.05767        -5.07117
LJ           1.56794         4.72048       -0.940517
