108
#Comment!
LJ           2.59062        0.288484         1.42586
LJ           2.18345        -2.93322        -1.66004
LJ         -0.311575        -1.16424        0.639176
LJ          -2.61971        0.535013       -0.278531
LJ           1.54285        -1.68704         2.88117
LJ           2.31984         1.39307        -1.37365
LJ           2.54795         1.85566         0.65179
LJ           1.62336        0.362724        -1.96358
LJ           1.18169       -0.521405         1.25163
LJ           1.06112        -2.17053        0.695684
LJ           -1.7357         2.21271         2.63179
LJ           1.69592         1.45067         2.48115
LJ          -1.49358        -1.03036       -0.296698
LJ            2.7297       -0.998186       -0.430782
LJ          -1.23592      -0.0542158         2.43429
LJ         -0.331311        0.656576         2.02146
LJ        -0.0607637        -2.92899        -1.79951
LJ         -0.629909        0.825379        0.263853
LJ          0.944876         2.37217          2.5138
LJ         -0.396573       0.0277674        -1.35715
LJ          0.790412        -2.49366         2.02762
LJ          0.985377         1.29923        -1.09055
LJ           2.17883        -1.66718        -1.66022
LJ           -6.0879         2.49295         6.14489
LJ           5.91791        0.537002          5.2251
LJ          -1.86337         2.02632       -0.333002
LJ          -3.04915        -5.39131        -1.24176
LJ        -0.0801152        -5.97777       -0.417354
LJ           2.59145         2.32761         2.40281
LJ          -3.08291        0.478675         1.33664
LJ         -0.295237       -0.658951          1.6723
LJ          -4.57546         -6.3414        0.722583
LJ          0.600625         -1.7525         -1.2695
LJ           1.82531       -0.465872        -1.23352
LJ           -1.8237         1.64085         1.09207
LJ           1.17995        -1.55424       -0.343581
LJ         0.0593945        -1.82043         1.59416
LJ           1.39156        -1.85391          -2.284
LJ          -1.89324       -0.337255         1.31536
LJ           1.48518         1.09512      -0.0687215
LJ           1.27329         1.34947        0.896634
LJ          0.516757       -0.988224         2.17323
LJ          -1.06998        -0.72659        -1.99071
LJ          -1.99487       -0.340493        0.314983
LJ           1.38624        0.440269         1.72404
LJ         -0.943845        -4.27917         5.07999
LJ           2.03759        -1.02583          0.5051
LJ           1.98762        0.403916        0.636731
LJ          -1.38996       -0.121671        -1.17193
LJ         -0.957835        0.263377         1.21539
LJ          -0.30782         1.61467         2.69571
LJ          -0.83906         1.79638       -0.927574
LJ          -4.22972        -3.21707       -0.588996
LJ         -0.362272         2.99123       -0.934604
LJ          0.436147         1.65641         1.66983
LJ           2.75528        0.232023         2.66749
LJ          0.390478         0.44175       0.0634503
LJ          0.433307       -0.796358        -1.72827
LJ           1.25297         -1.5206         1.53093
LJ           3.11558        0.720221        0.569168
LJ           0.25024         1.67072        0.302688
LJ           3.30717         3.69221         -3.7845
LJ         -0.344105         -2.6048         2.42279
LJ           -1.9553        0.120791        -2.21943
LJ         -0.655108         2.11044        0.140249
LJ         -0.199189       -0.135775        -2.36004
LJ           2.29467       -0.739055         1.68924
LJ           2.45955         1.26378         1.76635
LJ          -3.54077      0.00395067        -4.27531
LJ         -0.398361         1.38617         1.21921
LJ          -3.62134       0.0157683          6.4327
LJ           3.49715        -0.44873         1.58768
LJ          0.452309        0.735957         1.04636
LJ          0.874262         2.46037        0.991664
LJ          -1.97296        0.741826         1.76935
LJ           1.74069      -0.0679673         3.29144
LJ         0.0376775       -0.838599       -0.546245
LJ        -0.0336109        0.967193       -0.730532
LJ          0.172396         3.84652         4.64922
LJ          0.629001       -0.855014        0.416734
LJ          0.449462        0.592107        -1.82497
LJ          0.826418       0.0132277       -0.982078
LJ           1.45028       -0.659317         2.36567
LJ         -0.275259       -0.193505        0.541973
LJ           1.65785         2.31752         1.74787
LJ           -1.6752        0.672164        0.609872
LJ         -0.931767        -1.77987         1.47854
LJ         -0.713738         1.00815        -1.71537
LJ          0.583318       0.0790502          2.3256
LJ         -0.431943       -0.960403         2.78676
LJ          -1.11406          1.3857         2.07915
LJ          0.984429         1.60106         3.28596
LJ          0.686906       -0.908854         3.15605
LJ         -0.160704        -3.38075         -2.8709
LJ          -3.46186       -0.491258        0.391456
LJ           2.78277        -2.52232        -0.79731
LJ         -0.761955        0.057203       -0.345743
LJ           1.11934         2.05275       -0.201245
LJ           1.42951       -0.315604       -0.157984
LJ           4.54089        0.211773        -5.41706
LJ           1.83024         2.53169        0.599123
LJ          -1.49208         1.00068       -0.321677
LJ           2.98644         3.92289        0.719779
LJ          -3.10744         -1.4855         6.19458
LJ           2.57205       -0.266617        -1.95861
LJ            1.2465        -2.61409        -1.47937
LJ           6.25593          5.9574        -3.99043
LJ          0.694698         6.34321       -0.583166
