108
#Comment!
LJ           2.62058       -0.588209         1.54616
LJ           1.78557        -2.23373         1.30117
LJ          -1.09291        -1.00712         1.78042
LJ           -3.5726         1.97988          1.1108
LJ           2.71893         -1.4993         1.08795
LJ           1.43344          1.5275        -1.39297
LJ           2.83782         1.00079        0.752289
LJ           2.05407        0.481011        -1.06948
LJ           1.34537         -1.1767        0.966939
LJ           2.29318        -2.11096        -1.24775
LJ          -2.39484          2.5981        0.801299
LJ           1.10018         1.73165         3.05599
LJ         -0.977367        -1.54472        0.125058
LJ           2.87605        -0.37874      -0.0346426
LJ         -0.140537        0.575619         2.82362
LJ        -0.0563347         1.13964         1.52845
LJ          0.675822        -2.18102        -2.35542
LJ          0.495426        0.791027        0.271465
LJ          -0.72399         1.50424         2.56688
LJ         -0.284681       -0.451341        -1.12236
LJ          0.871208        -3.13048         1.39149
LJ           1.22312         0.56514       -0.455222
LJ           2.20493        -1.25717        -1.96785
LJ           6.05374         3.77394         4.01089
LJ            -5.269        -3.04049         5.28579
LJ          -1.97127         3.19101       -0.869859
LJ          -3.26049         6.38737       -0.799657
LJ          -0.32771        -5.59637         2.48546
LJ           1.46107         2.46018          2.1589
LJ          -2.77382      0.00662281         1.11365
LJ         -0.348081        0.118168         1.77693
LJ          -2.96008        -4.81886         3.58576
LJ       -0.00140805        -1.08623        -1.92966
LJ          0.977872         -1.4475        -1.48177
LJ           -1.2124         2.38407        0.752828
LJ          0.125098         -1.2736       -0.572578
LJ         -0.644686        -2.50056        -0.41016
LJ         0.0033718        -0.83066        -2.94745
LJ          -1.27509         0.33576         2.61847
LJ           2.45562        0.742602       -0.118425
LJ           1.41644         1.16172        0.619816
LJ          0.716027        -2.26508         0.67218
LJ          -1.81311       -0.334942       -0.954056
LJ          -1.85545       -0.893613       0.0170421
LJ           1.77494         0.75941          1.5791
LJ          0.996699        -4.09152         3.83503
LJ           1.25412        -2.13196       -0.322846
LJ           2.03612        0.027862        0.477124
LJ          -1.92191        0.979961       -0.277906
LJ          -1.46271        0.529138         1.31429
LJ          -1.31503        0.715486         3.74464
LJ          -1.12196        0.796767        -1.17414
LJ          -1.78786        -2.47396        0.115124
LJ          -1.18794         2.50935        -1.08754
LJ          0.905862         1.31783         1.90005
LJ             2.327         1.43071         2.30447
LJ          0.847218       -0.214563        0.209675
LJ            0.3427      -0.0893906        -2.05798
LJ           2.36899        -1.81686    -0.000834733
LJ           3.75131        0.472454      0.00555076
LJ         -0.349124         1.53145       -0.818622
LJ           5.84542         2.99722        -3.41457
LJ         -0.298338        -1.81981         1.18501
LJ         -0.888388      -0.0142696        -1.93145
LJ         -0.185566         1.71952        0.173393
LJ        -0.0170535         1.07015        -2.22115
LJ           1.53818       -0.426205         1.98832
LJ            1.5488         2.05929         1.18438
LJ          -4.78081         4.24286        -5.79928
LJ         -0.482204         2.12056         1.66108
LJ          -4.59504        -1.56985         6.33025
LJ           3.37219       -0.828349         2.39054
LJ          0.862141        0.248276         1.20695
LJ          0.593683         1.67564        0.949609
LJ          -2.57244         1.02184         1.62536
LJ          0.764709        0.543404          3.3299
LJ         -0.840451       -0.544834        -0.20225
LJ          -0.39714        0.418708       -0.358914
LJ          0.792771         5.74852         5.36371
LJ          0.163842        -1.10819        0.502495
LJ          0.410802        0.611692        -1.15597
LJ          0.698245       -0.419103       -0.844916
LJ          0.174474       -0.847675         1.66643
LJ         -0.135223        -0.13303        0.763789
LJ          0.198529         2.08674         2.42636
LJ          -2.03318         1.68385        0.645711
LJ          0.255974       -0.824639         4.27338
LJ          0.559804         2.52979        -1.55735
LJ          0.673466        0.257585         2.29672
LJ        0.00529601       -0.663416         2.89227
LJ          -1.64281         1.80368         1.79877
LJ          0.185436          1.8535         3.52071
LJ          0.984293        -1.47718         1.92527
LJ           1.73328        -5.96274        -1.16099
LJ          -4.07577         2.94495         2.23558
LJ          0.477484        -3.25667        0.396907
LJ         -0.702436        0.966029        0.606098
LJ          0.781343         1.67736         -0.2127
LJ           1.56655       -0.885287       -0.306986
LJ           4.06898       -0.448615        -5.32014
LJ            2.1893         1.80861        0.355817
LJ          -1.23941          1.9656         -0.1712
LJ            4.0209         1.61137        0.908947
LJ          -3.64567       -0.498833         5.08557
LJ           1.43963       -0.512179        -1.64245
LJ          0.646143        -2.56328        -1.12704
LJ          -2.78717         2.02362        -6.30274
LJ        -0.0901659         3.44289        -4.01307
