108
#Comment!
LJ           2.54062         0.10487          1.1504
LJ           3.21283        0.834135        -2.28373
LJ         -0.792687        -2.35107        0.463184
LJ           -2.3271        0.267356       -0.494886
LJ          0.966395       -0.326103         3.45517
LJ           1.13223        0.382878         -2.1313
LJ           1.60318        0.762991       -0.871581
LJ           1.15267       -0.659962        -2.34958
LJ           1.25696       -0.655595         2.42736
LJ          0.430346        -1.49343         2.00499
LJ          0.379728         2.39209         1.94787
LJ           1.16519         1.25791          2.0358
LJ          -1.60555         -1.2289        -1.19375
LJ           3.52681        0.276265       0.0831225
LJ          -1.76225        -0.57695        0.945676
LJ          -1.36615       -0.676317         1.94298
LJ          -1.35701        -1.97365        -3.36993
LJ          0.307177        0.156782       0.0897123
LJ          0.492156         3.53545         3.50092
LJ         -0.495602       -0.801769       -0.812754
LJ         -0.379546        -1.09025         3.98725
LJ          0.764722         1.47413       -0.968034
LJ           2.69596        0.496709        -1.04179
LJ          -5.38928         1.11426        -4.71089
LJ            4.2927         4.20134         5.32687
LJ          -1.12699           1.548        -0.30449
LJ           -2.9995        -3.52257        -2.01448
LJ           -4.8117        -6.04918       -0.983332
LJ           2.20108         1.44958         1.97255
LJ          -1.29873        -1.31051        0.377999
LJ         0.0291107        -1.87037         1.00526
LJ          -6.14816         5.10051        -2.18405
LJ        -0.0186508        -3.61899       -0.317772
LJ            2.0499       0.0813817        -1.77203
LJ         -0.753004         1.24199        0.767488
LJ           2.51333       -0.580864       -0.970701
LJ           1.15148        -2.31807        0.403598
LJ         -0.563271        -1.69755        -1.38294
LJ         -0.695021       -0.269993        0.318696
LJ           1.43292       -0.162502       -0.328423
LJ           1.61201         1.71398        0.349269
LJ          0.219638       -0.600708          2.5343
LJ         -0.857416       -0.308694        -1.81257
LJ          -1.46026        -0.54816       -0.272885
LJ            1.4672       -0.535125         1.16621
LJ          -2.87954        -4.42407         6.27993
LJ           2.25093       -0.667907         1.86395
LJ            1.7375        0.611729        0.560859
LJ          -1.89603       0.0507431        -1.66344
LJ         -0.678523        0.231332         1.51636
LJ          0.490847         1.52931         3.01536
LJ          -0.34529         1.76039        -1.93596
LJ           -6.4124        -3.84565        -1.28769
LJ          0.179342         1.79143        0.444436
LJ           1.67312        0.432328         1.71417
LJ           3.35744        0.783614          1.1202
LJ          0.593657        0.202607       -0.902628
LJ          0.604401        -1.66141        -1.15302
LJ          0.621907        -1.47712         3.36471
LJ            2.4707        0.249579      -0.0119423
LJ          0.752147         1.00915       -0.040811
LJ          0.763089         4.36647        -4.13253
LJ          0.174027        -3.00207          2.0848
LJ           -1.8266       -0.458936        -2.76255
LJ          0.636125        0.945259         1.10459
LJ           0.16191       -0.353886        -1.73774
LJ           2.17685       -0.809067         3.14561
LJ           2.57081         1.38713         0.71725
LJ          -1.53033        -3.76184        -2.92408
LJ          0.141575        0.907669           2.185
LJ           -2.2612        0.530976         6.35909
LJ           3.12615         0.99791         2.11427
LJ          0.536534        0.112279         1.62245
LJ            1.0865         2.07133         1.20226
LJ          -1.67185        0.349641         1.60647
LJ           1.27357        0.865965         3.55627
LJ        -0.0202959        -1.66197       -0.186747
LJ         -0.249466         1.01247       -0.361182
LJ          0.399924         2.22227         4.65694
LJ           1.36199        -1.63622         1.45452
LJ           1.12411       -0.720974        -1.33727
LJ          0.602242       -0.788719        -0.38166
LJ           2.14852       0.0441489         2.66906
LJ          0.447466       -0.682021        0.764763
LJ           1.43768         2.24456         2.41474
LJ          -1.61119        0.778005         0.23733
LJ          -1.06091        -1.64606         1.55578
LJ          0.070826         0.91161        -1.61857
LJ          0.952877        0.287208         2.53283
LJ         -0.503983       -0.834457         1.26682
LJ         -0.672847           1.404           1.921
LJ          0.851965         2.63188         3.12373
LJ          0.207768        0.382242         3.23977
LJ          -1.22093        -1.71964        -2.26964
LJ          -1.18507        -2.31936       -0.507842
LJ           2.74038       -0.102308        -2.77287
LJ         -0.580987         0.18218       -0.922055
LJ          0.372165         2.58857       -0.615562
LJ           2.25889       -0.763112        0.393389
LJ           5.05638        0.904097        -5.55469
LJ           1.90376         4.61452       -0.221522
LJ          -1.03473         1.00783        -1.54802
LJ           1.69395         4.30035        0.902193
LJ          -3.01111        -1.38891         -5.2973
LJ           2.54565         1.29535        -1.67233
LJ           0.22166          -4.172        -1.51846
LJ            1.9897        -3.32825        -1.43226
LJ           4.81435        -5.40081        0.691213
