108
#Comment!
LJ          -1.98176        -2.07798       -0.335105
LJ          -4.52089        -4.93052         5.73968
LJ          -5.59362        -4.94581        -3.98731
LJ          -5.91146        -6.21752        -4.13313
LJ           1.47322        -2.63212      0.00472706
LJ          -0.65503        0.720475        -2.50369
LJ            1.5201          -1.796       -0.650205
LJ          0.471327        -2.43163       -0.206805
LJ         -0.318749        -1.69248        -1.98021
LJ           1.60517           0.482       -0.462503
LJ           3.89963         2.96389         3.23701
LJ            1.3713        -1.46476         1.49739
LJ          -1.24387         -1.1644        -2.68542
LJ         -0.362251         2.84756        -1.48465
LJ           -1.9322        0.736508        0.165403
LJ         -0.745993         2.03169        -1.06519
LJ          -1.33034       -0.133677        -1.55038
LJ          0.600563        0.202853       0.0977428
LJ          -2.10936          1.8317        -2.18979
LJ         -0.860427        -1.07876        -1.16588
LJ            1.2253        -1.39273        -2.71733
LJ           1.15479       -0.956789        -1.75866
LJ          0.140266        -0.66913        -1.50388
LJ           4.29959        -2.15978         5.29788
LJ         -0.586675         2.37032         5.94489
LJ          0.930433         1.87308        -1.77272
LJ          0.783923         2.14909       -0.734032
LJ           4.51923        -1.72763         4.11515
LJ         -0.392226         1.91753        -2.23857
LJ           -1.3346         2.43622        -1.86275
LJ          -2.17873         3.95528         5.64553
LJ         -0.373991        0.284199        -1.38979
LJ          0.608985          1.2143        -3.24511
LJ           0.48947        0.844541        -2.23054
LJ         0.0602074          1.5342        -1.30068
LJ         -0.666885       -0.358899        -2.33938
LJ          -1.29841        -2.09878        -1.22484
LJ          -2.09918       -0.608128         1.58357
LJ          -2.29237        0.846506         1.26996
LJ          0.554574        -2.46877        0.989561
LJ         -0.946479        -1.16762        -0.12596
LJ          -0.36638        -2.82478         -1.1906
LJ          -1.50319        -1.52026        0.675216
LJ         -0.130851       -0.767851        0.532758
LJ          0.521478        -3.53857       -0.453921
LJ           6.11454          3.9497        -2.19258
LJ        -0.0222618        -1.63628        -0.73972
LJ           2.19936        -0.58443        -0.62027
LJ         -0.945445        0.682434       -0.561422
LJ          -1.24132         1.10034        -1.50824
LJ          0.107912      -0.0478734         1.15801
LJ          -2.47122         -1.0878        0.301029
LJ         -0.379107       -0.250884       -0.328025
LJ           1.12724         1.13695        -1.16413
LJ          0.932103          0.7367        0.943615
LJ           1.12171       -0.642841        0.742281
LJ          0.927284       -0.651146       -0.676601
LJ           0.73642         0.12725        -1.51092
LJ           1.76661     -0.00578565        -1.38453
LJ           0.66625        -1.43845       0.0967022
LJ          -1.91327        -1.13445        -1.27765
LJ           4.87295           4.932         5.74725
LJ          -2.23487        0.936381        -1.18726
LJ           -1.6668       -0.241462       -0.220644
LJ          0.815442         1.41172      -0.0650722
LJ         0.0603876        0.906051       -0.443288
LJ         -0.420666        0.535361        0.471489
LJ         -0.729096         1.55324        0.035045
LJ           3.42441         5.47228         2.26206
LJ           4.16584         3.90868         3.62976
LJ          -4.01284         2.95958         5.62896
LJ           2.46395        -4.07166         5.74912
LJ         -0.963622         -2.3284      -0.0602382
LJ           3.23291         2.24258         2.74061
LJ         -0.566334        0.871958         1.75173
LJ          0.752873       -0.628504         1.76458
LJ          -1.38597        -3.24667         1.09426
LJ         -0.709579       -0.828942         1.49504
LJ          -1.67215         5.70325         4.81816
LJ          -1.76705        -2.37528         1.51951
LJ         -0.186031        -1.90434        0.481097
LJ           1.84941         -1.3289        0.222784
LJ         -0.615845         -2.0466         1.50472
LJ          0.341532        -1.44739         1.17199
LJ          -2.42368        -0.11899        0.732767
LJ           -1.1443       -0.139008        0.680066
LJ          -2.33787        -3.53864         1.59939
LJ           6.22916        -1.99092         4.48371
LJ         -0.273918       -0.633406         2.36124
LJ          -1.45234        -1.51921         2.07988
LJ          0.142831         1.32469        0.939327
LJ          0.125317        -1.07842         3.53668
LJ          0.500068        -2.12922         2.10785
LJ           2.71211         5.49617        -4.26701
LJ          -4.13186         5.54234         2.84267
LJ           6.06592         2.48979        -6.37681
LJ          -1.54225        0.190845         2.07071
LJ          -1.75161         1.95565       -0.596014
LJ         0.0564717         2.19909       0.0574457
LJ          -1.62003        -3.65844        0.153535
LJ           3.12458         5.56404         4.88001
LJ           5.76641         3.10601        -3.78757
LJ           3.21398          4.4301         4.31441
LJ            5.2437        -4.20749         3.35675
LJ           2.75498         3.50702          3.7789
LJ          -4.14311        -3.84645        -1.60416
LJ          -5.40868        -3.84573        -5.28711
LJ          -1.51185        -5.21805         -3.4368
