108
#Comment!
LJ          0.415314        -1.29246       -0.245067
LJ           4.54368        0.822482         5.28518
LJ          -1.97595          0.7512      -0.0219991
LJ         -0.310795        -4.31382        -2.33764
LJ           1.26512        -2.06686       -0.631399
LJ          0.893881         2.36069       -0.473261
LJ           1.55166       -0.998734         1.36435
LJ           2.56449        -1.92157         1.04174
LJ           1.08115        -1.80954        0.460431
LJ           1.18926        -0.31002        -1.76888
LJ         -0.773889         2.21484       -0.156406
LJ           1.75208         1.37303         1.92303
LJ         -0.135159        -1.59642         -2.3944
LJ           2.22438        -1.15129        -1.43326
LJ          -1.62464         1.00528         3.09418
LJ            1.0968         3.81542         1.89224
LJ          -0.11099         1.50351        -1.72324
LJ         -0.364182       -0.318399        0.558063
LJ         -0.929281         1.76918         1.44315
LJ         -0.215026       -0.993369        -1.25355
LJ          0.401606        -2.22711        -1.52519
LJ           1.12374       -0.230849        0.537713
LJ         -0.351056          2.2652        -2.73409
LJ           2.49669         5.83768        -2.32727
LJ           3.23272        0.448127        -4.23312
LJ          -1.24326         3.62337        0.313322
LJ          -2.12855         2.66338        0.350451
LJ          -4.73204         3.59856        -3.26563
LJ           1.63373         1.93388         1.02777
LJ           5.08973         4.91075        -6.19655
LJ          -1.19236        0.034375         2.66754
LJ          0.817382        -1.13804        -2.34776
LJ         0.0625948        0.248355        -1.20179
LJ          0.771894        -1.16054        -1.22277
LJ         -0.994301         1.10576       0.0699707
LJ         0.0553048       -0.456316        -2.19434
LJ         -0.520361         -2.1001       -0.403571
LJ          -1.05155         1.23591        -2.10752
LJ          -1.55212        0.741753         1.08401
LJ           2.30178        0.409249         1.01026
LJ          0.514473        -1.03664        0.725418
LJ          0.554819        -1.99951          1.6103
LJ           -1.9962        -1.57323       0.0841633
LJ         -0.819116       0.0448476         1.55273
LJ          0.599126         -1.0391         2.02544
LJ           5.68289        -2.00735       -0.634095
LJ           1.01195        -2.84344         1.15535
LJ           2.16089        -0.60612         0.41433
LJ         -0.677546       -0.998552       -0.214171
LJ          -1.69953         1.70058       -0.331206
LJ         -0.177054       -0.200872         2.56384
LJ          -1.46568        0.662869        -1.04102
LJ          0.120446        -2.45196        0.348863
LJ          -0.51326         1.23153       -0.878163
LJ          0.977387        0.753677         1.32272
LJ           1.32344        0.715064        0.102678
LJ           1.53791       -0.948604       -0.422339
LJ          0.947227       -0.197934       -0.721874
LJ           1.34824        -2.00774        -2.00632
LJ           1.97841       -0.902047         -2.5963
LJ         -0.972662     -0.00114796        -1.79013
LJ          -3.02894          1.2007        -2.15766
LJ          -3.01044        0.217183        0.203893
LJ          -1.62793        -1.93322       -0.806234
LJ          0.249471         1.78755         1.24925
LJ         -0.656097       0.0418999       -0.445821
LJ         -0.882709        0.989444         2.16992
LJ          0.595561          2.5546        0.616709
LJ           3.92618        -5.63462        -0.97226
LJ         -0.176973        0.873456         1.14019
LJ          -3.89419         4.24888         5.34224
LJ           5.34485         1.76474         4.03399
LJ          0.257838       -0.166475         1.54589
LJ         -0.392872         2.88985        0.969239
LJ          -1.42067         2.84623         1.38234
LJ          0.992558         0.46733          3.1954
LJ         -0.550193        -2.62498         1.16861
LJ         -0.684335        -1.72767        0.500278
LJ           2.00602        -1.57832        -6.31731
LJ           2.87274       -0.941327         2.51399
LJ          0.348287        0.423195        0.170923
LJ           2.33191      -0.0363092       -0.527472
LJ         -0.256129        -1.19956         1.36817
LJ           1.35799       -0.171726          1.9952
LJ         -0.133565          2.6435         2.22793
LJ          -1.98913        -0.17882         1.71908
LJ          0.744142         1.70983         2.20024
LJ           2.85884         2.25596       -0.527879
LJ         -0.311389       -0.634179         3.65468
LJ          -1.08541       -0.902599         2.02826
LJ          -1.88561         1.80521        0.868408
LJ          0.292562        0.724731         2.45261
LJ           1.59911         -2.0249         1.40267
LJ          -5.22502        0.687551         4.10013
LJ           5.90515        -2.88199        -1.26347
LJ          -5.42543         4.89068        -1.80475
LJ          -1.30176      0.00384512        0.306731
LJ          0.196366         1.61013        0.142935
LJ           1.68781         1.69174       -0.445224
LJ           2.96634        -2.31741        -4.26303
LJ           4.09565         3.03429        -5.71342
LJ          -2.06737         1.41965        -1.39746
LJ          -2.85087        -4.61672        -6.23997
LJ           5.97736         1.96705          3.2361
LJ          0.715793         1.37541        -1.02582
LJ          -1.93439       -0.696514        -1.69729
LJ            5.8503         2.29457        0.282021
LJ           6.06609        -5.64282         4.68543
