108
#Comment!
LJ          -2.93836        -2.93799        -2.93823
LJ          -0.26944       -0.269517         -3.4465
LJ            -3.447       -0.269087       -0.269078
LJ         -0.268912        -3.44636       -0.269466
LJ         -0.217481        -2.81568        -2.81636
LJ          0.919591       -0.665532        -2.98947
LJ          0.269591        -1.65653        -1.65644
LJ          0.919631        -2.98912       -0.665092
LJ          0.752022        -2.35248        -2.35167
LJ           1.33041        0.218284       -0.595145
LJ           -1.3773         5.05063         5.05063
LJ           1.33128       -0.595174        0.218301
LJ           -2.8179       -0.217809        -2.81753
LJ         -0.665587        0.919253        -2.98823
LJ          -2.98846        0.919141       -0.666004
LJ          -1.65532        0.268919         -1.6555
LJ         -0.686751       -0.685249        -2.53938
LJ         -0.323134       -0.322984        -1.24756
LJ          -1.56085       -0.149743        -2.56018
LJ         -0.149351        -1.55953        -2.56118
LJ           1.48911         -0.1061        -2.23803
LJ           1.23575        -1.32106        -2.16801
LJ          0.261736       -0.550758        -2.11799
LJ           4.29007         -2.1078        -3.25304
LJ          -2.35057        0.749315        -2.35026
LJ          0.217561         1.33275       -0.595269
LJ         -0.595044         1.33169        0.217162
LJ           5.05063         -1.3773         5.05063
LJ         -0.105403         1.48862        -2.23734
LJ          -1.31987         1.23581        -2.16743
LJ          -2.10793          4.2903         -3.2531
LJ         -0.549239        0.262269        -2.11634
LJ          0.515582        0.515962        -2.47963
LJ          0.947927        0.947876          -3.447
LJ          0.149232         2.25741        -1.22804
LJ           2.25551        0.148832        -1.22793
LJ          -2.81782        -2.81658       -0.217634
LJ          -1.65534        -1.65552        0.269374
LJ          -2.98921       -0.665871        0.919453
LJ         -0.665105        -2.98837        0.919408
LJ          -0.68648        -2.53937       -0.685379
LJ         -0.149203        -2.56126        -1.55953
LJ          -1.56058         -2.5601       -0.149613
LJ         -0.323781        -1.24846       -0.323425
LJ           1.48869        -2.23759       -0.106292
LJ           4.29015        -3.25318        -2.10808
LJ          0.261904        -2.11755       -0.549926
LJ           1.23552        -2.16817        -1.32098
LJ          -2.53996       -0.686035       -0.686257
LJ          -2.55985       -0.150159        -1.56062
LJ          -1.24765        -0.32328       -0.323464
LJ          -2.55997        -1.56049       -0.149611
LJ          -2.27487        -2.27655        -2.27546
LJ           0.20251        0.203281       -0.482949
LJ         -0.483913         0.20293        0.202357
LJ          0.202271       -0.482677        0.202762
LJ          0.609106       -0.809962       -0.810118
LJ          0.778196       0.0695908        -1.39501
LJ           1.63092         -1.1611        -1.16071
LJ          0.778529        -1.39533       0.0695656
LJ          -2.23783         1.48912       -0.105053
LJ          -3.25304         4.29017        -2.10787
LJ          -2.16747         1.23609        -1.32029
LJ          -2.11674        0.261644       -0.549962
LJ         -0.811164        0.610962       -0.810923
LJ         0.0694818        0.778847        -1.39468
LJ          -1.39481        0.778608       0.0695399
LJ          -1.16047         1.63307        -1.16057
LJ           2.37926         2.37924         1.60594
LJ           2.40166         2.40184        0.462208
LJ          0.102522         2.53112        -4.24194
LJ           2.53101        0.102484        -4.24194
LJ          -2.35035        -2.35121        0.749783
LJ           5.05063         5.05063         -1.3773
LJ         -0.595031        0.217518         1.33072
LJ          0.218116        -0.59497         1.33258
LJ         -0.105981        -2.23767         1.48852
LJ         -0.549081         -2.1165        0.262157
LJ          -2.10807        -3.25323         4.29033
LJ          -1.32036        -2.16759          1.2355
LJ          0.515512        -2.48013        0.515928
LJ           2.25644        -1.22796        0.149191
LJ          0.149072        -1.22815         2.25717
LJ          0.948091        -3.44704        0.948279
LJ           -2.2384       -0.106018         1.48913
LJ          -2.11728       -0.550666        0.261577
LJ          -2.16801        -1.32079         1.23618
LJ          -3.25298        -2.10778            4.29
LJ         -0.810511        -0.81036        0.609597
LJ          -1.16074        -1.16044         1.63154
LJ          -1.39497       0.0694744        0.778443
LJ         0.0697092        -1.39483        0.779095
LJ           2.37919         1.60601         2.37917
LJ           2.53124        -4.24213        0.102372
LJ          0.102376        -4.24209         2.53116
LJ           2.40153         0.46175          2.4016
LJ          -2.47949        0.515646        0.515563
LJ          -1.22779         2.25642        0.149005
LJ          -3.44691        0.947893        0.947848
LJ          -1.22765        0.149386         2.25571
LJ           1.60605         2.37931         2.37929
LJ          -4.24144         2.53079        0.102312
LJ          0.461941          2.4018         2.40162
LJ          -4.24175        0.102449         2.53113
LJ          -6.41942        -6.41942        -6.41942
LJ           1.19938         1.19866        -1.72356
LJ          -1.72414         1.19911         1.19934
LJ           1.19978        -1.72367         1.19865
