108
#Comment!
LJ           -2.0431        -2.33809       -0.166007
LJ          -4.70058        -5.64721         3.99387
LJ           6.39681         6.38692         -4.2378
LJ           5.35414         6.31708        -3.44762
LJ           2.72685        -2.26292       -0.116049
LJ         -0.779074         1.02151        -2.17604
LJ          0.629424        -1.73067       -0.589489
LJ          0.520228        -2.54452       0.0798479
LJ         0.0554523        -2.34281        -1.44264
LJ           1.26704         0.73439       -0.209397
LJ           3.16439         2.50739         2.62257
LJ          0.751122        -1.58127         1.95624
LJ         -0.911921        -1.37221        -2.11095
LJ          0.212066         3.13848         -1.4606
LJ         -0.963807         1.40191      -0.0974934
LJ         -0.578597         2.25465        -1.34608
LJ          -1.52098        0.200608         -1.0739
LJ          0.638279        0.292733        0.486874
LJ          -1.86696         1.69396       -0.914996
LJ         -0.848846       -0.647301        -1.36837
LJ           1.11415       -0.488219        -2.13137
LJ           1.05699       -0.929806        -1.09234
LJ          0.233874        -1.20152        -1.73859
LJ             3.412        -1.04957         3.43723
LJ         -0.496279         3.55638         3.94688
LJ          0.912318         3.03675         -2.4165
LJ          0.644352         2.35354       -0.926126
LJ           3.30936        0.505404         3.60655
LJ         -0.402701         2.43084        -2.45632
LJ         -0.949636         3.29025        -1.76859
LJ         -0.920096         2.55915         4.65744
LJ         -0.303575        0.142586        -1.54089
LJ          0.691859         1.93503        -2.33393
LJ          0.254568        0.660035        -2.29263
LJ          0.184651         1.43956        -1.54683
LJ          -1.12739      -0.0342202        -2.20239
LJ          -1.28705        -1.99631        -1.25249
LJ          -2.02251       -0.822156         1.47058
LJ          -1.46401        0.855234        0.694026
LJ          0.545815        -2.37862         1.12476
LJ          -1.02615        -1.38318       -0.170384
LJ          -1.08271         -3.1061       -0.863633
LJ          -2.25952        -1.27247        0.429294
LJ         -0.468286       -0.551931        0.306077
LJ         -0.217133        -3.35819        0.573265
LJ           6.37575         1.70289        -1.51206
LJ         -0.346939        -1.52138       -0.903503
LJ           1.79463        -1.85283       -0.716218
LJ          -1.00517        0.171171       -0.139701
LJ          -1.00243         1.12408        -1.18568
LJ        0.00875338      -0.0185954         1.32604
LJ          -2.82361       0.0130916       -0.582333
LJ          0.186453       -0.515844       -0.458377
LJ           1.11536        0.956241        -1.65607
LJ           1.41278        0.204202         1.42106
LJ          0.990112       -0.789607         1.16415
LJ           1.36559       -0.382311       0.0559359
LJ          0.756511        0.102312         -1.2592
LJ           1.84588       0.0574569        -1.01027
LJ           1.04353        -1.66081        0.435137
LJ          -1.81497        -1.05578        -1.26572
LJ           4.04193         4.91983         3.46525
LJ          -2.20005        0.629205      -0.0698792
LJ          -1.79682       -0.500454       -0.302946
LJ          0.468143         1.29287        0.222845
LJ          0.009764        0.610041       -0.518097
LJ         -0.377173        0.597103        0.567485
LJ        -0.0535358         1.90659       -0.365576
LJ           3.37602         5.76111         3.23626
LJ           3.49781         3.18483           3.467
LJ          -4.62948         2.23605         6.26851
LJ           1.14997         -4.6755        -6.40423
LJ         -0.964423        -2.49541        0.142202
LJ           3.15389         1.81455         1.70851
LJ         -0.526394        0.851301           1.565
LJ          0.625412       0.0867024         2.23027
LJ          -1.56115         -3.1013        0.889928
LJ          -1.07211        -1.38388        0.860475
LJ         -0.364951         4.72623         4.26577
LJ          -1.70959        -2.05206         1.51841
LJ         -0.132106        -1.70529         0.28237
LJ           2.15553         -1.3075        0.233952
LJ          -0.60902        -2.39593         1.17584
LJ         -0.205795        -1.31384         1.47644
LJ          -2.40012       0.0249377        0.893977
LJ          -1.38977       -0.198311        0.642105
LJ          -1.04169        -3.50476         2.00749
LJ           -5.6607       -0.749802         4.06778
LJ         -0.107399       -0.612159         2.70337
LJ         -0.997837        -1.65538         2.17896
LJ          -1.42142         1.97591        0.607571
LJ           0.51988        -1.48794         3.87511
LJ         -0.029771        -2.33517         2.23441
LJ           1.67604         5.95925        -5.20503
LJ          -4.94644         6.05963         1.92289
LJ          -6.26841         2.33999        -5.50501
LJ         -0.915211       -0.652988         1.63158
LJ            -1.269         2.44369       -0.307674
LJ          0.881764          2.4299       0.0349775
LJ          0.130015        -4.50724       -0.453573
LJ           4.47261         5.25186         4.71894
LJ          -6.43202         2.48891        -4.28359
LJ            2.0159         4.62761         3.77271
LJ           5.36104        -4.92306         3.17852
LJ           2.47994         3.16802         4.39248
LJ          -2.70845        -1.41517       -0.905085
LJ           5.30064        -1.39147         -5.0974
LJ           1.20075         5.08564        -1.23963
