108
#Comment!
LJ          -3.12711         -3.0737        -3.10844
LJ          -1.53654           -1.52        -4.59542
LJ          -4.58021        -1.47424        -1.49989
LJ          -1.51655        -4.61093        -1.52561
LJ         -0.472615        -2.43634        -2.12107
LJ          0.795715       -0.599953        -3.05377
LJ          0.292755        -1.05789        -1.11182
LJ           0.93131        -3.01148        -0.63478
LJ           1.62668        -2.07906        -2.05249
LJ           1.81729        0.346336       -0.678459
LJ           6.20562         5.00929         5.00987
LJ           1.74566       -0.852636        0.408676
LJ           -1.9886       -0.993439        -2.16302
LJ         -0.535422        0.826597        -2.78109
LJ          -2.89386        0.683857         -0.5767
LJ          -1.14845         0.43065        -1.07038
LJ         -0.805721       -0.784467         -3.0728
LJ         0.0837212        0.107558       -0.718547
LJ            -1.606        0.693598        -2.51047
LJ           0.44784        -1.58228        -2.39625
LJ           1.99816        -1.37087        -2.60374
LJ            1.1456         -1.0473        -1.88255
LJ         -0.426678       -0.887151        -1.94419
LJ           6.01559        -3.74326        -4.69067
LJ          -2.17161         1.68272        -2.15153
LJ          0.361278          1.7871        -1.01163
LJ         -0.810775         1.75847        0.328316
LJ           5.01126         6.19656         5.01079
LJ          -1.27603         1.99325         -2.7706
LJ          -1.05746         1.32691        -1.89183
LJ          -3.74356         6.01608         -4.6907
LJ         -0.816535       0.0968907        -1.98889
LJ         0.0406767      -0.0524444        -2.62571
LJ          0.649328         0.71461        -2.28967
LJ        -0.0836704         1.72524        -1.97338
LJ           1.51669      -0.0326872        -2.33955
LJ          -2.04534         -2.3494       -0.767335
LJ          -1.20936        -1.04957        0.399909
LJ           -2.9491       -0.682045        0.634282
LJ          -0.61141        -2.88166        0.868344
LJ          -0.78776        -3.03439       -0.792044
LJ          0.466376        -2.39207        -1.53658
LJ          -1.60624        -2.45034        0.633512
LJ          0.152124       -0.746958        0.151967
LJ            2.0862        -2.72843        -1.37045
LJ           6.01574        -4.69089        -3.74384
LJ          -0.34878        -1.86111        -0.96029
LJ           1.24329        -1.89722        -1.02265
LJ          -3.19566       -0.726849       -0.744435
LJ          -2.40514        0.624275        -1.62961
LJ          -0.65801        0.130808        0.137303
LJ          -2.26585        -1.65682        0.524683
LJ         -0.757747       -0.654886       -0.730716
LJ          0.827016        0.839993      -0.0734533
LJ        -0.0217531        0.719349        0.720858
LJ          0.882521      -0.0235871         0.88412
LJ          0.967701       -0.119691      -0.0872279
LJ           0.97034         -0.2353        -1.25859
LJ           1.70985        -0.86406       -0.821787
LJ           0.90111        -1.29023       -0.209662
LJ          -2.67532         2.03539        -1.39393
LJ          -4.69059         6.01579        -3.74339
LJ          -1.85929         1.36535        -1.10699
LJ          -2.04437         -0.1454        -1.04853
LJ         -0.125004         1.13141        -0.21106
LJ         -0.254656        0.946695         -1.2246
LJ          -1.34295         1.08349       -0.255496
LJ         -0.867541         1.80337       -0.902439
LJ           3.28242         3.28609         2.42059
LJ           4.02418         4.02416         1.86258
LJ          -1.35771          3.2658        -6.02109
LJ           3.26535        -1.35767        -6.02131
LJ          -2.11176        -2.11495         1.63403
LJ           5.01116         5.01004          6.2011
LJ         -0.662266        0.396087         1.75142
LJ          0.343857        -1.03182         1.74005
LJ          -1.32153         -2.8003         2.08057
LJ         -0.755676        -1.91387      0.00553493
LJ          -3.74387        -4.69094         6.01613
LJ          -1.03035        -1.91145         1.36011
LJ        -0.0376333        -2.76046       -0.126396
LJ           1.53353        -2.16331       -0.069742
LJ        -0.0919761        -2.06579         1.67142
LJ          0.748311        -2.32077        0.708655
LJ          -2.59706        -1.36953         2.02893
LJ          -1.96878        -1.10475       -0.314107
LJ          -1.89109        -1.04476         1.25084
LJ          -4.69049        -3.74325         6.01546
LJ        -0.0829712       -0.210975         1.05516
LJ         -0.827662       -0.880913         1.76572
LJ          -1.26229       -0.205753         1.07868
LJ         -0.252722        -1.30577        0.898673
LJ           3.28439         2.41796          3.2837
LJ           3.26651        -6.02254          -1.358
LJ          -1.35801        -6.02177         3.26593
LJ           4.02468         1.85884         4.02447
LJ          -2.41683       0.0798704         0.13284
LJ          -2.16353           1.637       -0.078625
LJ          -2.30813        0.838169        0.780248
LJ          -2.38613      -0.0752581         1.52698
LJ           2.41994         3.28674         3.28228
LJ          -6.01812         3.26369        -1.35837
LJ           1.86267         4.02441         4.02463
LJ           -6.0204        -1.35788         3.26564
LJ           5.28973         5.25966         5.28121
LJ           3.17025         3.14485       -0.315664
LJ         -0.339993          3.1763         3.19182
LJ           3.19193       -0.285692         3.11614
