108
#Comment!
LJ          -1.78551        -1.78551        -1.78551
LJ           -1.4409         -1.4409        -2.87264
LJ          -2.87264         -1.4409         -1.4409
LJ           -1.4409        -2.87264         -1.4409
LJ          -1.31074         -2.5907         -2.5907
LJ         -0.411948        -3.28543         -4.1242
LJ         -0.773756        -1.80192        -1.80192
LJ         -0.411948         -4.1242        -3.28543
LJ          0.594201        -2.20096        -2.20096
LJ           1.33477        -1.47632        -2.51362
LJ           2.28856         -4.0633         -4.0633
LJ           1.33477        -2.51362        -1.47632
LJ           -2.5907        -1.31074         -2.5907
LJ          -3.28543       -0.411948         -4.1242
LJ           -4.1242       -0.411948        -3.28543
LJ          -1.80192       -0.773756        -1.80192
LJ         -0.790181       -0.790181        -1.62364
LJ        -0.0570111      -0.0570111        -1.34725
LJ          -1.23863       -0.279854        -2.59955
LJ         -0.279854        -1.23863        -2.59955
LJ           2.15378       -0.661934        -4.10252
LJ           1.76232        0.872894        -2.83473
LJ          0.356277       -0.829111        -1.89657
LJ           3.01279       -0.612626        -3.23969
LJ          -2.20096        0.594201        -2.20096
LJ          -1.47632         1.33477        -2.51362
LJ          -2.51362         1.33477        -1.47632
LJ           -4.0633         2.28856         -4.0633
LJ         -0.661934         2.15378        -4.10252
LJ          0.872894         1.76232        -2.83473
LJ         -0.612626         3.01279        -3.23969
LJ         -0.829111        0.356277        -1.89657
LJ        -0.0203302      -0.0203302        -2.59011
LJ          0.831373        0.831373        -2.30132
LJ          0.118806         2.04486       -0.813407
LJ           2.04486        0.118806       -0.813407
LJ           -2.5907         -2.5907        -1.31074
LJ          -1.80192        -1.80192       -0.773756
LJ           -4.1242        -3.28543       -0.411948
LJ          -3.28543         -4.1242       -0.411948
LJ         -0.790181        -1.62364       -0.790181
LJ         -0.279854        -2.59955        -1.23863
LJ          -1.23863        -2.59955       -0.279854
LJ        -0.0570111        -1.34725      -0.0570111
LJ           2.15378        -4.10252       -0.661934
LJ           3.01279        -3.23969       -0.612626
LJ          0.356277        -1.89657       -0.829111
LJ           1.76232        -2.83473        0.872894
LJ          -1.62364       -0.790181       -0.790181
LJ          -2.59955       -0.279854        -1.23863
LJ          -1.34725      -0.0570111      -0.0570111
LJ          -2.59955        -1.23863       -0.279854
LJ          -0.55805        -0.55805        -0.55805
LJ          0.396074        0.396074       -0.523937
LJ         -0.523937        0.396074        0.396074
LJ          0.396074       -0.523937        0.396074
LJ          0.528512        -0.79547        -0.79547
LJ            1.0145       0.0298819        -1.38215
LJ           1.24341        -0.18766        -0.18766
LJ            1.0145        -1.38215       0.0298819
LJ          -4.10252         2.15378       -0.661934
LJ          -3.23969         3.01279       -0.612626
LJ          -2.83473         1.76232        0.872894
LJ          -1.89657        0.356277       -0.829111
LJ          -0.79547        0.528512        -0.79547
LJ         0.0298819          1.0145        -1.38215
LJ          -1.38215          1.0145       0.0298819
LJ          -0.18766         1.24341        -0.18766
LJ           1.19105         1.19105        -0.47067
LJ           1.28554         1.28554        -1.42375
LJ           2.15114         2.97069       -0.398712
LJ           2.97069         2.15114       -0.398712
LJ          -2.20096        -2.20096        0.594201
LJ           -4.0633         -4.0633         2.28856
LJ          -2.51362        -1.47632         1.33477
LJ          -1.47632        -2.51362         1.33477
LJ         -0.661934        -4.10252         2.15378
LJ         -0.829111        -1.89657        0.356277
LJ         -0.612626        -3.23969         3.01279
LJ          0.872894        -2.83473         1.76232
LJ        -0.0203302        -2.59011      -0.0203302
LJ           2.04486       -0.813407        0.118806
LJ          0.118806       -0.813407         2.04486
LJ          0.831373        -2.30132        0.831373
LJ          -4.10252       -0.661934         2.15378
LJ          -1.89657       -0.829111        0.356277
LJ          -2.83473        0.872894         1.76232
LJ          -3.23969       -0.612626         3.01279
LJ          -0.79547        -0.79547        0.528512
LJ          -0.18766        -0.18766         1.24341
LJ          -1.38215       0.0298819          1.0145
LJ         0.0298819        -1.38215          1.0145
LJ           1.19105        -0.47067         1.19105
LJ           2.97069       -0.398712         2.15114
LJ           2.15114       -0.398712         2.97069
LJ           1.28554        -1.42375         1.28554
LJ          -2.59011      -0.0203302      -0.0203302
LJ         -0.813407         2.04486        0.118806
LJ          -2.30132        0.831373        0.831373
LJ         -0.813407        0.118806         2.04486
LJ          -0.47067         1.19105         1.19105
LJ         -0.398712         2.97069         2.15114
LJ          -1.42375         1.28554         1.28554
LJ         -0.398712         2.15114         2.97069
LJ            1.1924          1.1924          1.1924
LJ           1.79148         1.79148        0.227003
LJ          0.227003         1.79148         1.79148
LJ           1.79148        0.227003         1.79148
