108
#Comment!
LJ         -0.320296        -1.95586       0.0277467
LJ          -5.99867         4.13626        -3.79983
LJ         -0.251168         3.07887        -2.00141
LJ          0.907682        0.964372        -3.73358
LJ           1.44807        -1.51976       -0.862961
LJ          0.200255         2.37593       -0.804795
LJ           1.61848        -1.99223        0.260038
LJ           1.16321        -2.31369         1.17857
LJ           2.04177        -3.26061       0.0472678
LJ           1.88714        0.353788       -0.499233
LJ          0.377597          1.5415         0.40851
LJ           1.40189       0.0746193         1.40226
LJ         -0.365849       -0.542213        -2.08859
LJ           1.19804        0.396728        -1.53469
LJ         -0.181385         1.26594         1.31618
LJ         -0.721052         3.33281        0.943485
LJ          -1.34479         1.11536        -1.79654
LJ         -0.185733        -0.92603      -0.0252186
LJ          0.319172         3.14117        0.765246
LJ         -0.190382       -0.514563       -0.984276
LJ           1.27609        -1.49479        -2.10892
LJ          0.744385        -1.36373       -0.111111
LJ            -1.372           1.296        -2.94288
LJ          0.626977         5.21521         6.44041
LJ          -5.03409         -4.6589        -1.25272
LJ         -0.194047         1.35741        -1.95328
LJ          -1.08455         2.09755        -2.05197
LJ           5.53322         2.09297       -0.142533
LJ           1.03057         3.38701      -0.0427522
LJ           2.50324         6.39372        -2.28185
LJ          -1.68226        0.670111         1.58463
LJ          0.580462        0.817726        -2.48974
LJ         -0.418965         0.57065        -2.94719
LJ          0.579485       -0.705011        -1.74454
LJ         -0.116989        0.305571        0.644333
LJ        -0.0674073        0.333071        -1.55429
LJ          -1.23027        -1.93261       -0.666817
LJ          -2.35871         0.84522        -1.10964
LJ         -0.703648         1.24262        0.332953
LJ           1.47293        -1.14057         0.99789
LJ         -0.590998        -1.28222        0.873556
LJ         -0.444798        -2.33286        0.962157
LJ           -2.3702         -1.2944       -0.286599
LJ          -1.31694       -0.578062         1.58278
LJ          0.357012        -2.95184         1.74887
LJ          -6.42442         5.00997        0.787782
LJ          0.647148        -2.30572       -0.584033
LJ           2.44026        -2.18381        0.925745
LJ           -1.2018         -0.8861        -0.65804
LJ           -0.9066         2.03265       -0.795467
LJ         0.0264401       -0.465959         1.40223
LJ          -1.14969        0.878323       -0.526595
LJ          0.260191        -1.49644        -1.16408
LJ         0.0566854        0.857615       -0.553923
LJ          0.917717        0.647277        0.370913
LJ           1.83744      -0.0322238        0.508559
LJ           1.51053        -0.64805       -0.282706
LJ          0.787356        0.186649       -0.588507
LJ              1.93       -0.938536        -1.56352
LJ           2.74179       -0.217952       -0.864803
LJ          -1.20596        -0.11536        -1.31586
LJ          -5.15267         2.50299        0.248456
LJ          -1.83644         1.78179         1.04538
LJ          -2.25366        -1.14028        -1.44455
LJ         -0.911624         2.06073         1.89599
LJ         -0.748978      -0.0301774        -0.14303
LJ         -0.621438        0.325729         1.71188
LJ           1.07873         2.30246        0.252785
LJ           2.63439         6.45962        -5.16174
LJ          0.516859        0.465214         1.50976
LJ          -3.01344        -3.22649         5.45401
LJ          -3.50315         4.25181        -6.45496
LJ          0.402404        -1.47779         0.90074
LJ           1.09685         1.29179       -0.472326
LJ          -1.24203        0.223464          2.8267
LJ         -0.233101         1.46703         2.58665
LJ          -1.46808        -1.70856         1.53179
LJ          -1.60525        -1.87206         0.45051
LJ           1.55815        0.891807         5.73662
LJ           6.17138        -1.58886         2.38957
LJ          0.737807       -0.400679        0.638137
LJ           2.45058        -1.17297       -0.559808
LJ          0.132308         -1.9087          1.8464
LJ          0.830614       -0.925474          2.1196
LJ           -3.2067         1.41564         1.70033
LJ          -1.21581        0.269775        0.726996
LJ          0.908944        -2.20263           2.617
LJ          -1.07535         4.10934         1.93401
LJ          0.736289       -0.551851         3.38625
LJ         -0.406763        -1.12782         2.37549
LJ         -0.203646          2.2474        0.842489
LJ         -0.306707       -0.170557         2.91376
LJ        -0.0948105        -2.07592         3.32861
LJ          -4.16201        -3.22651         5.86201
LJ           5.84998         -4.3326       -0.720517
LJ           6.11215         3.18738        -2.99294
LJ          -1.54258        -0.83847        0.354744
LJ          0.555636         1.94767         1.85535
LJ           1.91296         3.74537          1.4033
LJ           2.64927        -2.10089         -1.1049
LJ           5.05992         3.36838        -2.19745
LJ          -4.18059         0.63078        -2.00879
LJ          -0.40925         6.08758        -2.75782
LJ           5.93149         4.47656         2.18355
LJ           1.81206         1.03285        0.408963
LJ          -1.86716        0.120439       -0.246796
LJ           -2.9147        -4.28171        -2.94895
LJ          0.510896        -3.95061        -4.15655
