108
#Comment!
LJ           3.54969       -0.470097        0.452089
LJ          -2.65029         2.74424        -4.69674
LJ           1.14264        -1.93774         2.22273
LJ          -1.64872          2.6332       -0.133615
LJ           -0.6316        -0.33129         2.06975
LJ           1.32036        -2.93857       -0.514471
LJ          0.743551       -0.186712        -1.15608
LJ           2.79323        -2.71575       -0.387341
LJ            1.8218        -1.13209         2.14463
LJ         -0.774545        -2.47083         2.60779
LJ         0.0276445         1.63172         3.29934
LJ          0.427157         0.77003     -0.00145674
LJ          0.613358        -1.22331        0.292615
LJ           2.45057        -4.58186        -3.97843
LJ           2.24788        -3.22778        -1.19339
LJ          0.286658        -2.01608        0.933849
LJ           3.62093        -1.92611         5.45843
LJ           1.15353          1.4684        0.158818
LJ         -0.348591         5.09995         -2.9379
LJ           2.08471        -1.83081       -0.474818
LJ          -2.43198        0.440952         2.39782
LJ            1.5676         3.40051        -1.67285
LJ            2.4187       -0.377854        0.412742
LJ         -0.726147        -3.33537       -0.798233
LJ          0.442047         1.73704         1.90806
LJ        -0.0477331         2.36152        -1.02086
LJ          -1.18392        0.900728        -1.19973
LJ          -6.01053         5.35169        -1.85839
LJ            3.6645         1.33714         1.70287
LJ           1.56062        -2.61989         1.15407
LJ           1.40539       -0.513438         5.33096
LJ           4.81714       -0.582204         2.34932
LJ           1.37447        -2.33288        -1.57144
LJ          0.427721       -0.819337        -1.95799
LJ         0.0582341         2.07903       0.0518049
LJ           3.13539      -0.0826342       -0.403581
LJ           2.38746        -1.35455        0.970139
LJ          0.311888        -2.25099        -1.69452
LJ          0.954987       -0.146843       -0.114167
LJ           1.64484        0.576695       -0.646681
LJ           2.00245         1.98062       -0.470605
LJ         -0.345109         -1.9813         1.70062
LJ          0.998773        -1.42358       -0.797858
LJ         0.0445616       -0.132943        0.374553
LJ           1.91984         1.18819         3.41286
LJ           3.83198        -4.79499        -2.77187
LJ           2.87057           -0.35         1.53554
LJ           2.36366        -1.36164         2.98457
LJ           2.73684        -1.62297        -1.57194
LJ         -0.760458         1.97163         1.01936
LJ           2.32173        0.730661         1.51595
LJ        -0.0953723         4.02069        -2.50151
LJ          -1.28614         6.33967        -3.29594
LJ         -0.128938        0.299174         1.29267
LJ           2.32902        -2.12571          2.0858
LJ           2.86038        -1.25125      -0.0507029
LJ           2.41957        0.779811        0.103453
LJ           3.36803        -2.42391        -1.19841
LJ           1.05815       -0.822849         3.40705
LJ           3.36738        0.681238        0.679726
LJ          0.506385        0.980222         -1.0019
LJ           5.58638         6.44648        -5.10154
LJ         0.0578017        -1.41665         2.58004
LJ         -0.819465         4.87301        -1.85193
LJ           1.31883         1.49492          1.1957
LJ           1.55505       -0.922683        0.453938
LJ            1.7875        -2.87218         2.46067
LJ            1.0372         1.89225        -1.05736
LJ          0.691984         2.38951        -2.04422
LJ           2.14134         1.49579         2.34704
LJ           2.10263         1.31376        -4.87734
LJ          0.156824        0.386908         3.31622
LJ           1.16605        -1.44203         1.27571
LJ           1.55384        0.387542        0.583612
LJ          -0.26284         -0.9253         1.33426
LJ          0.796434        -0.38181         1.04834
LJ           1.80753       -0.322756         1.30401
LJ         -0.877293         1.56297      -0.0257064
LJ           3.56034       -0.995154         4.92801
LJ          0.532264       -0.166457         2.26187
LJ           2.16322       -0.516252       -0.724523
LJ           1.26013        -2.03702        0.269316
LJ           1.97968        0.224767         2.41562
LJ           3.27428        -1.35959         1.58437
LJ          0.816737          2.3583        0.731975
LJ           -1.0584      -0.0105753         1.09298
LJ         -0.609995        -1.10822        0.151639
LJ         -0.383344         1.05928        -1.97896
LJ          0.997258        0.664466          1.6892
LJ          0.416953        -2.73854          2.4669
LJ           1.01671         2.55908       -0.298415
LJ          0.257973         1.34881        0.816746
LJ         0.0874216        0.780371         2.14449
LJ         0.0750406       -0.813841       -0.567332
LJ          0.391688        -2.33464       -0.475375
LJ            1.7134        0.678384         5.48753
LJ          -0.22309        0.200578       -0.557143
LJ        -0.0637358         3.25889       -0.142256
LJ          -3.06432         6.23085         5.19724
LJ           4.98115         4.77062          6.0812
LJ          -1.41382         3.31983       -0.968606
LJ          -0.35839       0.0396324        -1.64994
LJ          0.558963          3.1858        -1.17441
LJ           2.70707        -0.26498        -1.53664
LJ         -0.220676         3.78146        -1.21839
LJ          -1.30193        -1.75974         1.93403
LJ           3.48051        -3.47778       0.0319159
LJ           2.11933        -3.25675        0.352111
