108
#Comment!
LJ           2.84361        0.244015         1.24352
LJ           3.24693        -0.55873        -2.41326
LJ         -0.883424        -2.69585        0.511426
LJ          -2.51295          1.0403       -0.734417
LJ           1.55736       -0.281882         3.35001
LJ           1.66282        0.815478        -1.74854
LJ           1.49315         1.52127       -0.559493
LJ            1.3311      -0.0425017         -2.5167
LJ           1.41137       -0.792175         2.11885
LJ           0.24193        -1.78392         1.90812
LJ         -0.318933         2.30968         2.86425
LJ           1.15989         1.53856         2.78711
LJ            -1.257       -0.916284        -1.05178
LJ           3.36103       -0.430264      -0.0820472
LJ          -1.55522       -0.428859         1.43565
LJ          -1.06192        0.198962         2.44255
LJ         -0.794936        -2.53827         -2.8229
LJ         -0.307256        0.373417        0.150856
LJ          0.510216          3.0755         2.90932
LJ         -0.192105       -0.835128        -1.21799
LJ         -0.333583        -1.56435         3.18616
LJ          0.647717         1.50704        -1.18788
LJ           3.21525       -0.427503         -1.2342
LJ          -5.61978         1.60455        -5.42802
LJ           4.85722         2.92065         5.28118
LJ          -1.17272         1.55009      -0.0784757
LJ           -2.9232        -4.39385        -1.60379
LJ          -3.27076        -5.82984       -0.905869
LJ           2.33247         2.19698         2.11143
LJ          -1.60014        -1.19347        0.704485
LJ         -0.301963        -1.68872         0.91964
LJ          -5.60434         5.61351        -1.16676
LJ         0.0672135        -2.33409       -0.036372
LJ           2.32867       -0.284953          -1.907
LJ           -1.5252          1.6869         1.12499
LJ           2.17111       -0.792201        -0.96927
LJ          0.515687        -2.73297         1.08753
LJ         -0.116775        -2.01473        -1.19459
LJ         -0.728114          -0.595        0.215221
LJ           1.22768        0.290483        -0.34267
LJ           1.77471           1.632        0.519403
LJ          0.545207       -0.487989         2.59251
LJ         -0.906845       -0.529607        -2.00256
LJ          -1.95168       -0.359222       -0.333171
LJ           1.57925       0.0760134         1.38696
LJ          -2.20171        -4.37661         5.85937
LJ           2.57013       -0.827256         1.61255
LJ           0.70677        0.679259        0.799355
LJ          -1.62778         0.14384        -1.52134
LJ         -0.454331      -0.0759633         1.25802
LJ          0.306137         1.67435         3.43783
LJ         -0.550035         2.36681        -1.40381
LJ          -5.65831         -3.6197        -1.04177
LJ         -0.298247         2.34581        -0.15178
LJ           1.22267        0.996652         1.77526
LJ           3.62062        0.847001         1.39146
LJ          0.291473        0.107665       -0.623461
LJ          0.608624        -1.21117        -1.75067
LJ          0.902919        -1.53726         3.01179
LJ           2.21861        0.410003        0.326675
LJ          0.609778         1.63558       0.0861634
LJ           1.65423         4.13373        -4.01488
LJ         -0.296633        -2.65521         1.73735
LJ          -2.13989       -0.149244        -2.36196
LJ         -0.419411         1.50026        0.641379
LJ          0.158865        -0.23186        -2.51783
LJ           2.30791        -1.16025         2.76549
LJ            2.2471         1.28373          1.5433
LJ          -2.43282        -2.56747        -3.48446
LJ         0.0573555        0.696536         1.89584
LJ          -2.73628        0.433137          6.3648
LJ           3.52753       -0.256704         1.91017
LJ          0.655097       -0.445569         1.49907
LJ          0.716364         1.81383         1.09953
LJ          -1.47124        0.737012         1.50119
LJ           1.15569         1.06066         3.79516
LJ         -0.481637        -1.54256       -0.434305
LJ         -0.233684         1.19011       -0.558822
LJ         0.0163985         2.38315         4.07883
LJ           1.01696        -1.09465        0.836404
LJ           1.02801       -0.138818        -1.47784
LJ          0.897017        -0.85149       -0.511745
LJ            2.2909       0.0214909         2.55749
LJ          0.362815       -0.526801        0.262196
LJ           1.35772         2.51303         1.70101
LJ          -1.32712         0.16771        0.569357
LJ          -1.19683        -1.99214         1.52599
LJ         -0.459293        0.418291        -1.81305
LJ           1.04333        0.405782         2.63403
LJ         -0.431325         -1.0047         1.82682
LJ         -0.961645         1.78925          2.2463
LJ           1.39146          2.2792          3.5656
LJ          0.366338          0.2028         3.55418
LJ         -0.992671        -1.49712        -2.59573
LJ          -1.60939        -1.78608       -0.126834
LJ           2.69977        -1.66463         -1.9777
LJ          -0.95913      -0.0275644       -0.662234
LJ          0.751097         2.50064       -0.635727
LJ           2.41245       -0.695099       0.0479032
LJ           4.86687        0.654886        -5.50378
LJ           1.93926         4.15628       -0.286952
LJ          -1.18519        0.979169        -0.93061
LJ           2.21636         4.28227         1.06279
LJ          -3.04951        -1.50148        -5.79779
LJ           2.71261        0.904704        -1.97589
LJ          0.564911         -3.9819        -1.53104
LJ           3.49329        -4.60725        -2.33372
LJ           3.38246        -5.81444         0.24816
