108
#Comment!
LJ          -3.20331        -3.15217        -3.18542
LJ          -1.48087        -1.46461        -4.57791
LJ          -4.56573        -1.42232        -1.44716
LJ          -1.46118        -4.59171        -1.46961
LJ         -0.554557        -2.34011        -2.10365
LJ           0.76811       -0.608111        -3.01355
LJ           0.28152        -1.02944        -1.10366
LJ          0.908311        -3.00126       -0.641705
LJ           1.65211        -2.11966        -2.04745
LJ           1.82297        0.340567       -0.739295
LJ           6.34971         5.00671         5.00739
LJ           1.77208       -0.884914        0.398592
LJ          -1.97328       -0.959625        -2.12001
LJ         -0.541374        0.812612        -2.81091
LJ           -2.8865        0.678695       -0.587346
LJ          -1.12764        0.372629        -1.02872
LJ         -0.830551       -0.811263        -3.09403
LJ         0.0318574       0.0900754       -0.733179
LJ          -1.57578        0.690484        -2.49068
LJ          0.483221        -1.56871        -2.43403
LJ           2.02381        -1.29562        -2.58033
LJ           1.15175        -1.09053        -1.81682
LJ         -0.410735       -0.940721        -1.98266
LJ           5.96903        -3.72711        -4.62377
LJ          -2.13203          1.7173        -2.15602
LJ          0.358357         1.81301        -1.02372
LJ         -0.850312         1.76221        0.317417
LJ           5.00467         6.35238         5.00434
LJ          -1.27154         1.99427        -2.68047
LJ          -1.05164         1.29143        -1.84849
LJ          -3.72739         5.96951        -4.62378
LJ         -0.902764       0.0184171        -1.96973
LJ       -0.00162266      -0.0968373        -2.52943
LJ          0.682751        0.725796        -2.30996
LJ          -0.11195         1.71042        -2.03803
LJ           1.53532       -0.045209        -2.37658
LJ          -2.02112        -2.27148        -0.78265
LJ          -1.17721        -1.01059        0.362429
LJ          -2.92799       -0.685293        0.639908
LJ         -0.620063        -2.88877        0.850974
LJ         -0.789062        -3.05277       -0.794757
LJ          0.520653        -2.41508        -1.53237
LJ          -1.57944        -2.43425        0.682318
LJ         0.0862113       -0.776539       0.0991901
LJ            2.0769        -2.66262         -1.3224
LJ           5.96917        -4.62397        -3.72765
LJ         -0.348524        -1.86452        -1.01118
LJ           1.20248        -1.82608        -1.03906
LJ          -3.20366       -0.759448       -0.775356
LJ          -2.41066        0.605068        -1.57833
LJ         -0.660341        0.126479        0.123851
LJ          -2.31372        -1.63475        0.528098
LJ         -0.736089       -0.654427       -0.701008
LJ          0.854079         0.88929       -0.100463
LJ        -0.0508194        0.772853        0.757005
LJ          0.896973      -0.0626284        0.916621
LJ          0.946869       -0.166379       -0.120242
LJ           0.95632       -0.234309        -1.26119
LJ           1.72548       -0.841294       -0.804265
LJ          0.909888        -1.32314       -0.233334
LJ          -2.60394         2.02923         -1.3396
LJ          -4.62368         5.96923        -3.72723
LJ          -1.84575          1.3396         -1.1386
LJ          -2.04622       -0.204793        -1.04828
LJ         -0.148374         1.07917       -0.221395
LJ         -0.281403        0.969551        -1.27034
LJ          -1.33681         1.02158       -0.278408
LJ         -0.832846          1.7983       -0.873042
LJ           3.27755         3.28061         2.39077
LJ            3.9661         3.96615         1.82834
LJ          -1.31818         3.24692        -5.97445
LJ           3.24648        -1.31814        -5.97467
LJ          -2.06958        -2.16299         1.65887
LJ           5.00672          5.0057         6.35048
LJ         -0.729661        0.369728         1.75892
LJ          0.345458        -1.03145         1.78321
LJ           -1.2983        -2.71907         2.06906
LJ         -0.851428        -1.90334      -0.0778922
LJ          -3.72768        -4.62401         5.96953
LJ          -1.04574        -1.86879         1.28672
LJ        -0.0749421        -2.68457        -0.12866
LJ           1.54244        -2.21649      -0.0760191
LJ         -0.115253        -2.13465          1.6727
LJ          0.775991        -2.33493        0.726187
LJ          -2.56109         -1.2838         2.03527
LJ          -1.98409        -1.06656       -0.355802
LJ          -1.84189        -1.08751         1.26305
LJ           -4.6236        -3.72711         5.96892
LJ          -0.10609       -0.240577         1.00858
LJ          -0.81507       -0.830832         1.76968
LJ          -1.25159       -0.227317           1.035
LJ         -0.282077        -1.32721        0.899832
LJ           3.27931         2.38829         3.27874
LJ           3.24763        -5.97587        -1.31846
LJ          -1.31848        -5.97513         3.24705
LJ           3.96621         1.82525         3.96605
LJ          -2.37744       0.0121313       0.0513466
LJ          -2.20826         1.65031      -0.0969334
LJ          -2.32612        0.840996        0.793469
LJ           -2.4145      -0.0842236         1.55279
LJ           2.39019          3.2812         3.27747
LJ          -5.97157         3.24487        -1.31883
LJ           1.82843         3.96634         3.96647
LJ          -5.97378        -1.31835         3.24676
LJ           5.41637         5.37244         5.40116
LJ            3.1177         3.09315       -0.347104
LJ         -0.370795         3.12325         3.13823
LJ           3.13857       -0.318119         3.06538
