108
#Comment!
LJ           3.41577       -0.726121        0.635284
LJ          -2.48189         2.79643        -4.03319
LJ           1.17957        -1.71985         1.78095
LJ          -1.21807         2.65662        -0.35315
LJ         -0.376492       -0.224725         2.75402
LJ             1.201         -2.5317        -0.51317
LJ           1.09724      -0.0797655        -1.43913
LJ           2.31815        -2.39977       0.0368255
LJ           1.66714        -1.06707         2.54934
LJ         -0.795174        -1.81986         2.83829
LJ         -0.436407         2.02515         3.21791
LJ          0.449947        0.824487        0.391189
LJ          0.298432       -0.858198      -0.0868014
LJ           2.29916          -5.289        -3.42767
LJ           1.71239        -3.43645        -1.00371
LJ          0.262033        -2.16149        0.655172
LJ           4.31496        -1.89851         6.00379
LJ           1.11831         1.49648      -0.0305371
LJ         -0.358111         5.00391        -3.41769
LJ           1.61959        -1.44177       -0.825981
LJ          -2.44184        0.387557         2.89812
LJ           1.73341         3.01008        -2.10624
LJ           2.35881       -0.331818        0.323515
LJ          -1.37075        -3.09804        -1.06066
LJ           0.50761         1.61572          2.7095
LJ          -0.11234         2.00747       -0.910022
LJ         -0.843372        0.698178        -1.25188
LJ          -4.92826         5.50201        -1.80212
LJ           3.42547           1.469          1.7722
LJ           1.80838        -2.35143         1.17793
LJ           1.72466       -0.446664           4.928
LJ           4.60739       -0.204104         2.98455
LJ           1.48836        -2.65236        -1.84859
LJ          0.430827        -0.81077        -2.24821
LJ        -0.0877182          2.1498        0.133668
LJ            2.9793        0.170539       -0.463507
LJ           2.10758         -1.3151        0.817371
LJ            0.4401        -3.01895        -2.34989
LJ          0.937404       0.0658674       -0.361869
LJ           1.21768        0.918103       -0.907638
LJ           2.13541         2.07889       -0.156118
LJ          0.106229        -2.01494          1.8088
LJ          0.693594        -1.76436        -1.61343
LJ         -0.530878       0.0650471        0.348816
LJ           2.25355        0.631579         3.15874
LJ           4.34975        -4.76444        -3.06796
LJ            2.7051       -0.818931          1.8448
LJ           2.80695        -1.71599         3.00714
LJ           2.50367        -1.84821        -1.59964
LJ          -1.12233          2.1068         1.44556
LJ           2.43021        0.615124         1.59773
LJ         -0.341958         3.63783        -2.47081
LJ         -0.506565        -6.30121        -3.08815
LJ          0.178871        0.507875         1.61078
LJ           2.28774        -1.76928         1.99706
LJ           2.79432        -1.15992       -0.168145
LJ           2.28587        0.960209        0.132467
LJ           2.95705        -2.87166        -1.25944
LJ           1.07762        -1.00228         3.47943
LJ           3.01545        0.543215        0.773373
LJ          0.247783         1.02999          -1.217
LJ           6.22305         6.28684        -5.02597
LJ           0.42277        -1.40887         2.60721
LJ         -0.661274         4.84401        -2.20232
LJ            1.9121         1.44356         1.17143
LJ           1.47318       -0.714358       0.0148383
LJ           1.71094        -2.52486         2.43261
LJ          0.910002         1.90132        -1.10059
LJ          0.532556         2.84694        -2.38835
LJ           1.62774         1.28392         2.35619
LJ           1.97104         1.58909        -5.15265
LJ           1.02501        0.682025         3.53521
LJ          0.917136        -1.11536        0.961104
LJ           1.49767        0.433301        0.830001
LJ         -0.201962        -1.07788        0.945646
LJ          0.462118       -0.168597        0.721782
LJ           1.75735       -0.517416          1.4676
LJ         -0.672264         1.02445       -0.102382
LJ           3.35267        -1.03772         5.09551
LJ          0.889898       -0.755196         1.91349
LJ           1.98487      -0.0300707       -0.650297
LJ           1.13325        -1.80232        0.211233
LJ           2.08148      -0.0877806         2.39812
LJ           3.72925        -1.57625         1.32581
LJ          0.824008         1.90874         1.17981
LJ          -1.53755       0.0498685         1.10245
LJ         -0.808809        -1.92492        0.518495
LJ         -0.288914         1.00582        -2.41004
LJ            1.1716        0.341167         1.83029
LJ          0.685628        -2.73421         2.52341
LJ          0.917323         2.52312       -0.221751
LJ         -0.317934         1.53632        0.973527
LJ         -0.517655        0.870875         2.93408
LJ          0.119873       -0.870105          -1.129
LJ          0.363314         -1.9644       -0.617362
LJ           1.41886        0.609031         6.31798
LJ        -0.0863706       0.0840616       -0.676164
LJ          0.156323         3.38629        0.282636
LJ          -2.52011        -6.43427         4.82365
LJ           5.11499         4.38492          6.2512
LJ          -1.21074         3.44858        -1.12469
LJ         -0.284916      -0.0226651        -1.92015
LJ          0.520571         3.11054        -1.14947
LJ           3.74153       -0.243436        -2.14034
LJ        -0.0892901         4.07147         -1.4174
LJ          -1.47448        -1.55234         1.44897
LJ           3.02489        -3.31606         0.97131
LJ           1.27778         -3.3097        0.796465
