108
#Comment!
LJ           2.80652        0.232053         1.24069
LJ           3.29604       -0.463953        -2.43568
LJ         -0.828918        -2.71406        0.586394
LJ          -2.55146         1.00617       -0.721842
LJ           1.54076       -0.316542         3.39656
LJ           1.62374        0.803317        -1.74321
LJ           1.48716         1.48088       -0.551088
LJ           1.32804      -0.0971496        -2.54701
LJ           1.40179       -0.824389         2.12772
LJ          0.248201         -1.7598         1.94884
LJ         -0.203647         2.32748         2.82602
LJ           1.12392         1.53319         2.73235
LJ          -1.22564       -0.940351        -1.08655
LJ           3.38957       -0.397148      -0.0979917
LJ          -1.55375       -0.403587         1.43811
LJ          -1.11003        0.139788         2.40904
LJ          -0.82371        -2.48745        -2.87348
LJ         -0.368275        0.330818        0.164232
LJ          0.476439          3.1475         2.94106
LJ         -0.220822       -0.877569        -1.11717
LJ         -0.365032        -1.52131         3.24821
LJ          0.571628          1.4622        -1.23811
LJ           3.26951        -0.35686        -1.18382
LJ          -5.60291         1.56969        -5.37668
LJ           4.81694         3.01224         5.28443
LJ          -1.18021         1.57404       -0.114084
LJ          -2.93002        -4.33093        -1.63209
LJ          -3.38129        -5.84784       -0.910123
LJ           2.37764         2.18115         2.13145
LJ          -1.50736        -1.26383        0.686984
LJ         -0.320145        -1.70084        0.918786
LJ          -5.64352         5.57653        -1.23955
LJ         0.0326632        -2.39138      -0.0809678
LJ           2.32262       -0.207044        -1.87928
LJ          -1.45404          1.6905         1.07699
LJ           2.16139       -0.735592       -0.999087
LJ          0.558678        -2.72159         1.08616
LJ         -0.197875        -2.01222         -1.2394
LJ         -0.673388       -0.629901        0.188173
LJ           1.29433        0.233618       -0.353619
LJ           1.74828         1.67555        0.494687
LJ          0.513583       -0.470973         2.62441
LJ         -0.919771        -0.44251        -1.98668
LJ          -1.95707       -0.337506       -0.326472
LJ           1.56718       0.0371803         1.37293
LJ          -2.25012        -4.38012         5.88934
LJ           2.63937       -0.781453         1.70003
LJ          0.749161        0.602143        0.751737
LJ          -1.61795        0.187609        -1.50851
LJ          -0.47116      -0.0373057         1.24095
LJ           0.33092         1.61612         3.43849
LJ         -0.512105         2.36904         -1.4536
LJ          -5.71241        -3.63565        -1.05931
LJ         -0.284408         2.30806        -0.10038
LJ           1.26447         1.05611         1.79121
LJ           3.63225          0.8587         1.34172
LJ          0.216671       0.0982644       -0.668965
LJ          0.620444        -1.21565        -1.70962
LJ          0.846781        -1.46804         3.00076
LJ           2.25342        0.437727        0.265118
LJ          0.677845         1.60401       0.0868223
LJ            1.5906         4.15048        -4.02344
LJ         -0.269429        -2.73192         1.66267
LJ          -2.13343       -0.193992        -2.42214
LJ         -0.342295         1.51041        0.606492
LJ          0.161739       -0.266211        -2.46789
LJ           2.35207        -1.15855         2.76167
LJ           2.24662         1.27091         1.48808
LJ          -2.38333         -2.6641        -3.45066
LJ          0.052712        0.659359         1.93955
LJ          -2.70207        0.441471         6.36379
LJ           3.50218       -0.221007         1.93701
LJ          0.632283       -0.462489         1.50052
LJ          0.752176         1.78127         1.09298
LJ          -1.46206        0.702901         1.55344
LJ           1.15892         1.06325         3.81714
LJ         -0.461072        -1.45369       -0.385588
LJ         -0.231412         1.18207       -0.513178
LJ         0.0475005         2.38153         4.13469
LJ           1.05997        -1.15431        0.883379
LJ            1.0376       -0.213115        -1.45879
LJ           0.85852       -0.856003       -0.526552
LJ           2.32546       0.0564711         2.58437
LJ          0.387075       -0.561799        0.315237
LJ           1.38142         2.56511          1.7386
LJ           -1.2386        0.166812        0.592449
LJ          -1.25722         -1.9671           1.539
LJ         -0.407369        0.382025        -1.83315
LJ           1.02116        0.397986         2.64594
LJ         -0.468144       -0.989624         1.80246
LJ         -0.996828         1.73031         2.21196
LJ           1.34661         2.28751         3.52105
LJ          0.295129        0.190879         3.53454
LJ          -1.01256         -1.4897        -2.57534
LJ          -1.60077        -1.79938       -0.207612
LJ           2.71845        -1.60381        -2.05557
LJ         -0.914578      -0.0471696       -0.665204
LJ          0.677092          2.5446       -0.658098
LJ           2.43646       -0.716001       0.0897614
LJ           4.87999        0.672513        -5.50751
LJ           1.93619         4.19226       -0.307838
LJ           -1.2058        0.987124       -0.962481
LJ           2.18247         4.28769         1.07502
LJ          -3.04727        -1.49461        -5.76176
LJ           2.67577        0.898187        -1.96412
LJ           0.54202        -4.00175        -1.53463
LJ           3.38686        -4.51632        -2.26972
LJ           3.48482        -5.78491        0.279979
