108
#Comment!
LJ           1.57941       -0.711176         1.14553
LJ           2.79175        -1.56442          1.3642
LJ          -1.63898       -0.484615         2.62913
LJ          -3.22953         2.50015         1.79031
LJ           2.72978        -1.33314        0.410931
LJ           1.79093         1.08093        -1.48372
LJ           2.35407        0.247529         1.17965
LJ           2.61941        0.123892        -1.07122
LJ           1.52431        -1.61609        0.560143
LJ           2.09177        -1.39695       -0.644733
LJ          -1.82845         3.50476        0.323583
LJ           1.19555        0.839901           2.526
LJ         -0.465827         -1.9938       0.0628142
LJ           3.25172       -0.642859       -0.466837
LJ         -0.473774         1.15278         3.28288
LJ         -0.137655        0.871846         1.69509
LJ          0.645976        -1.48545        -2.22041
LJ          0.628136        0.749867        0.257865
LJ         -0.719568         1.75978          2.3784
LJ         -0.529567        -0.75205       -0.631609
LJ           1.29204        -3.77038        0.692743
LJ           1.31838        0.510294       -0.477107
LJ           1.74123       -0.429458        -1.80854
LJ            5.6886         4.37909         2.99873
LJ          -4.33923        -4.59476         5.42156
LJ          -1.85041         3.40857       -0.666171
LJ          -3.35635         5.83995        -0.58231
LJ         -0.847795        -6.17327         4.11803
LJ          0.412165         2.23807          1.8693
LJ          -3.12697        0.407975         1.25978
LJ          -1.17281         0.58549         1.23839
LJ          -2.18786        -4.09471         4.93989
LJ         -0.144061        -1.38317        -1.53475
LJ           1.09648        -1.20219        -1.29026
LJ          -1.03346         2.61032        0.390776
LJ           0.44771        -1.42312       -0.588932
LJ         -0.660003        -2.14412         -1.0452
LJ          0.114825       -0.559519        -2.15563
LJ          -1.90535        0.501613         2.21661
LJ           2.37572        0.983067       -0.138874
LJ           1.53098         1.38816        0.459171
LJ          0.855378        -2.67962        0.362846
LJ          -1.66971        -0.66169       -0.536276
LJ          -1.48511         -1.4337        0.254826
LJ           1.49191      -0.0459006         1.89179
LJ           1.90012        -3.98272         3.17856
LJ           1.24653         -2.1545       -0.576772
LJ           2.18457       -0.238452        0.111137
LJ          -1.19984       -0.087065        0.200865
LJ          -1.62863         1.48422         1.81413
LJ          -1.61165        0.362715         3.56568
LJ          -1.18632        0.504779       -0.779333
LJ           -1.3796        -2.36701        0.783167
LJ           -1.4524         2.79396        -1.44013
LJ           1.07685         1.32085         1.49713
LJ           2.27702         1.80893         1.86712
LJ           1.08242       -0.473988         0.28124
LJ         -0.132341       0.0847165        -1.21178
LJ            2.3264        -2.57942       -0.210626
LJ            3.5209        0.762816       -0.304863
LJ         -0.557632         1.40588        -1.13258
LJ          -5.87472         2.66524        -3.23972
LJ         -0.813828       -0.878458        0.963133
LJ          -1.13875       -0.314648        -1.52701
LJ         0.0186843         2.14652       -0.120145
LJ          0.459722         1.24305        -1.84104
LJ           0.98644       -0.678998         2.53937
LJ          0.918363         2.28739        0.475377
LJ          -4.91503        -6.45573         6.12558
LJ         -0.921958         2.04942         1.24628
LJ          -4.86242        -2.28094         5.83347
LJ           2.63995       -0.274586         2.05629
LJ           1.34506        0.343136        0.930683
LJ          0.122918         1.63889         1.07945
LJ          -2.49462         1.37267         2.54421
LJ         -0.121057      -0.0152218         3.52112
LJ        -0.0580152       -0.834321         0.25428
LJ         -0.248927         0.21936        -0.16165
LJ           1.08408        -6.27862         5.68962
LJ          0.424732        -1.61245         0.58112
LJ          0.382955        0.982599        -0.73239
LJ          0.616192       -0.356515       -0.672138
LJ         -0.223827       -0.498486         1.89334
LJ          0.123007        0.020694        0.902824
LJ          0.332907         1.40488         2.58372
LJ          -1.75917         1.36566        0.701971
LJ           1.16561       -0.353061         3.70282
LJ           1.94189         2.49678        -1.39842
LJ          0.277556        0.152609         2.60143
LJ          -0.63267        -1.01374         2.93132
LJ          -1.90514         2.30247         1.21897
LJ          0.176464         2.38526         2.98816
LJ          0.674757        -1.86793         1.62571
LJ           2.63674         5.87955       -0.241796
LJ          -4.58705          4.1143         3.78787
LJ         -0.863585        -4.51561       -0.144912
LJ         -0.413772         1.21627        0.353204
LJ           1.20908         1.58618       -0.610744
LJ           1.57962        -0.45605       -0.808715
LJ           3.84457       -0.761937        -5.27122
LJ           2.65417         2.43582        0.826707
LJ          -1.36223         1.74239       -0.262801
LJ           4.00231       -0.039848         2.06492
LJ          -4.16624       -0.196908           4.894
LJ          0.829826        0.259672        -1.57413
LJ          0.468111        -2.11969        -1.41865
LJ          -1.40205      -0.0757425         5.77682
LJ         -0.919504         4.27838         6.25992
