108
#Comment!
LJ           3.64959        -1.55252         1.39593
LJ          -3.01434         2.63307         -6.1491
LJ           1.62747        -2.09035         2.50951
LJ          -1.32939         2.68668        0.727811
LJ          -1.07164        0.507196         2.17603
LJ            1.2863        -2.50794       -0.371809
LJ           0.95449       -0.369011       -0.823619
LJ            3.2054        -2.27477       -0.184586
LJ           1.92639        -0.90038         1.87032
LJ          -1.74942        -3.29813         3.12161
LJ           1.07275        0.666214         3.76776
LJ          0.706905        0.668711       -0.104886
LJ          0.381856        -1.19533        0.371471
LJ           2.89904        -3.04236        -5.06444
LJ           2.28961        -2.07972       -0.861872
LJ          0.551522        -3.21971        0.817022
LJ           2.24445        -2.20621          4.4473
LJ           1.44502         1.32757       -0.358959
LJ         -0.622173         5.42365        -1.87156
LJ           2.25057        -2.01624          0.4231
LJ          -2.20273        0.307414        0.696769
LJ           1.90722         3.35635        -1.84893
LJ           2.49951        0.191781         0.57876
LJ           1.08059         -3.8213       -0.643534
LJ           0.55516         2.28995         1.17338
LJ        -0.0984391         2.39323        -1.41287
LJ          -1.19371       -0.164166        -1.02478
LJ           4.53317         5.02262        -1.98426
LJ            3.1281         1.97145         2.55034
LJ           1.37572        -3.25537         1.83675
LJ          0.736898        -1.38721         5.55497
LJ           5.00843        -1.26045        0.768319
LJ           1.39732        -1.38151        -1.46312
LJ          0.750907       -0.660022        -1.86374
LJ         0.0190387         1.73007       -0.442955
LJ           3.20991       0.0687187        -0.16793
LJ           2.57543       -0.903125        0.795487
LJ         -0.109526        -3.66195        -0.68658
LJ          0.915918       -0.339236        0.342394
LJ           1.63124        0.324859       -0.245352
LJ           2.59635         2.53985       -0.271425
LJ        -0.0520313        -1.39029         2.15928
LJ           1.17034        -1.52935       -0.340818
LJ       -0.00994233       -0.367239       -0.202743
LJ           2.43106         1.43713          3.0505
LJ           2.56516        -4.80028        -2.19577
LJ           3.32501        0.527979          1.5883
LJ           2.23659        -1.26326         2.82636
LJ           2.08531       -0.611523       -0.964456
LJ         -0.755033         1.85837        0.196691
LJ            3.0513         1.41356         1.01309
LJ          0.300638         4.58052        -1.06286
LJ          -2.67567         5.27406        -3.56258
LJ         -0.124423       -0.214554         0.99727
LJ           2.23971        -1.90725         1.63207
LJ           3.03493         -1.0316       -0.229874
LJ           2.39404          1.0254       -0.593545
LJ           4.13604       -0.654085       -0.531399
LJ         -0.222367       -0.579318         3.29067
LJ           3.49546       -0.340109        0.755316
LJ          0.925988        0.950916        -1.13607
LJ           4.17769        -6.15379        -5.29492
LJ          0.932242        -1.15563         2.33455
LJ         -0.806567         4.49181         -1.3544
LJ           1.97778         1.48313        0.570304
LJ           1.30312        -1.45701        0.914266
LJ           1.52336        -3.49598         3.12363
LJ          0.922405         2.19949        -1.06293
LJ          0.636093         1.70475        -2.20487
LJ           2.18938         1.07261         1.87373
LJ           2.37832        0.698688        -4.27167
LJ         0.0992753        0.236258          2.5951
LJ          0.779051        -2.33936         1.90197
LJ           1.40785         0.57301        0.826563
LJ         -0.778862        -1.29003         1.22919
LJ          0.823478       -0.496513         1.41817
LJ           2.22089      0.00506377         1.64166
LJ           -1.1336        0.913127       -0.397457
LJ           3.63458       -0.599823         4.20856
LJ           1.24518        0.169372         2.18856
LJ            1.7946       -0.828444       -0.010667
LJ           1.41429        -2.57386        0.809842
LJ           2.40481         0.36482         3.34296
LJ           2.94764       -0.726712         2.01012
LJ           1.24194         2.57901        -0.11331
LJ           -1.1579       -0.026831         0.84547
LJ         -0.436833        -1.51199       -0.148913
LJ        -0.0797487         1.36154        -1.49043
LJ            1.1701         1.35441         1.94133
LJ          0.393917         -3.2247         2.73682
LJ          0.135899         2.87636       -0.203288
LJ          0.684569           1.344         0.62424
LJ          0.531357        0.580932         1.40728
LJ         -0.347636       -0.864651        -1.02562
LJ          0.292146        -2.29469      -0.0476915
LJ           2.28375         1.35921         4.12256
LJ        -0.0426645        0.242222        -1.03733
LJ         -0.649768         3.63737        0.551529
LJ          -4.26157         5.65474         6.02025
LJ           4.69204         5.64671         5.73974
LJ          -1.05959         2.81288       -0.328732
LJ          -0.84703        0.573405        -2.00805
LJ            0.5978         3.19738        -1.20966
LJ           1.63874        0.202421        -1.49192
LJ         -0.669587         3.66812       -0.763828
LJ          -1.14756       -0.659689          2.0404
LJ          -6.30241        -4.57943        -1.76108
LJ           2.55018        -3.16185       -0.317096
