108
#Comment!
LJ          -2.01056        -2.01056        -2.01056
LJ          -1.15584        -1.15584        -2.98859
LJ          -2.98859        -1.15584        -1.15584
LJ          -1.15584        -2.98859        -1.15584
LJ          -1.78041        -2.69979        -2.69979
LJ          0.634403         -3.1918        -4.07558
LJ         -0.569092        -2.29726        -2.29726
LJ          0.634403        -4.07558         -3.1918
LJ          0.268964        -2.97703        -2.97703
LJ           1.89894        -1.33725        -2.95973
LJ           1.05225        -2.15693        -2.15693
LJ           1.89894        -2.95973        -1.33725
LJ          -2.69979        -1.78041        -2.69979
LJ           -3.1918        0.634403        -4.07558
LJ          -4.07558        0.634403         -3.1918
LJ          -2.29726       -0.569092        -2.29726
LJ           -1.1635         -1.1635        -1.94223
LJ         0.0579958       0.0579958        -1.87154
LJ          -1.18852        0.044264        -2.08169
LJ          0.044264        -1.18852        -2.08169
LJ           2.08869        -1.69811        -4.05841
LJ           1.67594        0.748584        -2.72321
LJ            1.0179       -0.471731        -2.19319
LJ           2.98252         -1.6918        -3.16705
LJ          -2.97703        0.268964        -2.97703
LJ          -1.33725         1.89894        -2.95973
LJ          -2.95973         1.89894        -1.33725
LJ          -2.15693         1.05225        -2.15693
LJ          -1.69811         2.08869        -4.05841
LJ          0.748584         1.67594        -2.72321
LJ           -1.6918         2.98252        -3.16705
LJ         -0.471731          1.0179        -2.19319
LJ        -0.0144655      -0.0144655        -2.95337
LJ           0.91124         0.91124        -1.99315
LJ          0.193094         1.98177        -1.26464
LJ           1.98177        0.193094        -1.26464
LJ          -2.69979        -2.69979        -1.78041
LJ          -2.29726        -2.29726       -0.569092
LJ          -4.07558         -3.1918        0.634403
LJ           -3.1918        -4.07558        0.634403
LJ           -1.1635        -1.94223         -1.1635
LJ          0.044264        -2.08169        -1.18852
LJ          -1.18852        -2.08169        0.044264
LJ         0.0579958        -1.87154       0.0579958
LJ           2.08869        -4.05841        -1.69811
LJ           2.98252        -3.16705         -1.6918
LJ            1.0179        -2.19319       -0.471731
LJ           1.67594        -2.72321        0.748584
LJ          -1.94223         -1.1635         -1.1635
LJ          -2.08169        0.044264        -1.18852
LJ          -1.87154       0.0579958       0.0579958
LJ          -2.08169        -1.18852        0.044264
LJ         -0.872834       -0.872834       -0.872834
LJ       0.000293527     0.000293527       -0.765455
LJ         -0.765455     0.000293527     0.000293527
LJ       0.000293527       -0.765455     0.000293527
LJ          0.640877        -1.00654        -1.00654
LJ          0.951222       0.0633829        -1.15864
LJ          0.973949       0.0344636       0.0344636
LJ          0.951222        -1.15864       0.0633829
LJ          -4.05841         2.08869        -1.69811
LJ          -3.16705         2.98252         -1.6918
LJ          -2.72321         1.67594        0.748584
LJ          -2.19319          1.0179       -0.471731
LJ          -1.00654        0.640877        -1.00654
LJ         0.0633829        0.951222        -1.15864
LJ          -1.15864        0.951222       0.0633829
LJ         0.0344636        0.973949       0.0344636
LJ           1.02287         1.02287       -0.432989
LJ           1.64181         1.64181        -1.78046
LJ           2.09626         2.99615        0.627526
LJ           2.99615         2.09626        0.627526
LJ          -2.97703        -2.97703        0.268964
LJ          -2.15693        -2.15693         1.05225
LJ          -2.95973        -1.33725         1.89894
LJ          -1.33725        -2.95973         1.89894
LJ          -1.69811        -4.05841         2.08869
LJ         -0.471731        -2.19319          1.0179
LJ           -1.6918        -3.16705         2.98252
LJ          0.748584        -2.72321         1.67594
LJ        -0.0144655        -2.95337      -0.0144655
LJ           1.98177        -1.26464        0.193094
LJ          0.193094        -1.26464         1.98177
LJ           0.91124        -1.99315         0.91124
LJ          -4.05841        -1.69811         2.08869
LJ          -2.19319       -0.471731          1.0179
LJ          -2.72321        0.748584         1.67594
LJ          -3.16705         -1.6918         2.98252
LJ          -1.00654        -1.00654        0.640877
LJ         0.0344636       0.0344636        0.973949
LJ          -1.15864       0.0633829        0.951222
LJ         0.0633829        -1.15864        0.951222
LJ           1.02287       -0.432989         1.02287
LJ           2.99615        0.627526         2.09626
LJ           2.09626        0.627526         2.99615
LJ           1.64181        -1.78046         1.64181
LJ          -2.95337      -0.0144655      -0.0144655
LJ          -1.26464         1.98177        0.193094
LJ          -1.99315         0.91124         0.91124
LJ          -1.26464        0.193094         1.98177
LJ         -0.432989         1.02287         1.02287
LJ          0.627526         2.99615         2.09626
LJ          -1.78046         1.64181         1.64181
LJ          0.627526         2.09626         2.99615
LJ          0.918031        0.918031        0.918031
LJ           1.89718         1.89718        0.269239
LJ          0.269239         1.89718         1.89718
LJ           1.89718        0.269239         1.89718
