108
#Comment!
LJ          0.790479        -1.35138        0.263884
LJ           3.51659       -0.913334         3.54339
LJ          -2.61383        0.897076        0.701572
LJ         -0.706179        -6.28159       -0.794823
LJ           1.61771        -2.08052      -0.0469094
LJ           1.16806         1.89836        -1.14141
LJ           1.79704      -0.0395982         1.37491
LJ           2.83311       -0.530477        0.971152
LJ           2.21933        -1.47176         1.28112
LJ          0.824747       -0.563415        -2.30627
LJ          -1.11771          2.7624        0.100356
LJ           2.37567         0.91317         1.93549
LJ         -0.649522        -2.72494       -0.933222
LJ           2.49083        -0.69423        -1.54183
LJ          -2.51895        0.901014         3.29569
LJ          0.572093         2.28272         1.52613
LJ           0.59167        0.343034         -1.9085
LJ         -0.307331       -0.130446        0.295957
LJ         -0.823983         1.47814         1.50473
LJ         -0.684798        -1.04651       -0.653626
LJ          0.918833        -2.18435        -0.87635
LJ           1.55176        0.116863      -0.0751135
LJ          0.819184         1.46541        -2.19877
LJ           3.58772         5.64559       -0.799649
LJ           0.94803         2.76054        -5.60598
LJ          -1.97607         3.18896        0.676046
LJ          -3.23408         3.74295        0.326893
LJ          -3.53765         4.51057        -4.46794
LJ           1.73884         1.89487         2.10145
LJ           6.19793         3.57143         4.60847
LJ         -0.834385         0.43789         1.49493
LJ          0.605895        -1.43495        -2.87699
LJ         0.0395796       -0.461466        -1.48107
LJ          0.794029        -1.09171        -1.25393
LJ          -1.34982         1.84084        0.548144
LJ         -0.130056        -1.70197        -1.24306
LJ         -0.676989        -1.94773       -0.159692
LJ       -0.00278265          1.3657        -1.51102
LJ          -1.86517         1.15615         1.57062
LJ           1.98886        0.885964          0.6839
LJ           1.68309        -0.91569        0.508219
LJ           1.28952        -2.19469         1.29651
LJ          -1.78585        -1.37718        0.552417
LJ          -1.12862       -0.665152         1.25107
LJ          0.585639        -1.30144         2.40147
LJ           4.77521        -2.82119        0.430493
LJ          0.411955        -2.60326        0.177267
LJ           2.63833       -0.593788       -0.447305
LJ          -1.43785       -0.326818       -0.223638
LJ          -2.25938         2.21501        0.721435
LJ         -0.422517       -0.853745         2.12287
LJ          -1.45371        0.717687       -0.525493
LJ         -0.443556         -3.5513      -0.0994146
LJ         -0.687333         1.55156       -0.397309
LJ           1.17901         1.63761        0.957636
LJ           1.61485         1.09823       -0.553223
LJ            1.6795          -1.004        -0.60947
LJ          0.496255        -0.31824       -0.479528
LJ           1.89505        -1.52071        -1.78502
LJ            2.8424       -0.818798        -2.63641
LJ          -1.20225       -0.201403        -1.35614
LJ            -1.245          1.3562         -2.3354
LJ          -2.42382         0.22344       -0.306121
LJ          -2.01233        -1.08424        -1.60833
LJ         -0.155321         1.93049        0.763208
LJ         -0.298196        0.511346       -0.654066
LJ         -0.829441         1.02284         2.94527
LJ            1.0624         2.56671        0.390677
LJ           5.31876        -5.07352         1.27242
LJ          0.121357        0.809097         1.36869
LJ          -4.35932         1.67417         5.28763
LJ           2.97099        0.746286         2.78945
LJ          0.885303       0.0562606        0.802906
LJ         -0.591538         2.94088         1.02054
LJ          -1.67683         2.32734         1.66885
LJ         -0.133178         1.97279         3.66363
LJ          0.152709        -2.15796         1.57811
LJ         -0.458508        -1.65912        0.804339
LJ           2.02035        -2.92593        -6.13774
LJ           2.49088        -1.66592         2.51084
LJ          0.397874        0.780354        0.265271
LJ           1.28833       -0.158386        -1.20767
LJ          0.359641       -0.852264         1.16014
LJ           1.21791        0.783243         2.00987
LJ         -0.556812         2.45962         1.90882
LJ          -1.64949        0.311497        0.632771
LJ        -0.0345604         1.34045          2.2083
LJ           2.35114         1.36213        -1.43446
LJ          0.236171       -0.118644         2.67711
LJ          -1.02421        -1.65249         1.80691
LJ          -2.86802         2.09771         1.92875
LJ          0.729255        0.942535         3.09782
LJ           1.34751       -0.979244         1.69256
LJ          -6.30531         2.50901          3.1547
LJ          -6.35717        -4.54141        -3.53085
LJ          -4.68132          5.4503        -1.52185
LJ         -0.585493        0.947099        0.504916
LJ          0.391327         1.94503       -0.128455
LJ           1.61065        0.749268        -1.64602
LJ           2.97318        -1.92248         -5.0515
LJ           3.78811         2.99732         5.49788
LJ          -1.70867         2.06713       -0.472376
LJ          -4.61894        -3.28593         5.32233
LJ          -6.26618        0.773452         3.92289
LJ          0.640259        0.899764       -0.911672
LJ          -1.45501        -2.10467         -1.7403
LJ           3.72437         5.35544         1.94299
LJ          -4.54893        -5.89907        -3.83239
