108
#Comment!
LJ          -1.89557        -2.45951      -0.0820638
LJ          -4.76047        -5.87905         3.43072
LJ           5.82557         5.83315        -4.12144
LJ           5.09866         6.24005         -3.4275
LJ           2.79465        -2.13077       -0.618937
LJ         -0.501418         1.26874        -2.19526
LJ           0.73623        -1.74572       -0.647154
LJ          0.549272        -2.75555      -0.0312938
LJ          0.161208        -2.55213        -1.06731
LJ           1.42448        0.924303       -0.325673
LJ           3.02463         2.42672         2.50739
LJ          0.723123        -1.44912         2.15329
LJ          -1.10381        -1.31355        -2.09696
LJ          0.262126         3.14646        -1.78719
LJ          -1.04855         1.58871        0.171923
LJ         -0.813097         2.15205        -1.55577
LJ          -1.86979        0.263814        -1.48128
LJ          0.534555        0.105376        0.400853
LJ          -1.68053         2.00384       -0.702325
LJ         -0.614174       -0.375531       -0.957408
LJ            1.2074       0.0557018         -1.9057
LJ           1.61815        -1.11716       -0.862315
LJ          0.381602        -0.65357        -1.58276
LJ           3.11339       -0.460532         2.83846
LJ         -0.725369         3.74819         3.36584
LJ           0.85999         3.12116        -2.66769
LJ          0.945651         2.31899        -1.34524
LJ           2.92887         1.00507          3.4256
LJ         -0.238504         2.55766        -2.43967
LJ         -0.833265          3.1557        -1.71138
LJ         -0.328152         2.25104         4.20024
LJ         -0.175654        0.369725        -1.61294
LJ          0.660666         1.99877        -2.38594
LJ          0.524351        0.776742        -2.38532
LJ            0.2461         1.43891        -1.20867
LJ          -1.03996      -0.0335275        -2.06863
LJ          -1.56064        -2.01542       -0.996458
LJ          -2.21063       -0.998017         1.50536
LJ          -1.52387        0.799819         1.09797
LJ          0.441786        -2.53358         1.08579
LJ          -1.15385        -1.49723      -0.0705916
LJ          -1.05793        -2.96575       -0.566785
LJ          -2.06997        -1.56099        0.582517
LJ         -0.453465       -0.431201        0.147552
LJ         -0.210281        -3.31758        0.754759
LJ           6.45817        0.987404        -1.31034
LJ          -0.42452        -1.73098       -0.745867
LJ           1.53381        -2.35992       -0.217107
LJ          -1.25357        0.149591       -0.390272
LJ          -1.02934         1.19954       -0.906708
LJ        -0.0325453       -0.456249         1.19354
LJ          -2.75083       0.0202571       -0.893111
LJ          0.310724       -0.786198       -0.519039
LJ           1.40261         1.02458        -1.47607
LJ              1.23        0.234817          1.2689
LJ          0.975938       -0.911215         1.17443
LJ           1.29479       -0.731483        0.148261
LJ           0.61954       0.0784774       -0.907786
LJ           1.89009       0.0416825       -0.990471
LJ           1.18429        -1.72827        0.543135
LJ           -2.1097       -0.762776        -1.70853
LJ           4.10207          4.9269         3.09682
LJ          -1.97016        0.976175       0.0376534
LJ          -1.85805       -0.845092       -0.525652
LJ          0.580229         1.32703        0.379895
LJ          -0.14647        0.774404       -0.310693
LJ         -0.478157        0.467213        0.669532
LJ        0.00746195         2.34432       -0.613732
LJ            3.2472         5.91101         3.66137
LJ           3.17978         3.01951          3.4047
LJ          -4.85155         2.00833        -6.43529
LJ          0.733299        -4.87186        -6.15684
LJ         -0.670718         -2.3094        0.314765
LJ           3.13757         1.76457         1.48717
LJ         -0.584209        0.793741          1.7762
LJ          0.482335        0.373101         2.23114
LJ          -1.76107        -3.14611        0.787365
LJ         -0.891435        -1.40242        0.925378
LJ          0.135489         4.46212         4.17026
LJ          -1.91863         -2.0192         1.54294
LJ         0.0111112         -1.5107        0.211815
LJ           2.14692        -1.37368       0.0319806
LJ         -0.989058        -2.36048         1.37463
LJ         0.0392117        -1.43516         1.39398
LJ          -2.35992        0.280686        0.840365
LJ          -1.36507       -0.471074        0.654975
LJ         -0.540678        -3.30081         1.94285
LJ          -5.33584       -0.354812          3.9356
LJ       -0.00691894       -0.773754         2.35822
LJ          -1.02069        -1.77265         2.24149
LJ          -2.06404         1.86773        0.711619
LJ          0.607299        -1.57649         3.83227
LJ        -0.0887426         -2.3287         2.19219
LJ           1.34564         6.11011        -5.50573
LJ          -5.20531         6.22888         1.63813
LJ          -6.01075         2.27969        -5.51795
LJ         -0.870291       -0.343707         1.82005
LJ         -0.981634         2.67001       -0.188288
LJ           1.09832         2.28317        0.314661
LJ          0.688609        -4.31473       -0.520947
LJ           4.85653         4.84093         4.23195
LJ          -6.24055         2.30485        -4.15679
LJ           1.46713         4.67633         3.52255
LJ           5.39811        -5.15382         3.12318
LJ           2.35329         3.05836         4.45808
LJ          -3.08585       -0.956238       -0.364123
LJ           4.59549       -0.612469        -5.03619
LJ           2.05303         4.22624       -0.543822
