108
#Comment!
LJ           4.06118       -0.400836         1.26714
LJ           1.54482         2.56663         -1.8855
LJ          0.317343        -1.90448         1.25466
LJ          -1.48442        0.745762        -1.65718
LJ         -0.085868        0.342526         3.81816
LJ         -0.443999       -0.859813        -2.34809
LJ            1.1604        0.761333        -1.39018
LJ          0.572753        -1.12731        -2.22234
LJ           1.50266       -0.627173         2.53033
LJ          0.398422        -1.02473         1.97485
LJ        -0.0482127         2.04067         2.26503
LJ          0.774704        0.903313         1.46983
LJ          -2.05948        -1.10052       -0.940284
LJ           3.15928         1.82544        0.321151
LJ          -1.64882        -2.31239        0.259581
LJ          -1.36436        -1.24073        0.458921
LJ          -2.42808       -0.376178        -3.22064
LJ          0.588446       0.0528487        0.354691
LJ          0.245145         4.12163         5.17139
LJ          -0.88296       -0.900955        -1.33486
LJ          0.441127       -0.375483         5.01488
LJ             1.097         1.77212        -0.99297
LJ           3.59212        0.881596       -0.865389
LJ           -4.8737      -0.0208094        -3.08531
LJ           2.99809        -5.80291         5.43031
LJ          0.148611         1.06115        -1.28673
LJ          -2.92451        -1.96809        -2.35562
LJ           4.55241         6.44275        -1.19022
LJ           2.60674         1.66112         1.27224
LJ         -0.269098        -1.35487        0.508469
LJ         -0.593581        -2.20124         2.39743
LJ           5.55519         3.95835        -4.48753
LJ         -0.250107        -4.81077       -0.365227
LJ           1.22258        0.248929        -2.47147
LJ        -0.0195601        0.831376        0.690939
LJ           2.83876       -0.169629        -1.43852
LJ           1.52583        -1.05741        0.330368
LJ         0.0874627        -1.87741       -0.360937
LJ         -0.560168        0.166908       0.0797654
LJ           2.30535         1.03973        -1.42262
LJ          0.933516         1.78715        0.348563
LJ         -0.613282       -0.615109         2.23154
LJ          -1.12038        -1.45169        -2.84829
LJ          -1.23248       -0.545885       -0.322784
LJ           3.15733        -1.22527         1.50905
LJ          -4.42746        -4.52317        -5.67875
LJ           2.34665       -0.438644         1.86061
LJ            3.1068       -0.395242        0.744807
LJ          -1.65049       -0.685245        -2.16462
LJ          -1.16542        0.310474         2.02958
LJ          0.930676           1.001         2.58766
LJ         -0.743975         1.14016        -2.27292
LJ           4.81506        -4.43574        -1.81999
LJ          0.145717         1.77587         1.12365
LJ           1.05897       -0.184961         1.45278
LJ           3.63009        0.655742         0.85335
LJ           1.30261      -0.0772356        -0.49357
LJ           1.18251        -1.19384       -0.779604
LJ          0.066704       -0.910242          3.0225
LJ           4.31299        -0.77684        0.179311
LJ           1.63057        0.910699        -0.37628
LJ          -1.27326         4.88666        -4.38871
LJ           2.52325        -1.09948         2.62316
LJ          -1.71568        0.548901         -2.6815
LJ           2.10236       -0.180993        0.756337
LJ           0.35841       -0.514706        -1.38818
LJ          0.523199        -1.90605         2.57878
LJ            2.6214         1.13104        -0.33496
LJ         -0.180621        -6.40773        -2.34156
LJ          -0.13047        0.739574         1.97677
LJ          -1.17049        0.697504         6.36198
LJ           2.60592         1.77393         2.69818
LJ         -0.350402       -0.130082         1.27325
LJ           1.63023        0.984628        0.853088
LJ          -1.58174       -0.173208         1.05508
LJ           1.58576        0.100648         3.26643
LJ          0.563779       -0.900097        0.858552
LJ           0.39425        0.766262       -0.332632
LJ          0.751169         1.27009         5.04124
LJ           1.38767        -2.32244          2.0674
LJ           1.79119       -0.153173        -1.69373
LJ          0.328077       -0.731128       -0.259084
LJ           1.77798        0.652251         1.86263
LJ           1.52843        -1.36412         1.40982
LJ           1.50139         1.65558         1.58731
LJ         -0.790249         1.13145       -0.752479
LJ         -0.610939        -2.63394         1.12225
LJ          0.313702        0.549494        -2.11278
LJ          0.641004      0.00574792          2.6347
LJ         -0.493094        -1.45955         1.57226
LJ         -0.126192          1.6893      -0.0469242
LJ        -0.0642597          3.7377         1.07913
LJ         -0.730673         1.11298         3.45481
LJ          -1.39594        -1.74562        -1.69172
LJ         -0.983973        -1.57302       -0.548939
LJ          0.740326         1.61809        -2.23513
LJ         -0.367104         0.21892       -0.960038
LJ         -0.335787         2.69928         1.32324
LJ           2.04423         -3.7695         1.45549
LJ           5.51925         1.47825        -5.65379
LJ            1.4693         5.12793        0.396157
LJ         -0.882869        0.020262        -1.98145
LJ          0.750919         3.98515      0.00417276
LJ          -3.09246        -1.06789        -4.60304
LJ           1.69782         2.90042       -0.554041
LJ          0.294888        -3.56513       -0.144275
LJ          0.805428        -1.82504        0.380598
LJ          -4.83161        -4.45491         1.66697
