108
#Comment!
LJ           1.88817        -1.07129         1.07907
LJ            3.2629         -1.5851         2.26215
LJ          -1.31409    -0.000588608         2.26066
LJ            -2.139         2.85401         1.79378
LJ           3.00799        -1.90831       0.0564671
LJ           2.10359         1.28616        -2.11263
LJ           1.44229        0.164739         1.70673
LJ           2.42195        0.586605       -0.830507
LJ           1.94904        -1.67676        0.235944
LJ           1.73499        -1.26501       -0.755409
LJ          -1.21372         2.76789        0.801386
LJ           1.90398         1.75422         2.45045
LJ         -0.430617        -2.04688        0.451441
LJ           2.43798       -0.450307       -0.363993
LJ          -1.06968        0.802934         3.36871
LJ         -0.319106         1.28121         1.70098
LJ          0.983033       -0.671599        -2.11813
LJ        -0.0870352        0.716727         0.30218
LJ          -1.08343         1.92006         2.31174
LJ         -0.531554       -0.912538       -0.727931
LJ          0.709269        -4.00624        0.169414
LJ            1.5638        0.273267       -0.125464
LJ           1.70173        0.121304        -2.58782
LJ           5.35177         4.94978         2.04045
LJ          -3.23075        -6.01738         5.53927
LJ           -1.5233         2.94338       -0.352849
LJ          -3.43243         5.30248       -0.372851
LJ          -1.34056         6.16596         5.67859
LJ          0.576947           1.642         2.26819
LJ          -4.26699         1.16733         2.02915
LJ         -0.814311        0.513705         1.11653
LJ          -1.48392        -3.42572         6.22375
LJ         -0.108128       -0.466895        -1.60348
LJ          0.683478         -1.1631        -1.19864
LJ         -0.592026         2.47261       0.0144144
LJ          0.156965        -1.57953       -0.410314
LJ          -1.19248        -1.80819       -0.679104
LJ          0.251359         0.59315         -1.6859
LJ          -1.29246         1.14167         1.79976
LJ           2.07201          1.3475       -0.170119
LJ           1.77824        0.780245        0.780067
LJ           1.55928        -3.09525      -0.0080435
LJ          -1.66016        -1.10012      -0.0910537
LJ         -0.895528       -0.870827         0.54093
LJ          0.593631       -0.590442         1.70568
LJ           2.73567        -3.84288          2.5103
LJ           1.11649        -1.98406       -0.291899
LJ           2.66513      -0.0411644         0.57349
LJ          -1.22037       0.0402744          0.1314
LJ            -1.733         1.99675          1.4227
LJ          -2.12188       -0.235936         3.13208
LJ          -1.71929        0.711269       -0.671196
LJ         -0.841679        -2.44568         1.30314
LJ          -1.38239         2.30304        -1.35854
LJ          0.627103         1.33297         1.08237
LJ           2.50871         1.54261         1.36352
LJ           1.13724       -0.969473     -0.00339231
LJ          -0.38603         0.16803        -0.85645
LJ           2.09095        -2.51551       -0.712383
LJ            3.5066      -0.0474937        -1.02028
LJ         -0.643584         1.22725         -1.1921
LJ          -4.73085         2.35092        -3.07362
LJ          -1.70032       -0.259713         1.09099
LJ          -1.48864        -0.27957        -1.53138
LJ          0.216152         2.13508       -0.584032
LJ          0.264209         1.62252        -1.58837
LJ          0.585477       -0.708959         3.08751
LJ           1.20635         2.04765         0.28648
LJ          -5.22662        -4.32064         5.19205
LJ          -0.97716         1.81007         0.80046
LJ          -5.09063        -2.98174         5.31702
LJ           1.45913       -0.580855         2.60587
LJ           1.06442       -0.177617        0.782827
LJ          0.188039         2.27583        0.867549
LJ          -2.14013         2.16178         2.55679
LJ           0.23559        0.336102         3.66307
LJ          0.336909        -1.44349        0.649326
LJ         0.0916217       -0.318066        0.360461
LJ           1.33711        -5.42694         5.98225
LJ           1.03646        -2.28168        0.664028
LJ          0.414363         0.79942       -0.665445
LJ          0.742464       -0.130144       -0.876983
LJ         -0.427182        -1.45249         1.56492
LJ           0.25212        0.308539         1.33468
LJ         -0.142618          1.0501         2.73115
LJ          -1.86408         1.06252        0.780853
LJ          0.717431        0.363514         2.67291
LJ           1.34419         2.14457        -1.78761
LJ         -0.180001      -0.0213001          2.3406
LJ            -0.306         -1.0004         2.69101
LJ          -2.35554         2.59423        0.567285
LJ       -0.00648285         2.29322         2.98148
LJ           1.22769        -1.41756           1.829
LJ           3.48994         4.84703        0.632971
LJ          -5.05886         5.20113          5.2308
LJ          -2.02528        -5.38129       -0.628651
LJ          -0.86142         1.21773        -0.14387
LJ           1.19782         1.67933       -0.722208
LJ           1.59627       -0.321631        -1.32327
LJ            3.6296        -1.05837        -5.22104
LJ           3.25315         2.90607         2.23187
LJ          -1.86019         1.96731     -0.00345422
LJ           5.18365         -0.8555         2.91892
LJ          -4.64927       0.0523629         4.72748
LJ           1.41472        0.706855          -1.274
LJ          0.396842        -2.28414         -1.2936
LJ        -0.0847266        -2.05004         4.86907
LJ          -1.69523         5.13129         3.74902
