108
#Comment!
LJ          -1.66066        -1.33912        -1.34453
LJ          -2.67992        -2.65375        -4.85615
LJ          -4.77284         -2.5315        -2.57245
LJ          -2.64356        -4.89433        -2.66586
LJ          0.357259        -3.52972         -2.3238
LJ          0.636663       -0.618865        -3.00433
LJ          0.751766        -1.22617        -1.23125
LJ          0.861278        -2.62083       -0.385033
LJ          0.472673        -2.26209        -2.33627
LJ           1.73651        0.271791       -0.491767
LJ           5.43408         4.33509         4.39593
LJ           1.19333         -1.2217         1.03795
LJ          -1.68428       -0.893679         -2.6769
LJ         -0.151696         1.68207        -2.60475
LJ          -2.65027        0.814935         0.03524
LJ          -1.30673        0.900242        -1.22158
LJ         -0.905976       -0.563763        -1.90572
LJ        -0.0319233      -0.0663446       -0.286204
LJ          -1.05589        0.199067        -2.74849
LJ         -0.365249        -1.44147        -1.68776
LJ           1.83842        -1.75923        -2.74889
LJ           1.13157        -1.16695        -2.23471
LJ          0.155902       -0.420615        -1.29889
LJ          -6.43391        -4.49137        -5.18639
LJ          -2.07685         1.61694        -2.85943
LJ          0.642889         1.82472       -0.848445
LJ         -0.194884         2.12552        0.402479
LJ           4.50344         5.77295         4.55406
LJ           -1.0821         1.13225        -3.25239
LJ           -1.1494         1.59515        -2.24579
LJ          -4.49141        -6.43454        -5.18511
LJ         -0.422774         0.67373        -2.11529
LJ         0.0605815        0.364312        -2.94038
LJ          0.600553         1.18548        -2.10044
LJ         -0.246727         1.64472        -1.42355
LJ           1.15539        0.435395        -2.64226
LJ          -2.02051        -3.04304       -0.340086
LJ          -1.34121        -1.15839        0.703273
LJ          -2.03668       -0.531473         1.31597
LJ         -0.203839        -3.17532         1.11425
LJ         -0.686056        -1.91772       -0.820693
LJ          0.200457        -2.12472        -1.11609
LJ         -0.984257        -3.01996        0.482718
LJ          0.358866       -0.714752         0.52109
LJ          0.795706        -2.76507         -1.4859
LJ          -6.43444        -5.18632        -4.49272
LJ         -0.146716        -1.04379       -0.544325
LJ           1.67357        -1.62137       -0.776291
LJ          -2.28154       -0.377756       -0.229952
LJ          -2.09921        0.712426        -1.94966
LJ         -0.671691       -0.328079        0.581776
LJ          -1.64099        -2.11657        0.246139
LJ          -0.95731       -0.188213       -0.916109
LJ           0.83458         0.89794       -0.178666
LJ         0.0846634        0.491993        0.738184
LJ           1.12632       0.0469428        0.457928
LJ           1.00762       -0.651774       -0.389156
LJ           1.06249        0.323171        -1.37283
LJ           2.02265       0.0890986        -1.93752
LJ          0.798568        -1.60014       0.0272146
LJ          -3.46226         1.42062        -0.67499
LJ          -5.18558        -6.43433        -4.49088
LJ          -1.86488         1.88949        -1.40536
LJ          -2.12843       -0.306587         -1.3245
LJ         -0.158542         1.16987       -0.313112
LJ         -0.177148        0.644667        -1.14632
LJ          -1.07498        0.545308       -0.159256
LJ         -0.921692         1.86378       -0.450883
LJ           3.81154         4.02881         1.17782
LJ           4.36653         4.37372         3.01376
LJ          -2.18646         3.66204          5.9267
LJ           3.66146        -2.18654         5.92649
LJ          -1.98509        -3.21655         0.89436
LJ           4.45475          4.4456         5.51743
LJ         -0.250415        0.868075         1.69627
LJ           0.60476       -0.213659         1.44213
LJ          -1.28536        -3.29602         1.70162
LJ         -0.598951        -1.81854        0.545867
LJ          -4.49244        -5.18564        -6.43453
LJ          -1.16202        -2.22224         1.40146
LJ         -0.137818        -2.34454       -0.123308
LJ           1.51953        -2.19344        0.784892
LJ         -0.236909        -2.15925         1.75121
LJ          0.416723        -2.26141        0.787715
LJ          -3.03255        -1.06429         1.11186
LJ          -1.39238       -0.947824       -0.351857
LJ          -2.18767        -1.86123         1.19159
LJ          -5.18617          -4.491        -6.43427
LJ         -0.693351       -0.104175         1.59116
LJ          -1.39797        -1.10317         1.86967
LJ          -1.13942        0.721719         1.04684
LJ         -0.137848        -1.12067         1.42369
LJ           3.38417        0.763797         3.63491
LJ           3.66299         5.92464        -2.18692
LJ          -2.18685         5.92591         3.66212
LJ           4.46474         3.01478         4.46312
LJ          -1.91495         0.27267        0.528951
LJ          -1.97592         1.63596       -0.403121
LJ           -1.7213         1.76005         1.18716
LJ          -2.72411        0.263651         1.11734
LJ           1.21869         4.09061         4.05049
LJ           5.93195         3.65874        -2.18738
LJ           2.99109         4.36666         4.36154
LJ           5.92734        -2.18665         3.66203
LJ           3.88171         3.99425         3.86493
LJ           4.41008         4.29581        0.017365
LJ          0.284796         4.30292         4.33422
LJ           4.63041      -0.0117375         4.37062
