108
#Comment!
LJ           3.64622       -0.683586        0.859109
LJ          -1.81191          2.9782        -2.07175
LJ          0.617607         -1.8497         1.56196
LJ         -0.551836          2.6902        -1.20581
LJ           0.69642        0.638367         3.21694
LJ          0.235224        -2.64526        -0.72101
LJ          0.510331         0.13586        -1.35588
LJ           1.68134        -1.85952        -1.01383
LJ           1.88881        -1.97148          2.2203
LJ       -0.00988291       -0.839995         2.05074
LJ         0.0158277          1.6757         3.16603
LJ          0.415232        0.918427         1.08261
LJ        -0.0142612       -0.668757       -0.621431
LJ           2.06229         5.49804        -1.72306
LJ          0.688935        -3.50336       -0.146591
LJ         -0.256594        -1.96845        0.077366
LJ           5.88863        -1.55665        -5.71022
LJ          0.860428         1.63846        0.126834
LJ         -0.167351         4.76292        -4.97588
LJ          0.832964       -0.998701         -1.2839
LJ          -1.86487         0.31026         3.98619
LJ           0.49579         1.63776        -2.21955
LJ           3.34194      -0.0470932       -0.311966
LJ          -2.76275        -2.16059        -1.62161
LJ          0.706036       -0.365145         5.05429
LJ           0.18279         1.93385        -1.16384
LJ           -1.0406        0.133501        -1.76382
LJ          -1.88609           5.913        -1.64675
LJ           1.94301         2.11923         1.86213
LJ          0.565504        -2.36007        0.614408
LJ           1.88765         -1.4378         4.17129
LJ           4.20958         1.08931         4.63833
LJ           1.04165         -3.5733        -1.51933
LJ          0.940562       -0.250272        -2.21008
LJ        0.00434989         2.11103         0.91351
LJ           2.60091        0.691795       -0.825156
LJ           1.63396        -1.31351         0.68682
LJ           1.16096        -3.63937        -2.71561
LJ          0.751038         0.24193        0.100192
LJ           1.44514        0.721864        -1.89476
LJ           1.27848         2.39187        -0.44527
LJ         -0.847387        -1.41469         1.69423
LJ          0.926978         -2.1709        -1.54665
LJ         -0.328452        0.272668         0.47135
LJ            2.5653       -0.924985         3.39037
LJ           5.70112        -4.68738        -3.91662
LJ           3.26973       -0.689078         2.06393
LJ           2.86294        -1.53607         2.59435
LJ           1.70882       -0.916251        -2.39465
LJ          -1.56655          1.7247         1.53243
LJ           1.16465        0.568984         1.83761
LJ          0.218964         2.74727        -2.40976
LJ           1.61581        -5.86326        -2.61772
LJ        -0.0747424         1.50875         1.96551
LJ           2.59404       -0.995445         1.27129
LJ           2.13416       -0.709908       -0.111084
LJ           1.80909        0.403241       -0.226952
LJ           1.27937        -2.86506       -0.851328
LJ          0.767419       -0.546461         3.56775
LJ           4.18374        0.364286         1.04544
LJ          0.519368        0.976679       -0.640624
LJ           -4.9327         5.83047        -4.81971
LJ           1.26813       -0.419656         2.55872
LJ         -0.124502         3.79133        -2.02758
LJ           2.83314       -0.164746         0.61387
LJ           1.14062       -0.643845       -0.301316
LJ           1.25142        -1.43197         3.15799
LJ           1.35103         1.58762        -1.25746
LJ            1.0336         3.15311        -3.04087
LJ          0.816285         1.43842          2.5657
LJ           1.18005         1.59871        -6.06982
LJ           1.93075         1.28481         2.57777
LJ          0.340358        -1.23435        0.543992
LJ           1.57866         0.92411         0.86462
LJ         -0.468554       -0.625302         1.03648
LJ          0.635769       -0.148248         1.02197
LJ           1.73165       -0.151304        0.730619
LJ         -0.362202         1.38091       -0.113597
LJ           2.51367        -1.09707         5.26082
LJ           1.25833       -0.904806         1.60991
LJ           2.12338       -0.152563        -1.43119
LJ          0.719782        -1.60858       -0.414911
LJ           2.37823        0.188922         1.53972
LJ           2.68608        -2.11331         1.58282
LJ          0.845356         1.81265         1.50525
LJ          -1.29502      -0.0531621         1.06099
LJ         -0.958111        -2.81546         1.47938
LJ         -0.236351        0.917305        -1.68619
LJ          0.327689        0.134495          2.3478
LJ         -0.170832        -1.91815         2.44182
LJ          0.216011         2.45992      -0.0831246
LJ         -0.563063         1.19785        0.966711
LJ         -0.490533        0.699171         2.57308
LJ          0.136851        -1.07962        -2.48165
LJ         -0.279318        -1.62829        -1.30469
LJ            1.1166         1.43644        -4.17405
LJ         -0.580546         0.41557       -0.844583
LJ         0.0441861         2.81838         1.82102
LJ         -0.996002         -5.7017         3.77721
LJ           5.49702         3.31762        -6.18788
LJ         -0.928747          4.3479       -0.219103
LJ        -0.0730952       0.0463469        -2.43863
LJ          0.935564         2.71902        -1.54137
LJ            6.2953       -0.261981        -3.13249
LJ          0.232788         3.49621       -0.956391
LJ          -1.32409        -2.87442        0.332362
LJ           1.58917        -2.27998         1.19109
LJ          0.357924        -3.01149         1.88733
