108
#Comment!
LJ           4.14039       -0.914902         1.61924
LJ         -0.785948         3.18847       -0.762471
LJ          0.540364        -1.98582         1.40443
LJ         -0.825249         1.80605        -1.83659
LJ          0.505162        0.917197         3.27163
LJ          0.125588        -2.20858        -1.12253
LJ          0.117563        0.227014       -0.978454
LJ           1.22017        -1.68959        -1.49725
LJ           1.60413        -1.72044         2.80111
LJ          0.234438        -1.00992         1.87909
LJ        -0.0901635          1.8703         3.40433
LJ          0.277186        0.867441         1.47403
LJ         -0.380805       -0.437388       -0.277284
LJ           2.15354         4.12861       -0.675008
LJ          0.278381        -2.77083       -0.200038
LJ           -0.7461        -1.45213        0.115452
LJ          -6.15476         -1.3451        -5.01803
LJ          0.572952         1.14464        0.394052
LJ        -0.0538411         4.59348        -5.74658
LJ          0.417952        -0.64766        -1.50247
LJ          -1.27106        0.302044          4.4379
LJ           1.01941         1.53074        -1.92472
LJ           3.67699        0.463667       -0.561517
LJ          -3.43797        -1.58091        -1.87565
LJ           1.28515        -1.94272         5.52514
LJ          0.270927         1.98844        -1.34955
LJ         -0.672383       -0.368991        -1.41431
LJ         -0.117191         6.09755        -1.53589
LJ            1.9339         2.26561         1.84566
LJ          0.290997        -1.75155        0.288217
LJ           0.99635        -1.71673         3.74091
LJ           4.37382         1.98913         5.56119
LJ          0.318317        -3.49611        -1.34934
LJ           0.96599       -0.295633        -2.31802
LJ        -0.0087064         2.04339        0.875652
LJ           2.58715        0.672294       -0.853172
LJ           1.79097        -1.32512       -0.630683
LJ             1.356        -3.40169        -1.88978
LJ          0.872984        0.108165        0.563556
LJ           1.30495        0.509321        -1.74959
LJ          0.908739         1.89914       -0.488362
LJ         -0.914775       -0.934191         1.62777
LJ          0.154615        -2.84989        -2.13662
LJ         -0.111481        0.390723        0.656143
LJ           2.49181        -1.26085         3.01005
LJ          -6.45487        -4.64434        -4.40279
LJ           3.34565       -0.357076         2.17107
LJ           3.02007        -1.30833          1.7832
LJ           1.01568        -1.61346        -2.43562
LJ          -1.86303         1.39153         1.97168
LJ           1.35922        0.982779         2.13557
LJ        -0.0747607         2.27327        -2.90764
LJ           2.52862        -5.47782        -2.41493
LJ         -0.668692         1.79359         1.86914
LJ           2.42372       -0.512522         1.08949
LJ           2.76372       -0.425243        0.107993
LJ            1.8245      -0.0514971       -0.349035
LJ           1.16416        -2.33683       -0.657157
LJ          0.496055       -0.887023           3.088
LJ             3.865        -0.29775        0.457808
LJ           1.23831        0.822721        -0.65955
LJ          -3.92456         5.56997        -4.70141
LJ           2.04044       -0.666636          2.1256
LJ         -0.353838          2.8108        -1.93338
LJ           2.56676        0.743695        0.242261
LJ          0.790752       -0.294762       -0.407845
LJ           0.41008        -1.90771         2.85273
LJ            1.7754         1.71612        -1.22459
LJ          0.964338         3.38808        -2.79158
LJ          0.374713         1.58834         2.39092
LJ          0.558163         1.27862        -6.27144
LJ           2.08464         1.71958         2.72422
LJ          0.177593       -0.773935        0.654898
LJ           1.72218         1.54398       0.0888013
LJ          -0.96629       -0.568654        0.613167
LJ           1.15993       -0.226365         1.59903
LJ           1.65651       -0.844125        0.401797
LJ        0.00658001         1.34818       -0.622779
LJ           1.60099        -0.94461         4.52644
LJ           1.39475        -1.49702         1.66797
LJ           1.68166       -0.373275        -1.37186
LJ          0.618376        -1.30017       -0.584195
LJ           1.80095         0.44537        0.899802
LJ           2.25854        -2.01602          1.4302
LJ           1.00326         1.83863         1.53018
LJ          -1.37843        0.556094        0.506389
LJ           -1.0838        -2.83941         1.37827
LJ           0.11965        0.968962        -1.73014
LJ          0.380915        0.227747         2.32835
LJ         -0.485523        -1.91099         2.01678
LJ        -0.0536495          2.7345       -0.154535
LJ          -1.04393         1.52183        0.334742
LJ         -0.564123        0.847445         3.54125
LJ         0.0288606        -1.48708        -1.93736
LJ         -0.615336        -1.40518       -0.962819
LJ          0.962694         1.74936        -3.14737
LJ          -1.08735        0.537654       -0.506522
LJ          0.197733         2.56062         2.59929
LJ         -0.123433        -5.27606         3.17518
LJ            5.7132         2.70524        -5.91256
LJ         -0.381242         4.47468       0.0436082
LJ         -0.296469       -0.161594        -2.40162
LJ           1.16409         2.51642        -1.58158
LJ          -5.19205       -0.282666        -3.69884
LJ           1.05401         3.02562       -0.636057
LJ         -0.766797        -3.60694        0.504074
LJ           1.38922        -1.79816        0.460746
LJ         -0.370217        -3.02152         2.75625
