108
#Comment!
LJ         -0.152988        -1.97004      -0.0189502
LJ           6.44715         3.42612        -4.70995
LJ          -1.12873         3.06851       -0.699338
LJ          0.658643       -0.277139        -3.92527
LJ           1.04404        -1.86919       -0.729206
LJ          0.521307         1.94119        -1.14995
LJ           1.53268         -1.9897        0.185446
LJ           1.54518         -1.7315         1.67462
LJ           2.20136         -2.8605        0.223009
LJ           1.56051        0.422399       -0.998063
LJ         0.0328675         1.86764       0.0860546
LJ           1.68844       -0.152886         1.24275
LJ         -0.328473       -0.572449        -2.03055
LJ           1.86679       -0.239343         -1.7932
LJ         -0.803057         1.08359         1.54714
LJ         -0.917207         3.49083         1.36135
LJ          -1.00752          0.8789        -1.78138
LJ         -0.193436       -0.792186        0.294178
LJ          0.326265           2.846         1.20945
LJ        -0.0336547       -0.652811        -1.03675
LJ          0.754017        -2.04261        -1.85247
LJ          0.664894        -1.07759       -0.279766
LJ          -1.20079         1.20538        -2.84659
LJ          0.582651         5.73331        -5.25069
LJ          -6.18284        -3.63652        -1.72616
LJ        -0.0326646         2.43281          -2.042
LJ          -1.96527         2.38575        -1.53623
LJ           6.07186         2.34332       -0.816784
LJ           1.81817         3.40989        0.486143
LJ           2.80953         -6.0795         -2.6435
LJ          -1.61287         1.25774         2.25734
LJ          0.712179        0.056167        -1.95468
LJ         -0.106827        0.818756        -2.55937
LJ          0.889009       -0.814603        -1.53907
LJ         -0.299031        0.233263        0.944897
LJ         -0.109565        0.287725        -1.39701
LJ          -1.04538        -1.90644       -0.950288
LJ          -2.19149        0.460062        -1.63161
LJ         -0.863882          1.3459        0.354778
LJ           1.53723       -0.885409        0.429714
LJ         -0.643071        -1.64719         1.13409
LJ         -0.691546        -2.57084         1.68177
LJ          -1.95373        -1.13693       -0.468058
LJ          -1.26825       -0.745268           1.519
LJ          0.494928         -2.0713         1.43279
LJ           6.19943         3.47461        0.802218
LJ          0.821941        -2.88257       -0.312792
LJ           2.44393         -1.6815         1.02212
LJ          -0.89787       -0.937019       -0.535521
LJ         -0.878694         1.91111        -1.10739
LJ        -0.0520227       -0.590745         1.56004
LJ          -1.22904        0.790982       -0.661533
LJ        -0.0869664        -1.93501        -1.22263
LJ        -0.0873953         1.12446       -0.675225
LJ          0.739951        0.936321        0.839092
LJ           1.96384       0.0228541        0.187059
LJ           1.67264       -0.735448       -0.743626
LJ          0.668718       0.0401712       -0.709535
LJ           1.72639        -1.42561        -1.92259
LJ           2.57175       -0.214527       -0.818553
LJ          -1.19191       -0.217749        -1.33698
LJ          -4.55651         1.99527       -0.366753
LJ          -1.76093         1.35067         1.15599
LJ          -2.66817       -0.734989        -1.77159
LJ         -0.563158         1.85828         2.25411
LJ         -0.450417       0.0228564       -0.330036
LJ         -0.370955        0.247867         2.00036
LJ          0.941511         2.38948        0.245004
LJ           2.53321        -6.39639        -4.52761
LJ          0.601852        0.320099          1.6758
LJ          -3.14273        -4.42733         5.41556
LJ          -4.35301         3.72628         5.97576
LJ          0.587206        -1.17307        0.950125
LJ          0.913922         1.35488       -0.333999
LJ          -1.98706       0.0452159         2.24272
LJ         -0.489287        0.838171         2.82531
LJ          -1.61725        -1.77673         1.66323
LJ          -1.27395        -1.65648        0.147833
LJ           1.65808        0.366996         5.93101
LJ           5.51213        -1.45308         2.44459
LJ          0.612122       -0.228672        0.523275
LJ            2.8094       -0.980519      -0.0546632
LJ         -0.369245        -1.47227         2.11325
LJ          0.897552       -0.570762         1.89376
LJ          -2.79687         1.68551         2.05918
LJ          -1.40118        0.266558         1.30388
LJ           1.45537       -0.966825         2.89359
LJ          0.058364         4.39678         1.06957
LJ          0.350267        -0.71298         2.79138
LJ         -0.828314        -0.57784         2.46526
LJ         -0.673449         2.37234        0.885351
LJ          0.565425        0.527773         2.84831
LJ          0.193187        -2.27667         2.76996
LJ          -4.44746        -2.35595          5.5021
LJ           6.04066        -3.96372        -1.00625
LJ           6.42356         3.63441        -2.65904
LJ           -1.1095       -0.277518        0.488493
LJ         0.0714495          1.6676         1.20971
LJ           1.39053         3.41152         1.51887
LJ           2.80902        -2.15023        -1.96139
LJ           4.80336         3.25991        -3.00631
LJ          -3.73969        0.379593        -1.66802
LJ         -0.331209         6.28583        -3.75563
LJ           6.01411         4.00846         2.16761
LJ           2.05703         1.30282       -0.340942
LJ          -1.81588      -0.0602796       -0.366264
LJ          -3.81034        -2.90368        -2.29531
LJ           2.16163        -5.08952        -2.58563
