108
#Comment!
LJ          -3.74477        -3.74234        -3.74392
LJ         -0.339728       -0.341093        -3.98274
LJ          -3.98388        -0.33939       -0.339019
LJ         -0.337677         -3.9822       -0.340389
LJ         -0.705738        -3.00153        -3.00352
LJ          0.785819       -0.397127        -3.12976
LJ          0.284973        -1.15412        -1.15442
LJ          0.785642        -3.13122       -0.396573
LJ           1.19679        -2.17233        -2.17248
LJ           1.60281        0.283396       -0.515626
LJ           -2.3817         5.03663         5.03663
LJ           1.60247       -0.516076        0.283375
LJ          -3.00805       -0.706743        -3.00743
LJ          -0.39581        0.786202        -3.13144
LJ          -3.13046        0.786511       -0.396479
LJ          -1.15692        0.283886        -1.15668
LJ         -0.967871       -0.968518          -2.811
LJ          -0.25998       -0.259172        -1.07432
LJ          -1.82339       0.0258757        -2.61232
LJ         0.0295816         -1.8242        -2.61045
LJ           2.01602       -0.348432        -2.27954
LJ           1.04313        -1.07541         -2.0115
LJ        -0.0362422       -0.777711        -2.29187
LJ           4.61888        -2.35633        -3.58744
LJ          -2.17254         1.19864        -2.17033
LJ          0.282956          1.6013       -0.518257
LJ         -0.516896         1.60107        0.280246
LJ           5.03662         -2.3817         5.03662
LJ         -0.347268         2.01561         -2.2814
LJ           -1.0749           1.044        -2.00822
LJ           -2.3565         4.61918        -3.58751
LJ         -0.778509      -0.0366962        -2.29138
LJ          0.326573        0.326333        -2.48793
LJ          0.706621        0.706555         -3.5297
LJ          0.287823         2.35768        -1.31859
LJ           2.35323        0.286654        -1.31982
LJ          -3.00796        -3.00494       -0.706431
LJ           -1.1565         -1.1555        0.284417
LJ          -3.13044       -0.397637        0.785605
LJ         -0.396664        -3.13222        0.785755
LJ         -0.968086        -2.81044       -0.968242
LJ         0.0285942        -2.61121        -1.82284
LJ          -1.82206        -2.61123       0.0250099
LJ         -0.261582        -1.07373       -0.260028
LJ           2.01489        -2.27752       -0.348072
LJ           4.61898        -3.58762        -2.35669
LJ        -0.0362438        -2.29139       -0.777786
LJ            1.0434        -2.01187        -1.07484
LJ          -2.81393       -0.968388       -0.967547
LJ          -2.61004       0.0262137         -1.8223
LJ          -1.07243         -0.2605       -0.260411
LJ          -2.60945        -1.82216       0.0277846
LJ          -2.15107        -2.15586        -2.15273
LJ          0.665147        0.662608        -0.81092
LJ         -0.811968        0.664589        0.665111
LJ          0.664888        -0.81304        0.662313
LJ          0.646075       -0.321757       -0.320711
LJ          0.958087       -0.164377        -1.52108
LJ            1.3518        -0.96341       -0.963457
LJ          0.956328        -1.52038        -0.16436
LJ          -2.28366         2.01772       -0.347195
LJ          -3.58744         4.61901        -2.35641
LJ          -2.00838         1.04353        -1.07441
LJ          -2.29239      -0.0372643       -0.779316
LJ         -0.320245        0.648985       -0.320782
LJ          -0.16269        0.958083        -1.51899
LJ          -1.52137        0.958172       -0.162336
LJ         -0.961428         1.35169        -0.96059
LJ            2.5754          2.5753         1.74667
LJ           2.75841          2.7587        0.638067
LJ         -0.173411         2.68758        -4.59933
LJ           2.68743       -0.173433        -4.59938
LJ          -2.17307        -2.17211         1.19796
LJ           5.03662         5.03662         -2.3817
LJ         -0.515952        0.281032         1.60147
LJ            0.2852       -0.516677         1.60195
LJ          -0.34685        -2.27963         2.01513
LJ         -0.777998         -2.2903      -0.0366851
LJ          -2.35668        -3.58768         4.61921
LJ          -1.07495        -2.00957         1.04482
LJ          0.326216        -2.48882        0.326881
LJ           2.35421        -1.31892        0.288115
LJ          0.287578        -1.31804         2.35576
LJ          0.706971         -3.5302        0.707294
LJ          -2.28262        -0.34865         2.01721
LJ          -2.29282        -0.77805      -0.0371457
LJ           -2.0101        -1.07569         1.04289
LJ          -3.58736         -2.3563         4.61879
LJ         -0.319365       -0.320923        0.647376
LJ         -0.962593        -0.96091         1.35104
LJ          -1.52208       -0.163434         0.95835
LJ         -0.163643        -1.51854        0.957808
LJ           2.57497         1.74666         2.57517
LJ           2.68782        -4.59969       -0.173598
LJ         -0.173598        -4.59956         2.68766
LJ           2.75816        0.637702         2.75828
LJ          -2.48822        0.325607        0.325938
LJ           -1.3182         2.35532        0.287118
LJ          -3.52927         0.70651        0.706297
LJ          -1.31854        0.287809         2.35398
LJ           1.74678         2.57513         2.57543
LJ           -4.5985         2.68699       -0.173701
LJ          0.637964         2.75865         2.75838
LJ           -4.5991       -0.173492         2.68758
LJ          -5.88311        -5.88311        -5.88311
LJ           1.32279         1.32092        -1.24743
LJ           -1.2498         1.32214         1.32286
LJ            1.3249        -1.24738         1.32114
