108
#Comment!
LJ          -2.18197        -1.73028        -0.45495
LJ          -4.47656        -4.73169         6.22594
LJ          -5.41596        -4.74094        -3.97428
LJ           -5.3698        -5.84699        -4.31024
LJ           1.61681          -2.892       -0.660026
LJ         -0.561629        0.777948        -2.62392
LJ           1.00678        -1.72083       -0.972799
LJ          0.564064        -2.41822       -0.287472
LJ       -0.00550174        -1.50799        -2.00814
LJ           1.72849        0.352506       0.0355412
LJ           4.28202         2.98496         3.28195
LJ           1.69924        -1.39329         1.41933
LJ          -1.63637        -1.17948        -2.50601
LJ        -0.0805884         2.55824        -1.72795
LJ          -2.00172        0.731005        0.139222
LJ         -0.833229          1.8071       -0.772281
LJ          -1.50141     0.000268047         -1.4218
LJ          0.470155        0.129305      -0.0114628
LJ          -2.06493         1.55058        -2.67404
LJ         -0.914965       -0.903803        -1.13809
LJ           1.08273        -1.52449        -2.61755
LJ           1.18309       -0.949671        -1.66306
LJ          0.016588       -0.588624        -1.23192
LJ           4.56351         -2.4193         5.74476
LJ         -0.720689          2.0889        -6.41238
LJ           1.02533         1.83372        -1.99234
LJ          0.454872         2.26706       -0.939347
LJ           4.89554        -2.38996         4.31648
LJ          -0.49894         1.86661        -2.35346
LJ          -1.28826         2.35199        -1.65458
LJ          -2.42042         4.32623          5.8784
LJ         -0.340589        0.381259        -1.53233
LJ          0.359136         1.07968        -3.20423
LJ          0.385849         0.89422        -2.17454
LJ         -0.101865         1.43323        -1.38902
LJ         -0.190055       -0.488306        -2.40722
LJ          -1.04634        -1.98125        -1.14234
LJ          -2.06307        -0.75562         1.72471
LJ           -2.3536        0.672779         1.47319
LJ          0.564515        -2.42825        0.916647
LJ             -1.08        -1.19072       -0.162021
LJ        -0.0163236        -2.63205        -1.38376
LJ          -1.22147        -1.73174        0.732289
LJ        -0.0229546       -0.723683        0.258349
LJ          0.749118        -3.49743       -0.474656
LJ           6.03619         4.54676        -2.41941
LJ        -0.0825915        -1.57805       -0.737394
LJ            1.9715       -0.760868       -0.366756
LJ          -1.22547        0.834609       -0.713678
LJ          -1.10434         1.19481         -1.6573
LJ          0.215551       0.0544877         1.33255
LJ          -2.07715        -1.21638        0.600393
LJ         -0.653622       -0.136141       -0.514101
LJ           1.00504        0.903194       -0.836188
LJ           1.20632        0.416529        0.906378
LJ          0.903615       -0.541728         0.90967
LJ          0.856094       -0.723064       -0.602245
LJ           0.76307        0.100824        -1.57284
LJ           1.89081       -0.104851         -1.6613
LJ          0.726321        -1.49798       0.0989575
LJ          -1.97121        -1.18859        -1.28622
LJ           5.25861         5.08706         6.44436
LJ          -2.11456        0.723185        -1.30898
LJ          -1.85112       -0.368908       -0.426704
LJ           1.21015         1.26749        0.243367
LJ           0.09244         1.04309       -0.324233
LJ         -0.372793         0.42616        0.445517
LJ          -1.15373          1.3565        0.393692
LJ           3.45088         5.33815         2.05871
LJ           4.13779          4.1526         3.69306
LJ          -3.83484         3.16462         5.45676
LJ           2.82515        -3.90583         5.53712
LJ          -1.24602        -2.49033       -0.146453
LJ           3.20277         2.47254         3.14279
LJ         -0.659988          0.8292         1.35745
LJ           0.63779       -0.615548         2.04701
LJ          -1.20577         -3.2392         1.21225
LJ         -0.616064       -0.954288         1.32987
LJ          -2.03564         5.92917         4.97919
LJ          -2.12313        -2.24584         1.35743
LJ         -0.264321        -1.87825        0.293781
LJ           1.76801        -1.40661        0.375079
LJ         -0.392336        -2.03537         1.80959
LJ          0.389706        -1.33007         1.11773
LJ          -2.30427       -0.181167        0.609563
LJ           -1.2003       -0.342478        0.464563
LJ          -2.42578        -3.33719         1.32554
LJ           5.87303         -2.3271         4.58948
LJ         -0.363172       -0.385543         2.45009
LJ          -1.37572        -1.49611         2.00802
LJ         0.0927831         1.50251        0.548898
LJ         0.0113133       -0.956919         3.28768
LJ          0.642681        -1.86178         2.13376
LJ           2.99506         5.36988        -4.01199
LJ          -3.90897         5.40194         3.09563
LJ           5.90503         2.53816         6.33648
LJ          -1.32991       0.0938316          1.8198
LJ          -1.90894         1.70709       -0.449077
LJ         -0.200952         2.27747      -0.0261393
LJ          -2.04536        -3.02363         0.20603
LJ           2.80835         5.44703         4.80218
LJ            5.5785         3.28612        -3.63995
LJ            3.3388         4.44148         4.37553
LJ           5.21094        -4.00652         3.40963
LJ           2.87909         3.57511         3.66378
LJ          -4.54824        -4.47363        -1.78261
LJ          -4.81016        -4.55331        -5.30387
LJ          -2.25228        -4.50263        -4.03403
