108
#Comment!
LJ           1.56546       -0.834366         1.12516
LJ           2.90607        -1.48234         1.70304
LJ          -1.50227       -0.353404         2.84211
LJ          -3.09761         2.67553         1.83547
LJ           2.90331         -1.5238         0.15782
LJ           1.84304          1.1319        -1.66728
LJ           2.26319        0.383281          1.4196
LJ           2.57379       0.0812261       -0.963251
LJ           1.64764        -1.87857        0.526705
LJ           2.15689        -1.36626       -0.613265
LJ          -1.63326         3.54705        0.499084
LJ           1.26878        0.955019         2.63427
LJ         -0.506941         -2.1587       0.0445052
LJ           3.24473       -0.704765       -0.513931
LJ         -0.605142         1.11514         3.46118
LJ         -0.266557        0.890647         1.80444
LJ          0.823391        -1.30538        -2.35772
LJ          0.590488        0.997867        0.343127
LJ         -0.605371          1.8051         2.27124
LJ         -0.721992       -0.695851       -0.521946
LJ           1.16488        -3.88806        0.587237
LJ           1.34631        0.615947       -0.577989
LJ           1.71541       -0.240425        -1.88442
LJ           5.61373         4.50612         2.78579
LJ          -4.14109        -4.91933          5.4555
LJ          -1.80248           3.377       -0.745194
LJ           -3.3749         5.72214       -0.536163
LJ         -0.956158        -6.29209         4.46511
LJ          0.339589         2.05786         1.91157
LJ          -3.44918        0.556814         1.41371
LJ         -0.934058         0.71013        0.949332
LJ          -2.02935         -3.9444         5.22568
LJ         -0.252158        -0.99354        -1.37843
LJ           1.11749        -1.24714        -1.25022
LJ          -1.00048         2.67419        0.232718
LJ          0.387042        -1.55211       -0.355708
LJ         -0.704114        -1.99196       -0.995111
LJ          0.103493       -0.242989        -1.92246
LJ          -1.94242        0.484511         2.03705
LJ           2.35053        0.963925       -0.232573
LJ           1.60059         1.34972        0.498702
LJ          0.989026        -2.79062        0.287502
LJ          -1.82193       -0.745727       -0.634535
LJ          -1.29296        -1.38599        0.283024
LJ           1.19458       0.0522819         1.91992
LJ           2.08773        -3.95627         3.03441
LJ           1.35848        -2.16077       -0.533398
LJ           2.29419      -0.0569026        0.173531
LJ          -1.20624       -0.052612        0.143145
LJ          -1.73378         1.64252         1.93212
LJ          -1.95418        0.412876         3.40849
LJ          -1.34655        0.541586       -0.615065
LJ          -1.31953         -2.5253        0.942828
LJ           -1.4025         2.63115        -1.50269
LJ           1.09544         1.13113         1.51874
LJ            2.4031          1.7571         1.78173
LJ           1.24406       -0.575173        0.118779
LJ         -0.447752        0.268887        -1.19343
LJ           2.36203         -2.4908       -0.439762
LJ           3.44648        0.756724       -0.426771
LJ         -0.712448         1.28365        -1.24796
LJ          -5.62068         2.59537        -3.20292
LJ         -0.762874       -0.617364         1.02166
LJ           -1.1108       -0.501702         -1.4758
LJ         0.0551467         2.00765       -0.238005
LJ           0.53984         1.48906        -1.87758
LJ          0.703542       -0.792543         2.64502
LJ           0.96271         2.30259        0.368269
LJ          -4.93947        -5.97804         5.91085
LJ         -0.930676         1.89657         1.23126
LJ          -4.91421        -2.43337         5.71957
LJ           2.53465       -0.552201         2.16295
LJ           1.26711        0.224733        0.830355
LJ          0.230604         1.68098        0.905156
LJ          -2.41378          1.3106         2.81596
LJ         -0.262715       -0.174053         3.41645
LJ        0.00971774       -0.886427        0.450869
LJ        -0.0556434         0.27934       0.0383579
LJ           1.14275        -6.08897         5.75593
LJ          0.341044        -1.96827        0.629259
LJ          0.292034         1.00479       -0.728761
LJ          0.425444       -0.461615       -0.889914
LJ         -0.199262       -0.698203         1.96778
LJ         0.0519688        0.125817         1.12676
LJ          0.266992         1.28562         2.75934
LJ          -1.82902         1.36475        0.813838
LJ           1.16758       -0.101077         3.35305
LJ           1.92845         2.38943         -1.6035
LJ           0.33967        0.313291         2.41074
LJ         -0.593921       -0.998878         2.90769
LJ          -2.27101         2.43314         1.02445
LJ          0.243737         2.49162         2.89813
LJ          0.789236        -1.87807         1.60462
LJ           2.82649         5.65128      -0.0479944
LJ          -4.69201         4.35521         4.10874
LJ          -1.12465        -4.71403       -0.253966
LJ         -0.504915         1.12896        0.137916
LJ           1.30829          1.6748       -0.846833
LJ           1.58761       -0.499308       -0.774854
LJ           3.79703       -0.827883        -5.26045
LJ           2.80219         2.53776         1.20785
LJ          -1.35442         1.73267       -0.181638
LJ           4.29904       -0.211948         2.26406
LJ          -4.27551       -0.140313         4.85816
LJ          0.887735        0.367256        -1.39504
LJ          0.484758        -2.31583        -1.57171
LJ          -1.11022       -0.517915         5.58764
LJ          -1.09384         4.45468         5.70072
