108
#Comment!
LJ          0.279062        -1.45343       -0.277641
LJ           5.11306         1.59832         6.22402
LJ          -1.68049         1.05243      -0.0922447
LJ        -0.0836614        -3.20067        -3.09004
LJ            1.1391        -2.18661       -0.804142
LJ       -0.00204321         2.71237       -0.343453
LJ           1.25948        -1.39981        0.706192
LJ           2.01981        -2.00185         1.16969
LJ           1.41386        -2.34242        0.189369
LJ           1.40463       0.0556219        -1.81344
LJ         -0.742734         1.42445        0.061913
LJ           1.63446        0.412319         1.82615
LJ       -0.00546865        -1.25762        -2.06004
LJ           2.24255        -1.01774        -1.69638
LJ          -1.07742         1.53258         2.62976
LJ          0.351709         4.12375         1.91612
LJ         -0.472764        0.939025        -2.18985
LJ         -0.144185       -0.497075        0.340005
LJ         -0.917614         1.50672         1.33077
LJ           -0.2098       -0.733033       -0.835301
LJ          0.379772        -2.08175        -1.47736
LJ          0.790783        -0.56597       0.0447946
LJ         -0.441847         1.90468        -2.88786
LJ           1.95299         5.95563        -3.09596
LJ           4.38814       -0.773133        -3.49936
LJ         -0.623202         3.83296        -0.46281
LJ           -1.5324         2.77567       -0.371576
LJ          -5.38458         3.20631        -2.56465
LJ           2.05451         2.19028         1.40452
LJ            4.4811         5.54631        -5.08529
LJ          -1.19626        0.428597         2.81012
LJ           1.07252        -1.02621        -2.48222
LJ          0.610667        0.843877        -1.54036
LJ          0.950787          -1.072        -1.16436
LJ          -0.46984        0.461341        0.733834
LJ         -0.141625      -0.0822531        -1.68224
LJ           -0.5459        -1.73695       -0.957344
LJ          -1.51833        0.853597        -2.05488
LJ          -1.69312        0.835972        0.966808
LJ           1.64831       0.0118819        0.783107
LJ          0.161064        -1.46537        0.893431
LJ          0.225553         -2.2319          1.8486
LJ          -1.61604        -1.76063       -0.499297
LJ         -0.695865        -0.35153         1.35556
LJ          0.661553        -1.16031          1.9644
LJ           5.73483        -0.32485       -0.109655
LJ          0.894563        -2.97501        0.957963
LJ           2.39502        -1.03909        0.559149
LJ          -1.13924       -0.531939       -0.418896
LJ          -1.41537          1.8122       -0.854708
LJ       -0.00781586       -0.262342         2.11772
LJ          -1.29669        0.631433        -1.07009
LJ          0.366623        -2.40449        0.129202
LJ         -0.275294         1.27448       -0.964867
LJ           1.34026         1.04611        0.977535
LJ           1.54259        0.189535       -0.493367
LJ           1.70971        -1.36198       -0.233358
LJ           0.67544     -0.00915299        -0.94088
LJ           1.39329        -2.12068        -2.01312
LJ           2.49967       -0.191254        -2.32415
LJ          -1.12276       -0.374477         -1.4069
LJ          -3.66553         1.25147        -1.81716
LJ          -2.67122        0.752917        0.601535
LJ          -2.11665        -1.95372        -1.61578
LJ        -0.0445914         1.98068         2.14902
LJ         -0.401277        0.302821       -0.571903
LJ         -0.642202        0.652741         1.82488
LJ          0.747415         2.27686          1.3422
LJ           3.18573        -5.93758        -2.15465
LJ           0.21046         1.28867         1.22375
LJ           -3.6602         5.57629         5.36379
LJ           6.38853         2.38505           4.734
LJ          0.620583       -0.325955         1.20206
LJ         -0.242019         2.14141        0.757909
LJ          -2.37941         2.09272         2.13683
LJ          0.544075         0.14569         2.90359
LJ         -0.878263        -2.57894         1.46027
LJ          -1.13811        -1.55691        0.900407
LJ           1.89776        -0.97021         6.39836
LJ           3.79109        -1.10441         2.55741
LJ          0.688426        0.523137         0.40691
LJ           2.44496       -0.415799       -0.500089
LJ         -0.455063        -1.23808         1.88127
LJ           1.21632       -0.439612         2.36581
LJ          -1.05802         2.37026         2.04991
LJ          -1.85763        0.262336         1.86766
LJ           1.45693         1.49877         1.91517
LJ           2.31896         3.18702       -0.219946
LJ         -0.584062       -0.455987          3.2637
LJ           -1.5304       -0.647397         2.70364
LJ          -1.84094         1.94143        0.734207
LJ          0.425143        0.899982         2.12481
LJ           1.24068        -2.37276         1.75137
LJ          -4.97986       -0.268855         4.54026
LJ            5.9599        -3.27869        -1.16351
LJ          -5.77124         4.51511        -2.02646
LJ          -1.39611       -0.140396        0.519851
LJ          0.390948         1.58788        0.162581
LJ            1.1893         2.37692        0.172403
LJ           3.03779        -2.38776        -3.68417
LJ           4.29326         3.09613        -4.84822
LJ          -2.52631         1.30022        -1.59566
LJ          -1.93903        -5.30758        -5.53355
LJ           5.98888         2.63596         2.77453
LJ          0.988047         1.54309       -0.671645
LJ          -2.14954       -0.167577       -0.914012
LJ          -5.98732        0.700006       -0.572808
LJ            4.8712        -5.51234          2.4067
