108
#Comment!
LJ          0.817482        -1.37763        0.349084
LJ           3.42403        -1.03581         3.41671
LJ          -2.66672        0.870823        0.805505
LJ         -0.732995         -6.4149       -0.687669
LJ           1.62595        -2.00789     -0.00579275
LJ           1.28041         1.86704        -1.17944
LJ           1.80867      -0.0156533          1.3805
LJ           2.79816       -0.437108        0.943172
LJ           2.28854        -1.46314         1.35518
LJ          0.795286       -0.720584         -2.3743
LJ          -1.05164         2.75989        0.135989
LJ           2.26093        0.899436         1.68862
LJ         -0.702254        -2.86897        -0.86056
LJ           2.53799       -0.657801        -1.53931
LJ          -2.54334        0.890447         3.25713
LJ          0.409117         2.10235         1.57952
LJ          0.623516        0.309865        -1.83968
LJ         -0.218814       -0.149364        0.377312
LJ         -0.823826         1.47422          1.5081
LJ         -0.675163       -0.928969        -0.73536
LJ          0.998836        -2.26154       -0.840411
LJ           1.65504       0.0757407       -0.127705
LJ           0.99812         1.35893        -2.15803
LJ           3.66333         5.63244       -0.693154
LJ          0.790581         2.91968         -5.6999
LJ           -2.0256         3.17903        0.720746
LJ          -3.28223         3.82458        0.288308
LJ          -3.45598         4.57458        -4.54957
LJ           1.59345         1.76952         2.15941
LJ           6.27276         3.47281           4.459
LJ         -0.864374        0.368415           1.334
LJ          0.527265        -1.49486        -3.04471
LJ        -0.0578399       -0.424503        -1.53551
LJ          0.696882        -1.15603        -1.19329
LJ          -1.30243         1.78072         0.62339
LJ         -0.187706         -1.8583        -1.15062
LJ         -0.811093        -1.96362       -0.224281
LJ       -0.00530401         1.27964        -1.56378
LJ          -1.87479         1.12302          1.5951
LJ           1.92945        0.905161        0.655041
LJ           1.91939       -0.889612        0.499182
LJ           1.32453        -2.23595         1.36224
LJ          -1.61611        -1.29149        0.481561
LJ          -1.19156       -0.677157         1.19741
LJ           0.58911        -1.26383         2.56691
LJ           4.70872         -2.8716        0.508354
LJ          0.411485            -2.6        0.284081
LJ           2.63935       -0.554445        -0.44627
LJ          -1.40284       -0.284297       -0.273548
LJ          -2.38265         2.08963        0.764564
LJ         -0.369847       -0.856175         2.06098
LJ          -1.32801        0.795316       -0.580351
LJ         -0.496147        -3.65267       0.0386629
LJ         -0.658721         1.64755        -0.31572
LJ           1.19028         1.58812        0.943478
LJ           1.62871         1.02551       -0.496394
LJ           1.60889        -1.03483       -0.615901
LJ          0.470057       -0.180899       -0.445133
LJ            1.8557        -1.43752        -1.77804
LJ           2.91453        -0.80869         -2.5797
LJ          -1.33235       -0.204751        -1.32934
LJ          -1.40714         1.41121         -2.4059
LJ          -2.48433        0.234795       -0.303677
LJ          -1.94506         -1.0496        -1.65618
LJ         -0.228343         1.90065        0.729066
LJ         -0.243968        0.678313       -0.697264
LJ         -0.734745         1.00815         2.97956
LJ           1.08732         2.68637        0.312747
LJ           5.41419        -5.03362         1.42629
LJ          0.348589        0.905843         1.32292
LJ          -4.39308         1.49586         5.28144
LJ           2.83569        0.663311          2.7306
LJ           1.01009       0.0364756        0.744033
LJ         -0.598175          2.9365         1.07554
LJ          -1.62329         2.36562         1.68787
LJ         -0.211036         2.02196         3.72883
LJ          0.107603        -2.24691         1.49563
LJ         -0.420044        -1.52321        0.803154
LJ           1.99083        -3.02728        -6.17211
LJ           2.50228        -1.69394         2.41207
LJ          0.388739        0.861284        0.232373
LJ           1.24554       -0.187069        -1.14795
LJ          0.245297       -0.820357         1.17951
LJ           1.12695        0.863924         1.94721
LJ         -0.693054         2.39117         2.05487
LJ          -1.61962        0.395521        0.627339
LJ          -0.04061         1.41575         2.26338
LJ            2.4209         1.55292        -1.60156
LJ          0.283444       0.0279558         2.54991
LJ         -0.946533        -1.71542         1.81248
LJ          -2.80992         2.10633         1.91556
LJ          0.762705           1.068         3.22638
LJ            1.3551       -0.978692         1.69935
LJ          -6.41315         2.60066         3.10437
LJ          -6.30899        -4.66311        -3.69139
LJ          -4.62922         5.48817        -1.50361
LJ         -0.632654        0.983693        0.601921
LJ          0.367533         1.92502       -0.132055
LJ           1.59135        0.769491        -1.63764
LJ           3.00312        -1.88532        -5.05618
LJ           3.77003         2.99627         5.37801
LJ          -1.59881         2.07722       -0.438277
LJ          -4.74116        -3.19446         5.22845
LJ          -6.19764        0.727047          3.9655
LJ           0.78438        0.795495       -0.969164
LJ          -1.44086        -2.13599        -1.79199
LJ           3.57721         5.56631         2.05699
LJ          -4.39033        -5.91628        -3.52768
