108
#Comment!
LJ          -3.88546        -3.85482        -3.87472
LJ         -0.952325       -0.939834        -4.32483
LJ          -4.32114       -0.920145       -0.936567
LJ         -0.938476        -4.33162       -0.941779
LJ          -1.43913        -2.19124          -2.194
LJ          0.474949       -0.607317        -2.58781
LJ          0.466839       -0.970304       -0.981504
LJ          0.482319        -2.59588       -0.604216
LJ           1.48214         -1.9534        -1.97065
LJ           1.73454        0.242852       -0.921092
LJ          -5.25139         4.99803         4.99804
LJ           1.73601       -0.940196        0.238264
LJ          -2.22588        -1.45264        -2.23346
LJ         -0.588286        0.502889         -2.5671
LJ          -2.57196        0.499745       -0.598497
LJ         -0.980433        0.452028       -0.960451
LJ         -0.828779       -0.850424        -2.61947
LJ        -0.0871394       -0.101248       -0.904821
LJ          -1.68439        0.354897        -2.58487
LJ          0.375464        -1.70578        -2.53824
LJ           2.30244       -0.793602        -2.46119
LJ           1.13115       -0.995494        -1.87841
LJ         -0.223127        -1.17671        -1.86987
LJ           5.55035        -3.30503        -4.29864
LJ          -1.96832         1.49155        -1.94237
LJ          0.227814         1.75982         -0.9597
LJ         -0.943463         1.75115        0.238701
LJ           4.99802        -5.25137         4.99802
LJ          -0.81625          2.3003        -2.46921
LJ          -1.02084         1.08211        -1.81305
LJ          -3.30522         5.55079         -4.2987
LJ          -1.18551       -0.213283        -1.86447
LJ        -0.0717269      -0.0951295        -1.95498
LJ          0.579713        0.584224        -2.61696
LJ          0.169814         1.71429        -2.29463
LJ           1.68843        0.157239        -2.31918
LJ          -2.20855        -2.21598        -1.45527
LJ         -0.974334       -0.964809        0.482428
LJ          -2.58138       -0.609529        0.479965
LJ         -0.603208        -2.57035        0.504931
LJ         -0.827274        -2.62546       -0.838647
LJ          0.345953        -2.55391        -1.69107
LJ          -1.68299        -2.59246        0.318024
LJ         -0.107749       -0.934613       -0.106751
LJ           2.27744        -2.45561       -0.782907
LJ           5.55047        -4.29881         -3.3055
LJ         -0.226208        -1.85448         -1.1767
LJ           1.08816        -1.86249        -1.01859
LJ           -2.6217       -0.843005       -0.828937
LJ          -2.53564         0.41626        -1.69949
LJ         -0.912919       -0.103111      -0.0828391
LJ          -2.50449        -1.70677        0.426085
LJ          -1.40993        -1.47933        -1.43578
LJ          0.922242        0.967127       -0.635476
LJ          -0.56704        0.928386        0.915513
LJ          0.918928       -0.650603        0.958192
LJ          0.950836       -0.338096       -0.331358
LJ          0.830583      -0.0223157        -1.42702
LJ            1.6474       -0.922281       -0.933441
LJ          0.823155        -1.44542      -0.0442074
LJ          -2.48209         2.33749       -0.818069
LJ          -4.29862         5.55057         -3.3051
LJ          -1.83037         1.12062       -0.989921
LJ          -1.86989       -0.224285        -1.19583
LJ         -0.319031        0.935332       -0.331492
LJ        -0.0435298        0.804429        -1.43231
LJ          -1.42711        0.799877     -0.00893045
LJ         -0.926658         1.66613       -0.922223
LJ           3.11292         3.11246         2.21655
LJ           3.57706          3.5773         1.38781
LJ          -0.96241         3.07662        -5.55376
LJ           3.07628         -0.9624        -5.55394
LJ          -1.98564        -1.93164          1.4736
LJ           4.99803         4.99803        -5.25138
LJ         -0.931909        0.242681         1.74116
LJ          0.233323       -0.952521         1.75567
LJ         -0.818116        -2.46301         2.28332
LJ          -1.17104        -1.86108       -0.213558
LJ          -3.30545        -4.29891         5.55079
LJ          -1.02921        -1.82438         1.09113
LJ        -0.0732209        -1.98015      -0.0891166
LJ           1.68496        -2.30303        0.175368
LJ          0.166516         -2.3079         1.70931
LJ          0.586563        -2.60892        0.581389
LJ          -2.45859       -0.811928         2.32978
LJ          -1.86445         -1.1942       -0.232548
LJ          -1.85077       -0.978156         1.12973
LJ          -4.29856        -3.30498         5.55027
LJ         -0.312953       -0.333646        0.945777
LJ         -0.929012       -0.920151         1.67514
LJ          -1.42777       0.0043723        0.809849
LJ        -0.0403874        -1.44156        0.809164
LJ           3.11221         2.21596          3.1123
LJ            3.0772        -5.55482       -0.962677
LJ         -0.962681        -5.55429         3.07675
LJ           3.57611         1.38778         3.57623
LJ          -1.95113       -0.102464      -0.0890438
LJ          -2.30907         1.70274        0.136127
LJ          -2.60627        0.581263        0.578505
LJ           -2.3306        0.139052         1.68598
LJ           2.21633         3.11243         3.11294
LJ          -5.55161         3.07504       -0.962945
LJ             1.388         3.57728         3.57715
LJ          -5.55323       -0.962558          3.0765
LJ           6.44361          6.4212         6.43576
LJ           2.64088         2.62419       -0.624235
LJ         -0.642166         2.64263         2.65271
LJ           2.65455       -0.603787         2.60501
