108
#Comment!
LJ          -1.96951        -1.96951        -1.96951
LJ          -1.44616        -1.44616        -2.81183
LJ          -2.81183        -1.44616        -1.44616
LJ          -1.44616        -2.81183        -1.44616
LJ          -1.15277        -2.41262        -2.41262
LJ         -0.588914        -3.31573        -4.04248
LJ         -0.748046        -1.75225        -1.75225
LJ         -0.588914        -4.04248        -3.31573
LJ          0.268729        -2.16097        -2.16097
LJ           1.54006         -1.3093        -2.59273
LJ           2.45306        -4.35467        -4.35467
LJ           1.54006        -2.59273         -1.3093
LJ          -2.41262        -1.15277        -2.41262
LJ          -3.31573       -0.588914        -4.04248
LJ          -4.04248       -0.588914        -3.31573
LJ          -1.75225       -0.748046        -1.75225
LJ         -0.724346       -0.724346        -1.73388
LJ         0.0974892       0.0974892        -1.39648
LJ           -1.3783       -0.331235        -2.68377
LJ         -0.331235         -1.3783        -2.68377
LJ           2.18779       -0.487329        -4.00725
LJ           1.70208        0.879829        -2.88476
LJ          0.335513       -0.934847        -1.86683
LJ           2.91707       -0.434327        -3.27709
LJ          -2.16097        0.268729        -2.16097
LJ           -1.3093         1.54006        -2.59273
LJ          -2.59273         1.54006         -1.3093
LJ          -4.35467         2.45306        -4.35467
LJ         -0.487329         2.18779        -4.00725
LJ          0.879829         1.70208        -2.88476
LJ         -0.434327         2.91707        -3.27709
LJ         -0.934847        0.335513        -1.86683
LJ         -0.023485       -0.023485        -2.51602
LJ          0.644194        0.644194        -2.17795
LJ          0.320195         1.96781       -0.916592
LJ           1.96781        0.320195       -0.916592
LJ          -2.41262        -2.41262        -1.15277
LJ          -1.75225        -1.75225       -0.748046
LJ          -4.04248        -3.31573       -0.588914
LJ          -3.31573        -4.04248       -0.588914
LJ         -0.724346        -1.73388       -0.724346
LJ         -0.331235        -2.68377         -1.3783
LJ           -1.3783        -2.68377       -0.331235
LJ         0.0974892        -1.39648       0.0974892
LJ           2.18779        -4.00725       -0.487329
LJ           2.91707        -3.27709       -0.434327
LJ          0.335513        -1.86683       -0.934847
LJ           1.70208        -2.88476        0.879829
LJ          -1.73388       -0.724346       -0.724346
LJ          -2.68377       -0.331235         -1.3783
LJ          -1.39648       0.0974892       0.0974892
LJ          -2.68377         -1.3783       -0.331235
LJ         -0.454044       -0.454044       -0.454044
LJ          0.357857        0.357857       -0.402878
LJ         -0.402878        0.357857        0.357857
LJ          0.357857       -0.402878        0.357857
LJ          0.734631       -0.852325       -0.852325
LJ           1.14162      -0.0490947         -1.3653
LJ           1.28444      -0.0919644      -0.0919644
LJ           1.14162         -1.3653      -0.0490947
LJ          -4.00725         2.18779       -0.487329
LJ          -3.27709         2.91707       -0.434327
LJ          -2.88476         1.70208        0.879829
LJ          -1.86683        0.335513       -0.934847
LJ         -0.852325        0.734631       -0.852325
LJ        -0.0490947         1.14162         -1.3653
LJ           -1.3653         1.14162      -0.0490947
LJ        -0.0919644         1.28444      -0.0919644
LJ           1.13152         1.13152       -0.187422
LJ           1.14496         1.14496        -1.43043
LJ            2.1154         2.84223       -0.537384
LJ           2.84223          2.1154       -0.537384
LJ          -2.16097        -2.16097        0.268729
LJ          -4.35467        -4.35467         2.45306
LJ          -2.59273         -1.3093         1.54006
LJ           -1.3093        -2.59273         1.54006
LJ         -0.487329        -4.00725         2.18779
LJ         -0.934847        -1.86683        0.335513
LJ         -0.434327        -3.27709         2.91707
LJ          0.879829        -2.88476         1.70208
LJ         -0.023485        -2.51602       -0.023485
LJ           1.96781       -0.916592        0.320195
LJ          0.320195       -0.916592         1.96781
LJ          0.644194        -2.17795        0.644194
LJ          -4.00725       -0.487329         2.18779
LJ          -1.86683       -0.934847        0.335513
LJ          -2.88476        0.879829         1.70208
LJ          -3.27709       -0.434327         2.91707
LJ         -0.852325       -0.852325        0.734631
LJ        -0.0919644      -0.0919644         1.28444
LJ           -1.3653      -0.0490947         1.14162
LJ        -0.0490947         -1.3653         1.14162
LJ           1.13152       -0.187422         1.13152
LJ           2.84223       -0.537384          2.1154
LJ            2.1154       -0.537384         2.84223
LJ           1.14496        -1.43043         1.14496
LJ          -2.51602       -0.023485       -0.023485
LJ         -0.916592         1.96781        0.320195
LJ          -2.17795        0.644194        0.644194
LJ         -0.916592        0.320195         1.96781
LJ         -0.187422         1.13152         1.13152
LJ         -0.537384         2.84223          2.1154
LJ          -1.43043         1.14496         1.14496
LJ         -0.537384          2.1154         2.84223
LJ           1.12437         1.12437         1.12437
LJ           1.88123         1.88123        0.176688
LJ          0.176688         1.88123         1.88123
LJ           1.88123        0.176688         1.88123
