108
#Comment!
LJ          -2.51644        -2.51644        -2.51644
LJ          -1.73483        -1.73483        -2.72201
LJ          -2.72201        -1.73483        -1.73483
LJ          -1.73483        -2.72201        -1.73483
LJ          -1.11934        -2.71703        -2.71703
LJ      -0.000206056        -1.84603        -2.72842
LJ          -1.11722        -1.87538        -1.87538
LJ      -0.000206056        -2.72842        -1.84603
LJ          0.614997        -2.67079        -2.67079
LJ           1.59361        -1.69222        -2.67081
LJ          0.604029        -1.68126        -1.68126
LJ           1.59361        -2.67081        -1.69222
LJ          -2.71703        -1.11934        -2.71703
LJ          -1.84603    -0.000206056        -2.72842
LJ          -2.72842    -0.000206056        -1.84603
LJ          -1.87538        -1.11722        -1.87538
LJ         -0.957468       -0.957468        -2.42753
LJ         -0.119738       -0.119738        -2.42754
LJ         -0.987451      -0.0897503        -1.81538
LJ        -0.0897503       -0.987451        -1.81538
LJ          0.768788        -1.07704        -2.72841
LJ           1.63982        0.042119        -2.71705
LJ          0.798177       0.0399794        -1.87538
LJ            1.6512        -1.07703        -1.84603
LJ          -2.67079        0.614997        -2.67079
LJ          -1.69222         1.59361        -2.67081
LJ          -2.67081         1.59361        -1.69222
LJ          -1.68126        0.604029        -1.68126
LJ          -1.07704        0.768788        -2.72841
LJ          0.042119         1.63982        -2.71705
LJ          -1.07703          1.6512        -1.84603
LJ         0.0399794        0.798177        -1.87538
LJ          0.657638        0.657638        -2.72199
LJ           1.43921         1.43921        -2.51643
LJ          0.657594          1.6448        -1.73482
LJ            1.6448        0.657594        -1.73482
LJ          -2.71703        -2.71703        -1.11934
LJ          -1.87538        -1.87538        -1.11722
LJ          -2.72842        -1.84603    -0.000206056
LJ          -1.84603        -2.72842    -0.000206056
LJ         -0.957468        -2.42753       -0.957468
LJ        -0.0897503        -1.81538       -0.987451
LJ         -0.987451        -1.81538      -0.0897503
LJ         -0.119738        -2.42754       -0.119738
LJ          0.768788        -2.72841        -1.07704
LJ            1.6512        -1.84603        -1.07703
LJ          0.798177        -1.87538       0.0399794
LJ           1.63982        -2.71705        0.042119
LJ          -2.42753       -0.957468       -0.957468
LJ          -1.81538      -0.0897503       -0.987451
LJ          -2.42754       -0.119738       -0.119738
LJ          -1.81538       -0.987451      -0.0897503
LJ          -1.14225        -1.14225        -1.14225
LJ         0.0650161       0.0650161        -1.14226
LJ          -1.14226       0.0650161       0.0650161
LJ         0.0650161        -1.14226       0.0650161
LJ          0.738124        -0.98744        -0.98744
LJ           1.35033       -0.119722       -0.957506
LJ          0.738175      -0.0897564      -0.0897564
LJ           1.35033       -0.957506       -0.119722
LJ          -2.72841        0.768788        -1.07704
LJ          -1.84603          1.6512        -1.07703
LJ          -2.71705         1.63982        0.042119
LJ          -1.87538        0.798177       0.0399794
LJ          -0.98744        0.738124        -0.98744
LJ         -0.119722         1.35033       -0.957506
LJ         -0.957506         1.35033       -0.119722
LJ        -0.0897564        0.738175      -0.0897564
LJ          0.798154        0.798154        -1.11723
LJ           1.63983         1.63983        -1.11935
LJ          0.768802          1.6512    -0.000186833
LJ            1.6512        0.768802    -0.000186833
LJ          -2.67079        -2.67079        0.614997
LJ          -1.68126        -1.68126        0.604029
LJ          -2.67081        -1.69222         1.59361
LJ          -1.69222        -2.67081         1.59361
LJ          -1.07704        -2.72841        0.768788
LJ         0.0399794        -1.87538        0.798177
LJ          -1.07703        -1.84603          1.6512
LJ          0.042119        -2.71705         1.63982
LJ          0.657638        -2.72199        0.657638
LJ            1.6448        -1.73482        0.657594
LJ          0.657594        -1.73482          1.6448
LJ           1.43921        -2.51643         1.43921
LJ          -2.72841        -1.07704        0.768788
LJ          -1.87538       0.0399794        0.798177
LJ          -2.71705        0.042119         1.63982
LJ          -1.84603        -1.07703          1.6512
LJ          -0.98744        -0.98744        0.738124
LJ        -0.0897564      -0.0897564        0.738175
LJ         -0.957506       -0.119722         1.35033
LJ         -0.119722       -0.957506         1.35033
LJ          0.798154        -1.11723        0.798154
LJ            1.6512    -0.000186833        0.768802
LJ          0.768802    -0.000186833          1.6512
LJ           1.63983        -1.11935         1.63983
LJ          -2.72199        0.657638        0.657638
LJ          -1.73482          1.6448        0.657594
LJ          -2.51643         1.43921         1.43921
LJ          -1.73482        0.657594          1.6448
LJ          -1.11723        0.798154        0.798154
LJ      -0.000186833          1.6512        0.768802
LJ          -1.11935         1.63983         1.63983
LJ      -0.000186833        0.768802          1.6512
LJ          0.604036        0.604036        0.604036
LJ            1.5936          1.5936        0.615004
LJ          0.615004          1.5936          1.5936
LJ            1.5936        0.615004          1.5936
