108
#Comment!
LJ          -1.91909        -2.35641        0.244396
LJ          -4.93989        -6.37671          2.1778
LJ           4.68554          4.8088        -3.86406
LJ           4.58548         6.00075        -3.41244
LJ           2.32153        -2.01376           -1.12
LJ         -0.277347         1.45831        -1.71907
LJ          0.719681        -2.10516       -0.215941
LJ          0.686249        -3.10381        0.191429
LJ           0.66176        -2.95131       -0.931652
LJ           1.69719         1.03833       -0.519642
LJ           2.86658         2.38195         2.12346
LJ           1.10103        -1.73268         2.11735
LJ          -1.13835       -0.920521        -1.27298
LJ          0.667993         3.18237        -1.93995
LJ         -0.772643         1.47971        0.266458
LJ         -0.662918          2.2506        -1.03223
LJ          -1.99696        0.852427         -1.6589
LJ          0.271073       -0.384364       -0.177389
LJ          -1.26566         2.39138      -0.0609688
LJ         -0.312452       -0.160515        -1.10384
LJ           1.40589        0.235605        -1.17173
LJ           1.22948        -1.20048        -1.05348
LJ          0.539238       -0.416635        -2.13367
LJ           2.42134         1.07382         1.70877
LJ          -1.06873         3.90315         2.29923
LJ          0.108592         2.80018        -2.98215
LJ           1.58332         2.60556        -1.24026
LJ             1.964         1.59412         3.11185
LJ          -0.63541           2.389        -2.23799
LJ         -0.233061         3.17455        -1.31584
LJ          0.887067         1.76926         3.18756
LJ          0.220673        0.561269        -1.59721
LJ           0.78444         2.11422        -2.20973
LJ           1.15359        0.378738        -2.20749
LJ        -0.0242924         1.50016       -0.543746
LJ         -0.911444         0.41159        -1.80808
LJ          -1.34081        -2.09459       -0.882865
LJ          -2.47237       -0.342927         1.26031
LJ          -1.60831         1.00935         1.09182
LJ          0.603171        -2.59415         1.29327
LJ          -1.11865        -1.11256       -0.286804
LJ         -0.734495        -2.90726       -0.256033
LJ          -2.02455         -1.2285        0.689883
LJ         -0.651348       -0.511862        0.414247
LJ        -0.0534033        -3.58638        0.865889
LJ           -6.3015       -0.442886       -0.908872
LJ         -0.238814        -1.80616       -0.518512
LJ           1.76101        -2.72026        0.287307
LJ          -1.58932        0.252192       -0.671726
LJ          -1.15804         1.33693        -0.99044
LJ         0.0879066       -0.354286         1.15857
LJ          -2.66592       0.0944711       -0.908322
LJ         0.0284544        -1.08712        -1.22429
LJ          0.852275          1.3934        -1.27944
LJ            1.0186       -0.104057        0.811655
LJ          0.905635       -0.859678         1.59478
LJ           1.12822        -1.11111         0.31583
LJ          0.652507        0.643583       -0.448767
LJ           1.50588      0.00734966       -0.109823
LJ           1.53363        -1.86948         1.01164
LJ          -1.92933       -0.295638        -1.67325
LJ           4.38674         4.97002          2.9327
LJ          -1.75304         1.12055      -0.0857099
LJ          -2.25066       -0.827721       -0.457319
LJ          0.296671         1.40234        0.417142
LJ         -0.381266        0.443851       -0.338415
LJ         -0.635191        0.495048         0.89786
LJ          0.597317         2.42498       -0.855062
LJ           3.10859         6.05094         4.38802
LJ           2.53061         2.72081         3.14065
LJ          -4.80245         1.27481        -6.36623
LJ        -0.0579547        -5.36052        -5.65664
LJ         -0.394828        -2.20836        0.487893
LJ           3.01143         1.66879         1.16196
LJ          -0.40145        0.924122         2.05545
LJ          0.749543        0.136573         1.83941
LJ          -1.01086        -3.00026        0.759807
LJ            -1.077        -1.49642         1.03154
LJ          0.802496         3.78192         4.35674
LJ          -3.07344        -2.21057         2.00681
LJ         0.0580265        -1.28701        0.364183
LJ           1.82237        -1.70201       -0.177998
LJ         -0.591156        -2.35808         1.58954
LJ         0.0372309        -1.56775         1.36104
LJ          -2.61331        0.502186        0.473514
LJ           -1.6972       -0.283238        0.264984
LJ         0.0436019        -3.30734         1.91569
LJ          -4.68442        0.435937         3.67108
LJ         -0.140132       -0.556006         2.19379
LJ         -0.689948        -1.58815         2.36457
LJ          -2.58753         1.47346        0.915234
LJ          0.692733        -1.73345         3.06869
LJ          0.186064        -2.24841         2.17931
LJ          0.643446         -6.4202        -6.11425
LJ          -5.67315        -6.32289         1.19776
LJ           -5.9584         2.39441        -5.44237
LJ          -1.48496      -0.0712651          1.3327
LJ         -0.119996         2.60287       -0.163116
LJ          0.915223         2.31843        0.428537
LJ           1.59078        -3.48687       -0.718557
LJ           5.27873          4.0812         2.80901
LJ           -5.8902         1.97811        -3.62704
LJ          0.697458         4.93965         2.62599
LJ           5.47469        -5.62771         3.01243
LJ           2.15119         2.85847         4.48094
LJ           -3.0402        -0.55657        0.244559
LJ           3.18586         0.94694        -4.91282
LJ            3.6907         2.39587        0.875427
