108
#Comment!
LJ           2.80495        0.604891         1.55887
LJ           2.59467        -3.47336       -0.610755
LJ         -0.654132       -0.849511        0.656269
LJ          -2.70312        0.676584       -0.445744
LJ           1.52925        -2.16432         2.28868
LJ           1.58645         1.62312        -1.60851
LJ           2.41594         1.31746        0.785789
LJ           1.46261        0.414923         -1.7514
LJ           1.24322       -0.446597        0.811916
LJ          0.766602        -3.94327        0.115542
LJ          -2.50602          2.0685         1.51653
LJ           1.56361         1.48949         2.99911
LJ          -1.28985        -1.27494       -0.239622
LJ           2.56384       -0.880177       -0.252576
LJ         -0.458486        0.385755         2.83809
LJ        -0.0556174         1.11817         2.20254
LJ          0.225675        -2.52842        -1.68856
LJ         0.0327564         1.09619        0.655281
LJ          0.442778         1.77701          2.6877
LJ         -0.575929      -0.0262034        -1.07629
LJ          0.685885        -2.75126         1.85844
LJ          0.988547        0.960897       -0.761183
LJ           2.33089        -1.81059        -1.66206
LJ          -6.40278         3.00723         5.28937
LJ          -6.33697       -0.908287         5.22975
LJ          -2.67388         1.85988        0.385271
LJ          -3.13336        -5.85536        -1.07059
LJ          0.361448        -4.77843        0.424786
LJ           2.25914         2.19718         2.65987
LJ          -3.07068        0.156479         1.08273
LJ           -0.4826        -0.17024         1.77123
LJ          -3.93188        -5.73388         1.87292
LJ         0.0539848       -0.734034        -1.53166
LJ           1.65274       -0.987737         -1.0685
LJ          -1.35596         2.22415         0.93548
LJ          0.276065        -1.20978       -0.660494
LJ          0.347016         -2.4885        0.752571
LJ          0.232362        -1.08697        -2.74351
LJ          -1.85244      -0.0894031         2.46212
LJ           1.88753        0.685315       -0.234103
LJ           1.36845         1.25957        0.555713
LJ          0.602106        -1.40829         1.50909
LJ          -1.22234       -0.912571        -1.25942
LJ          -1.48547       -0.284755        0.265848
LJ           1.75261        0.555135          1.4934
LJ          -0.16857        -4.21163         4.59443
LJ           1.46431        -1.50951        0.247478
LJ           2.46262        0.105293        0.452327
LJ          -1.53375         0.10859       -0.981098
LJ          -1.04002        0.333302        0.951503
LJ         -0.624333         1.75609         3.14415
LJ         -0.784765         1.17466        -1.05309
LJ           -3.3256        -2.97921       -0.312488
LJ         -0.543276         2.17059       -0.972542
LJ            1.1041         1.29797         1.98733
LJ           1.89926        0.611839         2.58488
LJ          0.714219        0.181856       0.0748438
LJ          0.762999       -0.200762        -2.16275
LJ           1.77381        -1.65098         1.24733
LJ           3.62978        0.462271        0.820879
LJ          0.382811          1.6297       -0.156237
LJ           4.32293          3.4158        -3.63724
LJ        -0.0995766         -2.0079          1.9698
LJ          -1.33535        -0.20213        -2.21741
LJ         -0.726681         1.97675         0.06364
LJ         -0.347262        0.507919        -2.79681
LJ           2.14768        -0.34054         1.49129
LJ           2.03429         1.96621         1.59982
LJ          -4.18147         1.58907        -4.78038
LJ         -0.334249         2.26994         1.66872
LJ          -4.06473       -0.678076        -6.42774
LJ           3.15505       -0.719221         1.79886
LJ          0.697119        0.438098         1.23471
LJ            0.5998         1.84713         1.18357
LJ          -2.37985         1.00697         1.88364
LJ          0.906006        0.211871         3.29294
LJ         -0.221461       -0.329511       -0.250306
LJ         0.0714997        0.596199       -0.651359
LJ          0.419917         4.61404         4.94171
LJ          0.369473        -1.00383        0.544753
LJ          0.228971        0.814243        -1.62461
LJ          0.807661       -0.177542        -1.03065
LJ           1.21848       -0.692073         1.98554
LJ        -0.0577342      -0.0794063        0.806782
LJ           1.22123         2.26933         2.22316
LJ          -2.06332        0.675615        0.619875
LJ          -0.77341       -0.725102         2.73096
LJ         -0.687341         1.65351        -2.27178
LJ          0.751341        0.255673         2.25822
LJ            0.2677       -0.501461         2.76483
LJ          -1.02713         1.32123         1.90666
LJ          0.264168        0.993503         3.48826
LJ          0.735438        -1.44454         2.64165
LJ          0.588474        -4.54163        -2.29209
LJ          -3.56994         1.52084        0.581847
LJ           1.98391        -2.53354       -0.248479
LJ            -0.718        0.691237        0.018244
LJ           1.20953         2.25415       -0.594825
LJ           1.69837       -0.327678       -0.176873
LJ           4.35077      -0.0527388        -5.37773
LJ            1.9973         2.34738        0.493308
LJ          -1.61741         1.31803       -0.363373
LJ           3.05355          3.1889        0.505558
LJ          -3.24642        -1.02831         5.65527
LJ           2.10201       -0.536298        -2.27006
LJ           1.12965        -2.25078        -1.00444
LJ          -4.97207         4.50279        -5.00921
LJ          0.541182         4.42808        -1.55199
