108
#Comment!
LJ           4.11057       -0.371198         1.57025
LJ          0.741622         3.30956        -1.94918
LJ           0.69467        -1.92808         1.62988
LJ         -0.632618        0.857919        -1.82508
LJ          0.596033        0.576088         3.54886
LJ         -0.137075        -1.83798        -1.85435
LJ          0.600837        0.719381        -1.62128
LJ          0.604642       -0.995039        -2.07375
LJ           1.10813        -1.00486         2.71336
LJ          0.631479       -0.810871         1.64844
LJ         0.0760028         1.96973         2.86217
LJ          0.502662        0.531819         1.43349
LJ           -1.5333       -0.940038       -0.620647
LJ           2.86745         2.34308        0.151304
LJ         -0.745268        -2.49785      -0.0241722
LJ          -1.08654        -1.61083        0.436276
LJ          -3.85728       -0.552209        -3.64642
LJ           1.36647        0.563645         0.31622
LJ           0.14637         4.28295         5.84209
LJ          -0.34273       -0.863066        -1.39833
LJ           -0.1998      -0.0204351         5.32652
LJ           1.12537         1.93565        -1.04164
LJ            3.8107         0.71719       -0.644179
LJ          -4.55291       -0.534477        -2.41224
LJ           2.43064        -4.52501         5.47497
LJ        -0.0871085         1.66336        -1.36702
LJ           -2.3161        -1.37172        -1.86079
LJ           2.99209         6.31849        -1.29698
LJ            2.2031         1.99076         1.53604
LJ         0.0265955        -1.79316        0.391799
LJ         -0.929969        -2.35592         2.36189
LJ           5.02272         3.44297        -5.49879
LJ         -0.152908        -4.60576       -0.507629
LJ           1.63067       0.0284536        -2.31245
LJ          0.060744          1.2484        0.750355
LJ           2.50677        0.124513        -1.09837
LJ           1.70444        -1.54518      -0.0415899
LJ          0.181828         -2.5611       -0.505268
LJ          0.403927        0.080832        0.226343
LJ           1.92766        0.883213        -1.71665
LJ          0.870818         1.68399        0.175582
LJ          -0.37141       -0.153838          1.9768
LJ           -1.1334        -2.38126         -2.9554
LJ         -0.845268        0.132108        0.217331
LJ           3.49173        -1.14689         2.04261
LJ           -5.1038        -4.56447        -5.25385
LJ           2.35484       -0.785817         1.47428
LJ           3.31652        -1.23641        0.922609
LJ         -0.590133        -1.23995        -2.78362
LJ          -1.14022        0.794443         2.19436
LJ          0.943329          1.0383         2.34212
LJ         -0.564257         1.64551        -2.61963
LJ           4.06977         -4.7608        -2.02936
LJ        -0.0609833         2.16556          1.4598
LJ           1.49961       -0.206777         1.33574
LJ            3.8182        0.293822        0.400065
LJ           1.16303       -0.485735       -0.303594
LJ          0.832167        -1.16238        -1.03584
LJ       -0.00238409        -1.29622         2.82292
LJ           4.19498        -0.80831        0.503425
LJ           1.67362        0.703903       -0.674517
LJ          -2.16001         5.11491         -4.4945
LJ           2.68788       -0.958513          2.6968
LJ          -1.58813         1.55099        -2.68356
LJ           2.49862        0.203686      -0.0601446
LJ          0.509058       -0.144271        -1.02073
LJ          0.478186        -2.30306         2.61815
LJ           2.55639         1.21768       -0.720498
LJ          0.175368         5.26129        -2.30957
LJ        -0.0677291        0.935707         2.37821
LJ         -0.620764        0.730709         6.28552
LJ             1.565         1.87526         2.73453
LJ         -0.369181       -0.717672        0.666125
LJ            1.9379         1.94062        0.511076
LJ          -1.57417       -0.351512         1.24921
LJ           1.45619        0.258309          2.8425
LJ          0.709472       -0.882374         0.62909
LJ          0.401604        0.869256       -0.384326
LJ           0.67546        0.324466          4.7047
LJ           1.81512        -1.96041         2.28427
LJ           1.51608       -0.415931        -1.32451
LJ         0.0659917       -0.879725       -0.236854
LJ           1.87781         0.87127         1.18947
LJ           1.46805         -1.3671         1.28582
LJ           1.04663         1.56799          1.3557
LJ         -0.898707         1.13695       0.0497703
LJ         -0.501826        -2.38556         1.35999
LJ          0.074374        0.698492        -2.51351
LJ          0.397298         -0.2012         2.84972
LJ         -0.341756        -1.46987         1.75467
LJ        -0.0128781         2.02516       -0.396922
LJ         -0.420492         3.71901        0.619567
LJ         -0.595702        0.843094         3.50201
LJ           -1.4159        -1.84835        -2.02405
LJ         -0.985885        -1.86038        -1.01855
LJ          0.625205          1.7105        -2.27684
LJ         -0.464187        0.387665       -0.825556
LJ          -0.36644         3.27228         2.27556
LJ           1.36597        -4.38557         2.06482
LJ           5.72223         1.74679        -5.68834
LJ          0.720086         4.45625        0.515299
LJ         -0.572076       -0.211627        -2.18101
LJ            1.1844         3.82846        -0.68999
LJ          -3.40502       -0.762461        -4.72883
LJ           1.04394         2.80328      -0.0839829
LJ          0.456329        -2.74502         0.99496
LJ          0.977353         -2.0867        0.434277
LJ          -3.39472        -4.04144         2.08511
