108
#Comment!
LJ          -1.05964        -2.51037         0.23809
LJ          -5.14344         5.66302        0.183412
LJ           2.81398         4.14781        -3.11668
LJ           3.72572         4.56111        -3.70259
LJ           1.63793         -1.3984        -1.47829
LJ        -0.0977465         1.84817       -0.995504
LJ          0.822241        -1.75909        0.226944
LJ          0.827547        -3.51631        0.357253
LJ           1.13696        -2.43905       -0.553533
LJ           1.48581        0.653663       -0.444054
LJ           1.78456         1.69131         1.05801
LJ           1.18249        -1.44869         2.19877
LJ          -1.36801       -0.948456        -1.41048
LJ          0.983112         2.16296        -1.69929
LJ         -0.732817         1.73657        0.399301
LJ           -0.1019         2.47031       0.0201443
LJ          -1.77701          1.2515        -1.36251
LJ         -0.454901       -0.416342       0.0821964
LJ          -1.03691         3.08368        0.149805
LJ         -0.292271       -0.571453         -1.1281
LJ          0.700351       -0.131578       -0.938126
LJ        -0.0408626        -1.25594       -0.316476
LJ         0.0578904       -0.696672        -2.61031
LJ          0.826452         3.25156         1.94009
LJ          -1.46457         4.38042        0.603211
LJ         -0.353744         2.51647          -2.505
LJ           1.97403         2.73485        -2.37703
LJ           3.54204         1.29826         2.21574
LJ        0.00515124         3.25268         -1.0202
LJ           1.20565         4.58207        -1.02025
LJ         -0.514409         1.43771          1.6052
LJ           0.37931        0.459557        -1.74056
LJ         -0.125893         1.48166         -2.1584
LJ           1.76898        0.956194        -1.41105
LJ          0.259705         1.44067      -0.0411681
LJ         -0.514508        0.788878         -1.3118
LJ         -0.884399        -2.78815       -0.911351
LJ          -2.91815       -0.794277        0.688764
LJ          -1.66168         1.00581        0.354208
LJ           0.72259        -1.99525         1.37642
LJ         -0.954164        -1.22443        0.567998
LJ          -0.46809        -3.45724       -0.160914
LJ          -2.09858        -1.42985        0.776239
LJ          -0.87693       -0.379879         1.20145
LJ        -0.0445275         -3.8287        0.811559
LJ          -6.01395        -2.78905       -0.246977
LJ       -0.00241706        -2.42411       -0.403114
LJ           1.38204        -2.59312          0.5111
LJ         -0.978602       0.0379234        -0.66498
LJ          -1.00118         2.27232       -0.503079
LJ          0.410735      -0.0135803        0.941083
LJ          -1.97364         0.28616       -0.746516
LJ         -0.420233        -1.71717        -1.28063
LJ          0.765369         1.21387       -0.972692
LJ            1.1075        0.616157        0.492025
LJ           1.09199       -0.764279         1.34584
LJ          0.897673       -0.373564        0.179402
LJ          0.139032        0.404257       -0.304658
LJ           1.90555       -0.187254       -0.981675
LJ           1.81345       -0.807793        0.554258
LJ          -1.29779        0.138033        -1.67713
LJ           5.45872         4.32827         2.39974
LJ          -2.17808          1.7191       -0.345815
LJ          -1.25716       -0.874724       -0.337045
LJ           0.43505         1.07542         1.04811
LJ         -0.787568         1.09546       -0.329008
LJ         -0.514688        0.475705         0.69524
LJ          0.795401         2.45484       -0.475885
LJ            2.9537          6.1908         5.50043
LJ           1.58821         2.03112         2.24375
LJ          -4.31035      -0.0702371         6.35572
LJ         -0.963385         6.31297        -5.24229
LJ         -0.113952         -2.1502        0.609198
LJ           2.32564         1.88517        0.161992
LJ         -0.154327        0.436037         1.66863
LJ          0.918569        0.987563         2.11952
LJ          -1.06862        -3.55168        0.746699
LJ         -0.806864        -1.63683         1.49829
LJ           1.16424         2.76367         4.93835
LJ          -4.35992        -2.07153         2.18262
LJ          0.191303        -1.00483        0.718358
LJ           1.82064          -1.714       -0.152777
LJ         -0.316492        -2.85484         1.28046
LJ         0.0351813         -1.1082         1.72132
LJ           -2.6443         0.34413        0.656959
LJ          -1.41332       0.0395504        0.274132
LJ         0.0650988        -3.73648         2.02859
LJ          -3.59992         1.72949         3.22585
LJ          0.637411       -0.266124         2.20093
LJ         -0.923757        -1.46696         2.54718
LJ          -1.75533          2.3397        0.415253
LJ          0.137396        -1.34489         2.76849
LJ          0.125472        -2.23308         2.15716
LJ         -0.900886        -5.32215         6.21557
LJ           6.35216        -5.63515        0.445721
LJ           -6.2829         2.66538        -4.72222
LJ          -2.00535        -0.41106         1.94419
LJ          0.673271         2.20174        0.758218
LJ           1.11999         3.16643        0.532021
LJ           2.12646        -2.77831       -0.502029
LJ           5.25911         3.61713        0.800812
LJ          -5.31871         1.49799        -3.04043
LJ         -0.382711         5.29717        0.882109
LJ           5.61088         6.45507         2.79961
LJ           2.35475         1.93422         3.48337
LJ          -2.22682       -0.480823      -0.0636209
LJ          0.862422         3.51268        -4.68394
LJ          -5.87184        0.232836          3.3036
