108
#Comment!
LJ          0.230039        -1.38205        0.146037
LJ           4.06659       0.0312218         4.28876
LJ          -2.27351        0.935293        0.326354
LJ         -0.517691        -5.34249        -1.54316
LJ           1.46908        -2.06066       -0.482986
LJ          0.935155         1.87195       -0.763319
LJ           1.94503       -0.278404         1.10587
LJ           2.61114        -1.07249        0.836846
LJ           1.86217        -1.65372        0.414881
LJ           1.34592       -0.207816        -1.95595
LJ          -1.26596          2.6717        -0.32283
LJ           2.16497         1.14632         2.41563
LJ          -0.20282        -1.88339        -1.93507
LJ           1.79392       -0.949104        -1.21828
LJ          -2.09518         1.04134         3.30545
LJ            1.4526          2.9386         1.63978
LJ          0.479908         1.09106        -1.92888
LJ        -0.0274102       -0.338541         0.60262
LJ         -0.742621         1.75869         1.33841
LJ         -0.192418        -1.07754       -0.827185
LJ          0.581938        -1.98361        -1.21187
LJ           1.23052        0.142538        0.334412
LJ        -0.0383123         2.21764        -2.41368
LJ            3.0593         5.73718        -1.54031
LJ           2.05108         1.64563        -4.94658
LJ          -1.32082         3.31504        0.541728
LJ          -2.35141         2.90337        0.788443
LJ           -4.1115         4.06625        -3.89415
LJ           1.81961         2.08446           1.292
LJ           5.67551         4.23262         5.62914
LJ          -1.36947        0.196818         1.95816
LJ          0.974803        -1.47431        -2.25685
LJ          0.300137        0.054764        -1.37937
LJ          0.756601       -0.875549        -1.16473
LJ          -1.14362         1.49135        0.344111
LJ         -0.120185       -0.871572         -2.1604
LJ         -0.715768         -2.0801       -0.462456
LJ         -0.406178         2.08713        -1.25503
LJ          -1.61219         1.07766         1.45123
LJ           1.99072         0.86139        0.969876
LJ           1.04466       -0.935011        0.678343
LJ           0.87513        -1.94251         1.03427
LJ          -1.90201         -1.0827        0.669324
LJ          -1.05968       -0.617166         1.09356
LJ          0.794117       -0.726664         2.26378
LJ           5.23018        -2.47056       -0.111332
LJ          0.814072          -2.876        0.559652
LJ           2.66906       0.0302028       -0.159843
LJ          -1.02475       -0.560411        0.051465
LJ          -2.07882         1.97656        0.170037
LJ         -0.611204       -0.528162         2.19421
LJ          -1.53711        0.202667        -0.51366
LJ          0.192963        -2.59327       -0.418942
LJ         -0.838991           1.085       -0.526209
LJ          0.894212         1.01778         1.22187
LJ           1.18742         1.25909        0.175761
LJ           1.51306       -0.927344       -0.252948
LJ          0.557668       -0.354564       -0.259593
LJ           1.82309        -1.96751        -1.65893
LJ           1.84651       -0.982009        -2.44854
LJ         -0.933508       -0.498962        -1.12005
LJ          -1.61774         1.14788        -2.19248
LJ          -2.30688       -0.393317       0.0448889
LJ          -2.22917        -1.03155       -0.710216
LJ         0.0817912         1.61223        0.729081
LJ         -0.421484        0.105829       -0.497196
LJ          -1.15486         1.26749         2.40783
LJ            0.9906           2.302        0.332405
LJ           4.64789         -5.3462        0.191953
LJ         -0.456309        0.177819         1.37104
LJ          -4.13002          2.9201          5.3198
LJ           4.07269         1.11778         3.57793
LJ          0.763955       -0.136845         1.32311
LJ         -0.532694         2.36896         0.57534
LJ          -1.53944         2.52934         1.20241
LJ          0.398252         1.11183         3.18414
LJ        -0.0344515        -2.50026         1.54448
LJ         -0.786618        -1.39176        0.550178
LJ            2.1459        -2.19566        -6.04426
LJ           2.03091        -1.16729         2.51669
LJ          0.223238        0.641494        0.289355
LJ           1.78922        0.181982       -0.817771
LJ        -0.0820461         -1.1064         1.32257
LJ           1.48386        0.483982         1.92492
LJ          0.191293         2.50282         1.43643
LJ           -2.0296       0.0785898         1.01877
LJ          0.307744         1.41582          1.8925
LJ           2.86423        0.883263       -0.524221
LJ        0.00702661       -0.588746         3.53685
LJ            -1.381        -1.32662         2.02571
LJ          -2.44795         1.85215         1.27539
LJ          0.169592        0.277205         2.11933
LJ           1.74165        -1.28326         1.48039
LJ          -5.62633         1.68517         3.61369
LJ           6.24002        -3.69648        -2.40957
LJ          -5.04366         5.18435        -1.65203
LJ         -0.974942        0.540669        0.493222
LJ        -0.0911239         1.86727       -0.315195
LJ           1.47254         1.36397        -1.59237
LJ           2.84205        -2.19874        -4.86149
LJ           3.92317         3.00655         6.33223
LJ          -1.76314         1.54644       -0.953741
LJ          -3.76368        -3.92679         5.98016
LJ           6.25092          1.3058          3.5538
LJ          0.500993         0.87475       -0.685521
LJ          -1.24356        -1.35479        -1.48302
LJ           4.75358         3.87974         1.14121
LJ          -5.66564        -5.77579        -5.96105
