108
#Comment!
LJ          -2.52442        -2.52442        -2.52442
LJ          -1.56707        -1.56707        -3.08224
LJ          -3.08224        -1.56707        -1.56707
LJ          -1.56707        -3.08224        -1.56707
LJ         -0.955999        -2.69243        -2.69243
LJ          -1.35555        -3.00859        -3.83191
LJ         -0.512837        -1.63396        -1.63396
LJ          -1.35555        -3.83191        -3.00859
LJ          0.395585        -2.05229        -2.05229
LJ           2.04107       -0.577602        -2.60088
LJ           3.16335        -5.61535        -5.61535
LJ           2.04107        -2.60088       -0.577602
LJ          -2.69243       -0.955999        -2.69243
LJ          -3.00859        -1.35555        -3.83191
LJ          -3.83191        -1.35555        -3.00859
LJ          -1.63396       -0.512837        -1.63396
LJ         -0.625252       -0.625252         -1.8811
LJ       -0.00288883     -0.00288885        -1.39737
LJ          -1.23352       -0.239746        -2.79839
LJ         -0.239746        -1.23352        -2.79839
LJ           1.83446        0.246276        -3.69138
LJ           1.46888          0.5638        -2.75555
LJ          0.413875       -0.864956        -2.00253
LJ           2.56432        0.352043        -2.92161
LJ          -2.05229        0.395585        -2.05229
LJ         -0.577602         2.04107        -2.60088
LJ          -2.60088         2.04107       -0.577602
LJ          -5.61535         3.16335        -5.61535
LJ          0.246276         1.83446        -3.69138
LJ            0.5638         1.46888        -2.75555
LJ          0.352043         2.56432        -2.92161
LJ         -0.864956        0.413875        -2.00253
LJ         -0.141486       -0.141486        -3.19377
LJ          0.460014        0.460014        -2.46515
LJ          0.930308         1.93592       -0.644746
LJ           1.93592        0.930308       -0.644746
LJ          -2.69243        -2.69243       -0.955999
LJ          -1.63396        -1.63396       -0.512837
LJ          -3.83191        -3.00859        -1.35555
LJ          -3.00859        -3.83191        -1.35555
LJ         -0.625252         -1.8811       -0.625252
LJ         -0.239746        -2.79839        -1.23352
LJ          -1.23352        -2.79839       -0.239746
LJ       -0.00288884        -1.39737     -0.00288882
LJ           1.83446        -3.69138        0.246276
LJ           2.56432        -2.92161        0.352043
LJ          0.413875        -2.00253       -0.864956
LJ           1.46888        -2.75555          0.5638
LJ           -1.8811       -0.625252       -0.625252
LJ          -2.79839       -0.239746        -1.23352
LJ          -1.39737     -0.00288884     -0.00288883
LJ          -2.79839        -1.23352       -0.239746
LJ         -0.616437       -0.616437       -0.616437
LJ          0.262275        0.262275       -0.447207
LJ         -0.447207        0.262275        0.262275
LJ          0.262275       -0.447207        0.262275
LJ          0.695597       -0.825744       -0.825744
LJ           1.21497       -0.172769        -1.61937
LJ           1.19635      -0.0322116      -0.0322116
LJ           1.21497        -1.61937       -0.172769
LJ          -3.69138         1.83446        0.246276
LJ          -2.92161         2.56432        0.352043
LJ          -2.75555         1.46888          0.5638
LJ          -2.00253        0.413875       -0.864956
LJ         -0.825744        0.695597       -0.825744
LJ         -0.172769         1.21497        -1.61937
LJ          -1.61937         1.21497       -0.172769
LJ        -0.0322117         1.19635      -0.0322116
LJ           1.10195         1.10195         0.12279
LJ          0.997118        0.997118        -1.72691
LJ           1.83191         2.80231        -1.02723
LJ           2.80231         1.83191        -1.02723
LJ          -2.05229        -2.05229        0.395585
LJ          -5.61535        -5.61535         3.16335
LJ          -2.60088       -0.577602         2.04107
LJ         -0.577602        -2.60088         2.04107
LJ          0.246276        -3.69138         1.83446
LJ         -0.864956        -2.00253        0.413875
LJ          0.352043        -2.92161         2.56432
LJ            0.5638        -2.75555         1.46888
LJ         -0.141486        -3.19377       -0.141486
LJ           1.93592       -0.644746        0.930308
LJ          0.930308       -0.644746         1.93592
LJ          0.460014        -2.46515        0.460014
LJ          -3.69138        0.246276         1.83446
LJ          -2.00253       -0.864956        0.413875
LJ          -2.75555          0.5638         1.46888
LJ          -2.92161        0.352043         2.56432
LJ         -0.825744       -0.825744        0.695597
LJ        -0.0322117      -0.0322116         1.19635
LJ          -1.61937       -0.172769         1.21497
LJ         -0.172769        -1.61937         1.21497
LJ           1.10195         0.12279         1.10195
LJ           2.80231        -1.02723         1.83191
LJ           1.83191        -1.02723         2.80231
LJ          0.997118        -1.72691        0.997118
LJ          -3.19377       -0.141486       -0.141486
LJ         -0.644746         1.93592        0.930308
LJ          -2.46515        0.460014        0.460014
LJ         -0.644746        0.930308         1.93592
LJ           0.12279         1.10195         1.10195
LJ          -1.02723         2.80231         1.83191
LJ          -1.72691        0.997118        0.997118
LJ          -1.02723         1.83191         2.80231
LJ           1.89375         1.89375         1.89375
LJ           2.20059         2.20059       -0.207869
LJ         -0.207869         2.20059         2.20059
LJ           2.20059       -0.207869         2.20059
