108
#Comment!
LJ           1.18285        -1.23132        0.940093
LJ           3.15753        -1.53533         2.89082
LJ          -2.42492         0.24035         1.03445
LJ         -0.935822         5.51087        0.117828
LJ           1.77436        -1.80531       0.0738921
LJ           2.07648         1.62551        -1.61083
LJ           1.63359       -0.212696         1.36531
LJ           2.52832        0.325804        0.455515
LJ           2.23796        -1.51624         1.14271
LJ         -0.153336        -1.09363         -1.9075
LJ         -0.993926         2.90433        0.106151
LJ           1.87286         1.76085         1.29883
LJ         -0.759676        -3.24931       -0.283535
LJ           2.23798       -0.452648        -1.16408
LJ           -2.4985        0.966484         2.60057
LJ          0.431107          1.6942         1.93688
LJ          0.678331      -0.0298268        -2.69411
LJ        -0.0144786      -0.0330116        0.676782
LJ         -0.608267         1.52974         1.69633
LJ         -0.682244        -0.74507       -0.645874
LJ           1.04061         -2.3409       -0.885174
LJ           1.48744          0.1009       -0.438174
LJ           1.37267         1.15402        -2.28522
LJ           4.22955         5.53394        0.110657
LJ         -0.390328         4.11221        -6.40497
LJ          -1.99994         2.80309        0.771821
LJ            -3.429         4.28108       0.0752411
LJ          -2.84445          5.0573        -5.15909
LJ            1.3156         1.42501          2.4985
LJ          -5.94395         2.73828         3.59373
LJ          -1.26384        0.104732         1.15006
LJ        -0.0960822        -2.12167        -4.23508
LJ         -0.161836      -0.0911109        -1.53871
LJ          0.124465         -1.3101       -0.879895
LJ         -0.974505         1.64896        0.594674
LJ         0.0123814        -2.57903       -0.549744
LJ          -1.25107        -2.21947       -0.412612
LJ          0.257605         1.03825        -2.01462
LJ          -1.54191         1.04151         1.71738
LJ           1.62131        0.783074        0.668216
LJ           1.99396       -0.567315        0.308663
LJ           1.07073        -2.38334         1.12271
LJ          -1.37048        -1.19207       0.0654269
LJ          -1.00784       -0.880036         1.08198
LJ          0.408096       -0.488623         2.47196
LJ           4.19467        -3.24588         1.10075
LJ          0.681036        -1.93021       0.0212196
LJ           2.90082       -0.441435       -0.377778
LJ         -0.957512      -0.0834195        0.126052
LJ          -2.36036         1.50634        0.844623
LJ         -0.984965       -0.517484         2.16341
LJ          -1.52692         1.28141       -0.510831
LJ         -0.752419        -3.78208        0.858465
LJ         -0.654868         1.90385       -0.517357
LJ          0.963541         1.50962        0.759688
LJ           2.19433         1.37375       0.0232892
LJ           1.07915       -0.953345       -0.166934
LJ          0.256024       -0.299473       -0.369903
LJ           1.39253         -1.4376         -1.2852
LJ           3.10643       -0.733737        -1.88121
LJ          -1.19646        0.300842       -0.977676
LJ          -2.46957         1.73002        -2.70838
LJ           -1.9844       0.0773361       -0.439908
LJ          -1.06102       -0.912216        -1.57674
LJ         0.0172475         1.90933        0.252636
LJ         -0.168332        0.820684       -0.961567
LJ         -0.451748        0.515535         3.52018
LJ          0.863125         2.42442       0.0451419
LJ            6.1226        -4.72619         2.57523
LJ        -0.0328633        0.906969         1.06858
LJ          -4.70906        0.152257         5.17627
LJ           1.76198        0.531341         2.45451
LJ           1.03883      -0.0962017        0.495435
LJ         -0.192746         2.62574         1.68447
LJ          -1.45379          2.3164         1.59081
LJ         -0.296813         1.65496         3.99237
LJ          0.305537        -1.69463         1.19342
LJ         -0.067685        -1.08542        0.236851
LJ           1.79255        -3.75862        -6.40417
LJ           2.21288        -2.17377         2.11203
LJ          0.617361        0.843032      -0.0220274
LJ           1.13147        -0.37885        -1.41241
LJ          0.618358       -0.526782         1.37691
LJ          0.809555        0.603128         1.50265
LJ          -0.76887         1.81263         2.80542
LJ          -1.75239        0.807188        0.389738
LJ          0.295237         1.22525         3.17336
LJ           2.26353         2.77313        -2.27808
LJ        -0.0019935        0.599039         2.23221
LJ         -0.861869        -1.67174         1.76544
LJ          -2.52464         1.96732         2.15438
LJ          0.875395         1.98101         3.65198
LJ           1.32963         -1.3263         2.14622
LJ           5.55724         3.25326         2.48378
LJ          -5.93822        -5.58153        -4.89298
LJ          -4.18878         5.84271        -1.40296
LJ         -0.671346        0.919095      -0.0373828
LJ           1.43887         1.56178       -0.664097
LJ           2.07913        0.674246        -1.13943
LJ           3.20095        -1.63145        -5.10746
LJ           3.63817          2.9875         4.47428
LJ          -1.95914         2.22644       -0.307488
LJ          -5.65812        -2.50735         4.52416
LJ          -5.62294        0.413005          4.3283
LJ          0.925773        0.568307        -1.21062
LJ         -0.553634        -2.11732        -1.49634
LJ           2.47607        -5.77811           2.907
LJ           -3.2526        -6.12021        -1.20375
