108
#Comment!
LJ          0.334223        -1.51982       -0.282237
LJ           5.19341         1.70613         6.34402
LJ          -1.80603         1.02418      -0.0601238
LJ        -0.0492714        -3.03984        -3.18054
LJ           1.13528        -2.10338       -0.791029
LJ         -0.208555         2.73717       -0.351149
LJ           1.15475        -1.46578        0.678502
LJ           2.06136        -1.86598         1.24716
LJ           1.43728        -2.41489        0.219981
LJ           1.47912       0.0807643        -1.72144
LJ          -0.73187         1.29041       0.0331396
LJ           1.53452        0.320019          1.7664
LJ        -0.0387416        -1.09793        -1.92346
LJ            2.2284       -0.949423        -1.71104
LJ         -0.991034         1.52328         2.55153
LJ          0.244659         4.13345         1.90842
LJ         -0.398674        0.840936        -2.09568
LJ          -0.20944       -0.426264        0.229736
LJ         -0.838081         1.54038         1.26458
LJ         -0.255962       -0.745446       -0.852226
LJ          0.275319        -2.05658        -1.44137
LJ           0.90601       -0.665281      -0.0266898
LJ         -0.460578         1.81197        -2.85974
LJ           1.88553         5.97556        -3.19454
LJ           4.53696       -0.939102        -3.39932
LJ         -0.519767         3.78727       -0.546083
LJ          -1.40772         2.83065       -0.387952
LJ          -5.48001         3.18045        -2.45666
LJ           2.12233         2.29368         1.39243
LJ           4.39934         5.62858        -4.93662
LJ          -1.23493        0.548854         2.87799
LJ           1.08852       -0.992741        -2.49025
LJ           0.64646        0.963893        -1.55646
LJ          0.848047         -1.1043        -1.06678
LJ         -0.333994        0.537295        0.713593
LJ         -0.239003       0.0107142        -1.62955
LJ           -0.5168        -1.72101       -0.959058
LJ           -1.6395        0.816415        -2.07314
LJ          -1.60758        0.851557        0.969823
LJ           1.73288       0.0210285        0.719673
LJ         0.0544475        -1.48631         0.93122
LJ          0.133292        -2.18219          1.8314
LJ           -1.4326         -1.6787       -0.644187
LJ         -0.720892       -0.520969         1.27167
LJ          0.618574        -1.27814         1.83566
LJ           5.74876       -0.098388      -0.0448683
LJ          0.829889        -2.84376        0.914059
LJ           2.42545         -1.1345        0.635303
LJ          -1.19382       -0.442756       -0.370634
LJ          -1.43194         1.67694       -0.966553
LJ          0.142343       -0.400087         2.09827
LJ          -1.21906        0.655555        -1.01053
LJ          0.329754        -2.52526        0.108064
LJ          -0.31394         1.32788       -0.979983
LJ           1.35424         1.04977        0.994799
LJ           1.45007        0.165648       -0.418012
LJ           1.67989          -1.335       -0.262348
LJ          0.513292     -0.00010173       -0.955951
LJ           1.37725        -2.12936        -2.03856
LJ           2.61108       -0.136488        -2.31255
LJ          -1.16506        -0.42192        -1.43992
LJ          -3.73463         1.25572        -1.76008
LJ          -2.62804        0.827882        0.599663
LJ          -2.20884        -1.90409        -1.62864
LJ        -0.0774981         1.89765         2.14424
LJ         -0.338162        0.239374         -0.5143
LJ         -0.582108        0.598187         1.71734
LJ          0.812504         2.18931          1.3442
LJ           3.08205        -5.98211        -2.31629
LJ          0.359361         1.32103         1.11996
LJ          -3.62897         5.75334         5.36672
LJ          -6.40226         2.46743         4.80877
LJ          0.508211       -0.304806         1.13607
LJ          -0.20329         2.11716        0.676016
LJ          -2.52292         1.98814         2.21227
LJ          0.361393        0.144344         2.99236
LJ         -0.926179        -2.47376         1.43491
LJ          -1.15068        -1.52499         0.99302
LJ           1.88352        -0.88916         6.37065
LJ           3.90107        -1.12586         2.55415
LJ          0.652335        0.449042         0.46427
LJ           2.50649       -0.401549       -0.547948
LJ          -0.53367        -1.41527         1.87437
LJ           1.23293       -0.486642         2.39734
LJ          -1.25832         2.39297         1.91708
LJ          -1.78463        0.288657          1.8519
LJ           1.37987         1.43976         1.95512
LJ           2.19364         3.26961       -0.155091
LJ         -0.511169        -0.49824         3.16377
LJ          -1.51916       -0.506451         2.69461
LJ          -1.76186          1.8665        0.786267
LJ          0.540451        0.849733         2.10603
LJ           1.20597        -2.41535         1.77718
LJ          -4.94771       -0.395614         4.59875
LJ           5.96606        -3.32627        -1.14746
LJ          -5.80833         4.43764        -2.07012
LJ          -1.34282      -0.0744667         0.55304
LJ          0.469627          1.5026        0.131149
LJ           1.14837         2.53829        0.332413
LJ           3.04603        -2.39164        -3.60309
LJ           4.32052         3.10599        -4.73403
LJ          -2.49003         1.25065        -1.53568
LJ          -1.81748        -5.39976        -5.43938
LJ           5.98954         2.72101         2.73753
LJ           1.07136         1.42688       -0.701539
LJ          -1.99383      -0.0270681        -0.78614
LJ          -5.84857        0.480301       -0.684536
LJ           4.71187        -5.49493         2.10287
