108
#Comment!
LJ           2.71002        0.122595         1.33402
LJ           2.77744        -1.96772        -2.39484
LJ         -0.387654        -2.12568        0.358359
LJ           -2.5751         1.05511       -0.324328
LJ           1.62155       -0.675243         2.98556
LJ           1.93854        0.713507        -1.24702
LJ           2.38074         1.75746       0.0754155
LJ           1.46248        0.508924        -2.36412
LJ           1.08143       -0.498283         1.84627
LJ          0.829716        -1.73796        0.821102
LJ          -1.16526         2.53099         3.05919
LJ           1.73999         1.49223         2.65528
LJ          -1.05134        -1.24378       -0.944122
LJ           3.11728       -0.579438       -0.206062
LJ          -1.08629          -0.315         2.05771
LJ         -0.579571        0.626763         2.37045
LJ         -0.398365        -3.03122         -2.1319
LJ         -0.455409        0.766754        0.159147
LJ          0.981488         2.33468           2.534
LJ         -0.191271       -0.822769        -1.28322
LJ          0.324668        -2.04392         2.25457
LJ           0.92894         1.29981        -1.15483
LJ           2.72135        -1.03757        -1.29237
LJ          -5.84433           2.055        -6.09724
LJ           5.38131         1.72736         5.24195
LJ          -1.71754         1.71758       -0.108467
LJ          -2.97948        -5.00855        -1.36569
LJ          -1.69031        -5.79082       -0.720796
LJ           2.42434         2.33433         2.15201
LJ          -2.33809       -0.189355        0.877869
LJ         -0.415665       -0.960747        0.963508
LJ          -5.09224         6.09685       -0.220665
LJ          0.477307        -1.91092        -0.16272
LJ           1.92143       -0.482809        -1.74183
LJ          -1.69511         1.74143         1.12569
LJ           1.75687        -1.16556        -0.87193
LJ         -0.463109        -2.00606         1.47952
LJ           1.19231        -1.97298        -1.47651
LJ          -1.39866       -0.553634        0.728325
LJ           1.47209        0.894001       -0.343535
LJ           1.34636         1.43492        0.835239
LJ          0.416493       -0.784381         2.68562
LJ          -1.26849       -0.657161        -2.01025
LJ          -1.84477       -0.466205       -0.241119
LJ           1.49214        0.401395         1.46466
LJ          -1.57268        -4.32944         5.47016
LJ           1.80242       -0.575772        0.858668
LJ          0.755404        0.437633        0.628292
LJ          -1.60394       -0.135054        -1.19358
LJ         -0.719975       0.0873776         1.12642
LJ           0.39335         1.13686         2.83229
LJ         -0.822047         2.13296        -1.38113
LJ          -4.95023        -3.41492       -0.814451
LJ         -0.364706         2.50997       -0.233523
LJ          0.962439         1.26727         1.75872
LJ           3.38653        0.539642         2.13759
LJ          0.391306        0.663386       -0.552848
LJ          0.680449       -0.817451        -2.09631
LJ           1.28444        -1.48383         2.32368
LJ           1.88155          0.3429        0.496282
LJ          0.353883         1.34055        0.435389
LJ           2.48104         3.91429        -3.90137
LJ         -0.558992        -2.76244         2.45831
LJ          -2.14218     0.000450158        -2.02209
LJ         -0.765983         1.77373        0.634961
LJ          0.195841       0.0744586        -2.41162
LJ           2.43347        -1.34103         2.47135
LJ           2.39664        0.934237         1.88065
LJ          -3.00837        -1.28957        -3.88863
LJ         -0.511384         1.12709          1.3006
LJ          -3.18455        0.288647         6.38937
LJ           3.57175       -0.468119         1.73157
LJ          0.262906      -0.0607032         1.48291
LJ          0.377783         2.12913         1.23761
LJ          -1.60813        0.736326         1.55755
LJ           1.43908        0.636526         3.47669
LJ         -0.285319        -1.03769       -0.291259
LJ        -0.0656087         1.53823       -0.726204
LJ        -0.0213398         3.18981          4.3782
LJ            1.0155       -0.853637        0.358785
LJ          0.700401        0.224979         -1.5381
LJ          0.712253       -0.401491       -0.542389
LJ           2.42776      -0.0745106         2.49932
LJ         0.0216085       -0.206901        0.321195
LJ           1.51383         2.25963         1.52306
LJ          -1.43311        0.440375        0.307419
LJ          -1.28651         -1.7506         1.05338
LJ         -0.563313        0.403635        -1.32815
LJ           1.11754        0.391518         2.45335
LJ         -0.426652        -1.12913         2.02862
LJ          -1.23609         1.53576         2.31285
LJ           1.19759         2.16422         3.53235
LJ          0.516038     0.000491148         3.42259
LJ         -0.680409        -2.25308        -3.06407
LJ          -2.10177        -1.45374        0.464705
LJ           2.83319        -2.31624        -1.24915
LJ         -0.841201       -0.129091       -0.447146
LJ           1.12398         1.94678       0.0260454
LJ           1.78742       -0.349723       -0.237982
LJ           4.70075        0.429709        -5.45659
LJ           1.88793         3.54697       0.0217769
LJ          -1.54449        0.919124       -0.923305
LJ           2.68189          4.2066        0.881332
LJ          -3.07319        -1.55735        -6.26771
LJ           2.79709        0.463852        -1.93993
LJ          0.819653        -3.60185        -1.48175
LJ            4.8751        -5.78832        -3.16278
LJ           2.05063        -6.20067       -0.167393
