108
#Comment!
LJ           3.71354       -0.529898         1.32926
LJ           2.31262         2.35302        -1.99984
LJ           0.25592        -2.45094        0.731625
LJ          -2.15839        0.511522       -0.693774
LJ         -0.176566        0.327943         3.64501
LJ          0.136669       -0.145667        -2.73075
LJ           1.21583        0.826487        -1.32944
LJ          0.739723        -1.40292        -2.21473
LJ           1.36376       -0.357689          2.6571
LJ          0.220906       -0.974318         2.12793
LJ          0.219067         1.93729         2.23606
LJ          0.771119        0.997113          1.7913
LJ           -2.1447        -1.41812       -0.878952
LJ           3.73233         1.38437       -0.133275
LJ          -1.79582        -1.73345        0.399608
LJ          -1.60734       -0.886346         1.05471
LJ           -2.4122        -1.32199        -3.40124
LJ          0.670049       -0.138611        0.535812
LJ          0.316115         3.99909         4.68989
LJ          -0.63341       -0.907943        -1.07444
LJ          0.801054        -0.24342         4.34012
LJ          0.800384         1.82796       -0.717754
LJ           3.29805        0.862333       -0.918312
LJ          -5.04046        0.337499        -3.59202
LJ           3.40309         6.21082         5.39808
LJ         -0.100397         1.29509       -0.870613
LJ          -2.84044        -2.14749        -2.65338
LJ           5.67039        -6.36699        -1.12267
LJ           2.25349        0.777597         1.41861
LJ          -0.93136        -1.09208        0.109477
LJ         -0.380779        -2.12169         2.03448
LJ           5.93724         4.31432        -3.76904
LJ         -0.197773        -4.64945       -0.194118
LJ           1.72819         0.18142        -2.63086
LJ         0.0939693        0.656095         1.05972
LJ           3.04286       -0.336676        -1.41815
LJ           1.30199       -0.856386      -0.0151779
LJ        -0.0563612        -1.72537        -1.12878
LJ         -0.388316       -0.197383        0.364388
LJ            2.2757        0.396024        -0.87353
LJ           1.44235         2.24206        0.102978
LJ         -0.609248       -0.254282         2.48824
LJ           -1.4416       -0.822529         -2.3134
LJ          -1.33332       -0.343339       -0.612117
LJ           2.67662         -1.0819         1.03876
LJ          -3.94404        -4.49312        -5.98192
LJ           2.45248       -0.391003         1.99427
LJ           2.85874      -0.0585227        0.508521
LJ          -1.95696       -0.421938        -1.53698
LJ         -0.955267        0.270959         1.40707
LJ          0.847546         1.24413         2.93037
LJ         -0.151614         1.45199        -2.26304
LJ           5.34225        -4.23193        -1.66078
LJ          0.274887         1.67945         1.07742
LJ           0.90708       -0.170054         1.65844
LJ           3.24776         1.03899         1.00045
LJ           0.88029      -0.0196604       -0.701554
LJ           1.21016        -1.26372        -1.16927
LJ          0.581324       -0.730918         3.23389
LJ           3.78187        -0.51713        0.179598
LJ           1.34934        0.941907       -0.333288
LJ         -0.637419         4.72488        -4.31019
LJ           2.07974        -1.27526         2.38568
LJ           -1.6375        0.102772         -2.8718
LJ           1.64352         0.33484        0.689161
LJ          0.372555       -0.636887        -1.53465
LJ           1.00686        -1.77892         3.20271
LJ            2.4129         0.82588        0.235661
LJ         -0.434492        -5.50871        -2.35565
LJ         -0.208881        0.773525         2.06486
LJ          -1.51789        0.647603         6.36542
LJ           2.75809         1.40189         2.25708
LJ         -0.143461       -0.362359          1.3912
LJ           1.56563         1.48051         1.09148
LJ          -1.45011        0.046601        0.435849
LJ           1.30916        0.416035         3.50487
LJ          0.409804        -1.29263        0.853813
LJ          0.355584        0.738024      -0.0198099
LJ          0.650169         1.64092         5.07434
LJ           1.35604        -2.60104         1.53087
LJ           1.62854       -0.320358        -1.44565
LJ          0.299124       -0.877103       -0.450707
LJ           1.59293        0.538457         2.30742
LJ           1.63373        -1.15452         1.29458
LJ           1.59165         1.69633         2.21351
LJ          -1.10113        0.745519       -0.400524
LJ          -1.01462        -2.25177        0.854747
LJ           0.29027        0.572732        -1.86745
LJ          0.502993        0.215802         2.83359
LJ         -0.599808        -1.32432         1.43676
LJ         -0.494546         1.41714        0.207311
LJ          0.243395         3.56055          1.6952
LJ         -0.518325         1.05733         2.91106
LJ          -1.26632        -1.75764        -1.50398
LJ          -1.03534        -1.98214       -0.512962
LJ           0.90063         1.26313        -2.28567
LJ         -0.118005       0.0491642       -0.756846
LJ         -0.292678         2.48255        0.501113
LJ           2.38994        -3.12869         1.05628
LJ           5.37283          1.2985        -5.62466
LJ           1.78028         5.18406        0.115218
LJ          -0.99955        0.324154        -1.41821
LJ          0.821206         4.04093        0.485483
LJ           -2.8376        -1.19622         -4.3545
LJ           1.81567         2.53838       -0.799112
LJ          0.141544        -3.85699       -0.964289
LJ           0.53915        -1.78701       -0.106438
LJ           -5.8569        -4.74952         1.36776
