108
#Comment!
LJ         0.0309565        -1.64388      0.00366128
LJ           6.16819         3.03286        -5.14265
LJ          -1.45786         2.49472       -0.106685
LJ          0.484353       -0.924771        -3.87006
LJ          0.876247        -1.92367       -0.567005
LJ          0.437704         1.78601        -1.24044
LJ           1.40299        -1.83293        0.428785
LJ           1.42702         -1.7367         1.91151
LJ           2.19956        -2.46296        0.337152
LJ           1.71524        0.360301        -1.37229
LJ        -0.0401069         2.20907       -0.142875
LJ           1.45347     -0.00344714         1.15185
LJ        -0.0742152       -0.498243        -1.98972
LJ           1.92191        -0.70848        -1.61993
LJ         -0.890771         1.11345         1.48755
LJ         -0.821506         3.84154         1.60005
LJ          -1.03861        0.767649        -1.91714
LJ         -0.282956       -0.737446        0.511543
LJ           0.14518         2.47995          1.1798
LJ         -0.104391       -0.913772       -0.744801
LJ          0.757267        -2.09442        -1.91053
LJ           0.80747       -0.886036      -0.0676324
LJ          -1.06516         1.35188        -2.88593
LJ          0.602305         6.00651         -4.5672
LJ           6.24247        -2.97851        -2.16258
LJ        -0.0777653          2.7248        -1.52353
LJ          -2.07722         2.56408        -1.06725
LJ           6.37232         2.49894        -1.16808
LJ           2.00225         3.27171        0.581427
LJ           3.21238        -6.26487        -3.07885
LJ          -1.51858         1.06263         2.39553
LJ          0.929036      -0.0426607        -1.84248
LJ          0.145292        0.881234        -2.08169
LJ          0.886217          -1.137        -1.34367
LJ          -0.27937        0.341686        0.857359
LJ         -0.114042        0.225018        -1.21694
LJ          -1.23106        -1.76366       -0.833758
LJ          -1.97078        0.380546        -1.83277
LJ         -0.978544         1.08156        0.350904
LJ           1.80843       -0.632163         0.44283
LJ           -0.5393         -1.7436         1.04083
LJ         -0.643883        -2.67195         1.90229
LJ          -2.20329        -1.17395       -0.634145
LJ          -1.19023       -0.910451         1.13405
LJ          0.462145        -1.72479         1.67407
LJ           6.08947          2.6574        0.626134
LJ          0.648394        -2.87556       -0.133601
LJ           2.43694        -1.47586        0.612655
LJ          -1.03521       -0.713084       -0.434149
LJ         -0.937493          2.1445        -1.22339
LJ         0.0916448       -0.747289         1.55702
LJ          -1.28357        0.630222       -0.766377
LJ          -0.18977        -2.12884       -0.988254
LJ         -0.334644          1.2696       -0.704093
LJ          0.983126         1.13904        0.681118
LJ           1.85133        0.165807       -0.305565
LJ           1.71043       -0.925105       -0.588877
LJ          0.808792       -0.197157       -0.774995
LJ           1.90034        -1.73797        -2.23848
LJ           2.70707        0.072193        -1.23781
LJ          -1.23533       -0.334062         -1.5939
LJ          -4.23273          1.7128       -0.705422
LJ          -1.78321         1.51739         1.04752
LJ           -2.7669         -0.6801        -1.64329
LJ        -0.0983571         1.65104         2.51392
LJ          -0.24874        0.106483       -0.141549
LJ         -0.315067        0.328342         1.88511
LJ            1.1586         2.52281        0.558581
LJ           2.47616        -6.35244        -4.13977
LJ          0.662526        0.486976         1.52051
LJ          -3.25245        -5.04795         5.40429
LJ          -4.81158         3.44318         5.70966
LJ          0.855792        -1.03645        0.992427
LJ          0.979762         1.66979       -0.318984
LJ          -2.53707        0.477483         2.27717
LJ         -0.261006          0.7577         3.18838
LJ          -1.53426        -2.28936         1.62443
LJ          -1.25765        -1.51492        0.284979
LJ            1.7103        0.083529         6.03317
LJ           5.15536        -1.37999          2.4732
LJ          0.617058      -0.0893806        0.499107
LJ           2.76036       -0.749109       -0.132064
LJ         -0.427994        -1.49085         2.32948
LJ           1.00803       -0.563229         1.97311
LJ          -2.65944         1.87896         1.99786
LJ          -1.67104        0.248711         1.61429
LJ           1.84375       -0.267559         2.88037
LJ          0.676257         4.27019        0.679915
LJ         0.0766213       -0.513607         2.50511
LJ          -1.05858       -0.345666         2.66417
LJ          -1.06702         2.36624        0.848328
LJ          0.822244        0.346942         2.54349
LJ          0.300773        -2.66474         2.48048
LJ          -4.56093        -1.91301         5.29857
LJ           6.03118        -3.87027       -0.980394
LJ          -6.32226         3.85549        -2.57184
LJ          -1.27431        -0.02339          0.4161
LJ        -0.0629318         1.36583        0.914413
LJ          0.852049         3.19163         1.63013
LJ           2.94983        -2.26836        -2.39583
LJ           4.67335         3.22333        -3.39251
LJ          -3.27511        0.198598        -1.47033
LJ         -0.317001         6.40443         -4.3058
LJ           6.00647         3.73128         2.31768
LJ           1.96194         1.23759       -0.663113
LJ          -2.07515       -0.126399       -0.844303
LJ          -4.29258        -2.15537        -1.93787
LJ           2.79918        -5.28088        -1.54757
