108
#Comment!
LJ           1.97482        -0.96183         1.07055
LJ           3.23857        -1.57842         2.20367
LJ          -1.22166       0.0147609           2.456
LJ          -2.30481         2.82995         1.86233
LJ            3.0586        -1.90361        0.100678
LJ           2.07451         1.18433        -2.11289
LJ           1.48447         0.21477          1.7887
LJ           2.43795        0.447273       -0.963982
LJ            2.0123        -1.70732        0.245006
LJ           1.85651        -1.22795       -0.693242
LJ           -1.2225         3.00802        0.801247
LJ           1.85164         1.68474         2.42852
LJ         -0.475761        -2.14768        0.330479
LJ           2.65562        -0.52777       -0.439926
LJ          -1.02862        0.811476         3.40524
LJ         -0.332056         1.28999         1.76272
LJ           0.90782        -0.67876        -2.17873
LJ         0.0494743         0.84468        0.298571
LJ          -1.00415         2.01623         2.35833
LJ         -0.583361       -0.971017       -0.799962
LJ          0.755449        -4.04274        0.236949
LJ           1.57763        0.363429       -0.183543
LJ            1.7172        0.125938         -2.5513
LJ            5.3897         4.88655         2.14721
LJ          -3.36614        -5.87004         5.53136
LJ          -1.46983         2.88092        -0.46248
LJ          -3.42498         5.36294       -0.396368
LJ          -1.28328         6.24102         5.50911
LJ          0.607486          1.6533         2.12905
LJ          -4.16435         1.07646         1.94011
LJ         -0.760514        0.450337         1.01208
LJ          -1.56188        -3.49991         6.08174
LJ         -0.010154       -0.580507        -1.59657
LJ           0.82702        -1.22277        -1.22971
LJ          -0.60148         2.56889        0.019858
LJ            0.1338        -1.65214       -0.439918
LJ          -1.20037        -1.87099       -0.739218
LJ          0.291104        0.422163        -1.84738
LJ          -1.45375        0.932972         1.84485
LJ           2.10721         1.33449       -0.256249
LJ           1.82196        0.854057        0.841794
LJ           1.42848        -2.98296     -0.00259476
LJ          -1.70169        -1.06583       -0.215289
LJ         -0.894051        -1.00719        0.703984
LJ          0.679157        -0.53797         1.74659
LJ           2.64392        -3.86178         2.58697
LJ           1.10289        -2.05551       -0.414224
LJ            2.5029       -0.051001        0.691407
LJ          -1.22187       0.0793006       0.0214926
LJ          -1.75008         1.97067         1.54577
LJ          -2.20137        -0.14472         3.21588
LJ          -1.68862        0.756773       -0.685738
LJ         -0.928586        -2.51015         1.25511
LJ          -1.37619         2.36517        -1.37121
LJ          0.686309         1.29995         1.18416
LJ           2.37966         1.47232         1.44519
LJ           1.14732        -0.97943        0.129959
LJ         -0.431757        0.201756       -0.791998
LJ           2.17179        -2.44186       -0.764832
LJ           3.45017       0.0628486       -0.921839
LJ         -0.751855         1.22694        -1.15564
LJ          -4.85809         2.38584        -3.09218
LJ          -1.58051       -0.241988         1.16232
LJ          -1.46587       -0.385171        -1.55099
LJ          0.172882          2.1344       -0.643934
LJ          0.360819          1.7863        -1.56735
LJ          0.618219       -0.741563         3.14752
LJ           1.21164         1.95496         0.41419
LJ          -5.18229        -4.55544         5.29053
LJ          -0.96796         1.72423        0.834569
LJ          -5.06519        -2.89549         5.37504
LJ           1.50094       -0.649286         2.49875
LJ           1.17319      0.00480985        0.762738
LJ         0.0771106         2.34944        0.750021
LJ          -2.23335         2.06013         2.64116
LJ          0.193583        0.209582         3.51779
LJ          0.326151        -1.37811        0.528899
LJ          0.149675       -0.300226        0.342906
LJ           1.31009        -5.52137         5.95019
LJ          0.911153        -2.32253        0.703135
LJ          0.383214        0.942986       -0.690501
LJ          0.573714       -0.163232       -0.861687
LJ          -0.32012        -1.21125         1.48685
LJ           0.27089         0.33809         1.25431
LJ         -0.100644         1.05241         2.84325
LJ           -1.9805         1.11285        0.831388
LJ          0.880541        0.327009         2.69038
LJ           1.44901         2.12515        -1.84104
LJ         -0.199889       0.0783333         2.37147
LJ         -0.417131        -1.13307         2.78105
LJ          -2.47986         2.60856        0.574615
LJ         0.0571922         2.35446         2.92816
LJ           1.23505        -1.46109         1.89605
LJ           3.39501         4.96275        0.535023
LJ          -5.00682          5.0797         5.07046
LJ          -1.89718        -5.28689       -0.575476
LJ         -0.940067         1.27969      -0.0422767
LJ           1.24071         1.58976       -0.744395
LJ           1.63523       -0.386667        -1.20203
LJ           3.65365         -1.0255        -5.22689
LJ           3.20851         2.88143         2.08854
LJ          -1.70851         1.95028      -0.0973004
LJ           5.06327       -0.761274          2.8276
LJ          -4.59663       0.0251077         4.74681
LJ           1.26538        0.715712        -1.21337
LJ           0.38167        -2.27024        -1.26576
LJ          -0.23146        -1.83311         4.97723
LJ          -1.61085          5.0259         4.02397
