108
#Comment!
LJ          0.808179        -1.36477        0.308535
LJ           3.47119       -0.974385         3.48102
LJ           -2.6464        0.881991         0.75474
LJ         -0.719587        -6.34826       -0.741255
LJ           1.61961        -2.05063      -0.0340406
LJ           1.22654         1.89094        -1.15974
LJ           1.77725      -0.0292937         1.36548
LJ           2.82401       -0.482902        0.958073
LJ             2.252        -1.46535         1.31605
LJ          0.804946       -0.648996        -2.35535
LJ          -1.09057         2.75414        0.115756
LJ           2.32511        0.906363         1.81561
LJ         -0.677593        -2.79857       -0.896663
LJ            2.5099        -0.68924        -1.54543
LJ          -2.53194        0.895306         3.27745
LJ          0.497097         2.19505         1.55076
LJ          0.597759        0.298382        -1.86205
LJ         -0.259773       -0.143303        0.332911
LJ         -0.817139         1.46734         1.50298
LJ         -0.680005        -1.00427       -0.695181
LJ          0.966962        -2.22898       -0.855248
LJ           1.60538        0.124317       -0.108358
LJ           0.91161          1.4121        -2.18125
LJ           3.62552         5.63901       -0.746429
LJ          0.869303         2.84011        -5.65294
LJ          -2.00623         3.18108        0.698181
LJ          -3.26002         3.78494        0.307006
LJ           -3.4968         4.54255        -4.50877
LJ            1.6692         1.83575         2.13493
LJ           6.23525         3.52248          4.5342
LJ         -0.849564        0.419685         1.40435
LJ           0.56962        -1.45417        -2.95439
LJ         0.0187108       -0.435363        -1.51924
LJ          0.736576        -1.10673        -1.22747
LJ           -1.3385         1.82098        0.581494
LJ         -0.163505        -1.77291         -1.1955
LJ         -0.745262        -1.95248       -0.193485
LJ        0.00924634         1.31578        -1.52908
LJ          -1.87215         1.13678         1.58977
LJ           1.96207        0.903769        0.669804
LJ           1.80373       -0.911257        0.505921
LJ           1.30909        -2.22327         1.33264
LJ          -1.70698        -1.33489        0.520619
LJ          -1.16762       -0.673588         1.22555
LJ          0.589622        -1.28538         2.49017
LJ           4.74201        -2.84639        0.469398
LJ          0.412193        -2.60885        0.231829
LJ           2.64292       -0.576277        -0.45265
LJ          -1.42206       -0.304218       -0.254788
LJ          -2.30957         2.15873        0.737405
LJ         -0.409132       -0.870461         2.09193
LJ          -1.39215        0.756294       -0.557251
LJ         -0.471007        -3.60696      -0.0287718
LJ         -0.680039         1.60112       -0.361666
LJ           1.19103         1.61732        0.951064
LJ           1.60025         1.03667        -0.52686
LJ           1.64573        -1.01463       -0.617484
LJ          0.486944       -0.251065       -0.468468
LJ           1.89017        -1.47089        -1.78202
LJ           2.88044       -0.813194        -2.61015
LJ          -1.27212       -0.203606        -1.34573
LJ           -1.3274          1.3843         -2.3724
LJ          -2.46157        0.227294       -0.308946
LJ           -1.9825        -1.06629        -1.63419
LJ         -0.197587         1.88334        0.728079
LJ         -0.258274        0.602963       -0.683776
LJ         -0.783731          1.0147         2.96401
LJ           1.07466          2.6289         0.34711
LJ            5.3665        -5.05361         1.34938
LJ          0.234295        0.861666         1.36342
LJ          -4.37616         1.58503          5.2846
LJ           2.90414        0.705076         2.76043
LJ          0.974015       0.0470403        0.788166
LJ         -0.595722         2.94005         1.05385
LJ          -1.63346         2.35327         1.69225
LJ         -0.172178         2.00062          3.6998
LJ          0.128063        -2.20829         1.53815
LJ          -0.43796        -1.59636        0.802082
LJ           2.00536        -2.97685        -6.15518
LJ            2.4982        -1.68176         2.46459
LJ          0.378451        0.819971        0.260788
LJ           1.25425       -0.182497        -1.17302
LJ          0.300882       -0.839133         1.16833
LJ           1.17221        0.824449         1.98097
LJ          -0.64634         2.43235         1.96783
LJ          -1.63644         0.34963        0.633495
LJ        -0.0433249         1.37032         2.22174
LJ           2.36883         1.43815        -1.52531
LJ          0.259107      -0.0470661         2.61825
LJ         -0.979447        -1.67223         1.81953
LJ           -2.8453          2.1033         1.92647
LJ          0.749657         1.00564         3.16946
LJ           1.35832       -0.976788         1.70007
LJ          -6.35914         2.55473         3.12895
LJ          -6.33316        -4.60221        -3.61112
LJ          -4.65528         5.46923        -1.51272
LJ         -0.584137        0.997941        0.573511
LJ          0.370022         1.94442          -0.112
LJ           1.62436        0.782526        -1.64467
LJ           2.98839        -1.90367        -5.05363
LJ           3.77905          2.9968         5.43797
LJ          -1.64252         2.08086       -0.450545
LJ          -4.68005         -3.2402         5.27539
LJ          -6.23194        0.749993         3.94426
LJ          0.706045         0.85839       -0.946871
LJ          -1.45057        -2.12277        -1.76993
LJ           3.65079         5.46087         2.00002
LJ          -4.46956        -5.90769        -3.68006
