108
#Comment!
LJ            1.6132       -0.900159         1.27955
LJ           3.04506        -1.49964         1.91894
LJ          -1.25277       -0.205245          2.9135
LJ          -2.89584         2.80898         1.86216
LJ           3.02518        -1.76451       0.0519691
LJ           1.84059         1.01814        -1.80249
LJ           1.95687        0.538487         1.53288
LJ           2.46295        0.250372        -1.11862
LJ           1.75592        -2.00861        0.409261
LJ            2.0774        -1.28586       -0.567781
LJ          -1.47009         3.50633        0.686228
LJ           1.45105         1.15355         2.71792
LJ         -0.696256        -2.31597        0.135132
LJ           3.15126       -0.759305       -0.496056
LJ         -0.738699        0.987435         3.49537
LJ          -0.31629          1.0861         1.83363
LJ          0.932846        -1.03551        -2.32859
LJ          0.583194         1.09191        0.288314
LJ         -0.775532         1.96102         2.32122
LJ         -0.635135       -0.696074         -0.4581
LJ           1.02764        -3.94199        0.465612
LJ           1.40948        0.541698       -0.224443
LJ           1.67889      -0.0420072        -2.06793
LJ           5.53921         4.63306           2.573
LJ          -3.94759         -5.2672         5.49867
LJ          -1.72393         3.31916       -0.718476
LJ          -3.39257         5.60327       -0.489805
LJ          -1.06377        -6.41177         4.81415
LJ          0.471949         1.79293         1.99099
LJ          -3.71595        0.722456          1.5848
LJ         -0.736549        0.633971        0.926732
LJ           -1.8728        -3.79561         5.51144
LJ         -0.128147        -1.12675        -1.46002
LJ          0.939032        -1.41403        -1.34843
LJ         -0.921821         2.67462       0.0768516
LJ          0.252731        -1.58521       -0.491218
LJ         -0.881896        -1.98926         -1.0173
LJ          0.183143       0.0208787        -2.08091
LJ          -1.89466        0.451951         1.93298
LJ           2.41132         1.03778       -0.307409
LJ           1.76521         1.25331        0.594677
LJ           1.12788        -2.90122        0.198024
LJ            -1.834       -0.782484       -0.589149
LJ          -1.02648        -1.26254        0.383665
LJ           1.15162       -0.118956         1.74958
LJ           2.27427        -3.92777         2.88774
LJ           1.30034        -2.06236       -0.544503
LJ           2.25346       0.0921668        0.573867
LJ          -1.28627     -0.00923605        0.265549
LJ          -1.78508         1.80704         1.94487
LJ          -2.19565        0.334127         3.36344
LJ          -1.62901        0.831842       -0.642094
LJ          -1.18986        -2.57589         1.02149
LJ          -1.29948         2.37174        -1.53028
LJ          0.937692        0.963866         1.44299
LJ            2.3582         1.49274         1.71675
LJ           1.40458       -0.766496        0.162065
LJ         -0.506657        0.173058        -1.00971
LJ           2.44915        -2.35897       -0.580055
LJ           3.35254        0.621258       -0.572033
LJ         -0.792106         1.37415        -1.17508
LJ          -5.36659         2.52552        -3.16608
LJ         -0.979982       -0.447634          1.2154
LJ          -1.34917       -0.536304        -1.53295
LJ          0.134325         2.05009       -0.269453
LJ          0.634266         1.76585        -1.70501
LJ          0.628169       -0.922263          2.8847
LJ           1.03031         2.11641        0.244093
LJ          -4.95714        -5.47513         5.68646
LJ          -0.87788         1.64205         1.11142
LJ          -4.96505        -2.58583         5.60502
LJ           2.23022       -0.661951         2.26951
LJ           1.22845        0.230544        0.689158
LJ          0.083915         1.94049        0.808624
LJ          -2.35536         1.47183         2.86664
LJ         -0.283585      -0.0507069         3.28578
LJ         0.0341775        -1.11989        0.569745
LJ        -0.0169115       -0.141005        0.127807
LJ           1.19983        -5.89951         5.82127
LJ          0.470516        -2.16341        0.750933
LJ           0.30344         1.04334       -0.891095
LJ          0.533438       -0.331466       -0.830606
LJ         -0.191804       -0.613689         1.79656
LJ          0.231671        0.250008         1.29357
LJ          0.159849         1.28332         2.91227
LJ          -1.83648         1.34752        0.891961
LJ           1.06617         0.18963         2.97335
LJ           1.84404         2.11996        -1.75932
LJ          0.239428        0.213715         2.37733
LJ         -0.629466        -1.19451         2.89241
LJ          -2.50741         2.55701        0.854191
LJ          0.225121         2.49893         2.84827
LJ            1.0531        -1.75944         1.73593
LJ           3.01607         5.42258        0.145935
LJ          -4.79711         4.59621         4.42934
LJ          -1.38344        -4.90741       -0.361835
LJ         -0.576118         1.15384       -0.169235
LJ           1.20138         1.86774       -0.871154
LJ            1.5929       -0.344651       -0.991107
LJ           3.74939       -0.893812        -5.24952
LJ           2.97137         2.70612         1.50132
LJ          -1.53274         1.76308       -0.238175
LJ            4.5649       -0.390904         2.45582
LJ          -4.38372      -0.0846877         4.82189
LJ           1.01798        0.537086         -1.3638
LJ          0.515623        -2.31846        -1.55542
LJ         -0.817793       -0.958531         5.39166
LJ          -1.26793         4.63283         5.14045
