108
#Comment!
LJ           1.77735       -0.960983         1.24078
LJ           3.14359        -1.54459         2.03531
LJ          -1.19844      -0.0438786         2.86465
LJ          -2.71841         2.87752         1.89671
LJ           3.12925        -1.85454         0.11165
LJ           1.92111        0.972111        -1.87833
LJ           1.70478        0.490633         1.61157
LJ            2.3527        0.353926        -1.23761
LJ           1.91105         -1.9296        0.381944
LJ           2.03669        -1.22138       -0.602439
LJ          -1.37101         3.39991        0.780022
LJ           1.54249         1.44159         2.55913
LJ         -0.665466        -2.30529       0.0719617
LJ           2.97158       -0.724775       -0.501776
LJ         -0.873425        0.839279         3.44524
LJ         -0.293543         1.09543         1.86954
LJ          0.972984       -0.710353        -2.31132
LJ          0.316513         1.12367        0.337291
LJ         -0.794261         2.10562          2.4237
LJ         -0.679184       -0.885434       -0.685574
LJ          0.918055        -4.01317        0.385547
LJ             1.516        0.415495       -0.361078
LJ           1.65969       0.0410636        -2.29727
LJ           5.48334         4.72819         2.41343
LJ          -3.71073         -5.4987         5.51066
LJ          -1.60179         3.18492       -0.646458
LJ          -3.40519         5.51349       -0.454886
LJ          -1.14465         6.41987         5.07717
LJ          0.622831         1.70896         2.13249
LJ          -3.89368        0.852564         1.71737
LJ         -0.618458        0.510291        0.848824
LJ          -1.75611        -3.68469         5.72557
LJ       -0.00754827       -0.980094        -1.58647
LJ           1.00998        -1.25637         -1.2822
LJ         -0.821668         2.61229      -0.0335221
LJ          0.021471        -1.55555       -0.509195
LJ           -1.0354        -2.05795       -0.873489
LJ          0.339946         0.14743        -2.04509
LJ          -1.77146        0.503644         1.87465
LJ           2.34345         1.18732       -0.274764
LJ           1.79157         1.10243        0.710751
LJ           1.21912        -2.93378       0.0873855
LJ          -1.72973       -0.803466       -0.425184
LJ         -0.973007        -1.21511        0.586388
LJ           0.99326       -0.253329         1.85879
LJ           2.41341        -3.90463         2.77609
LJ           1.25465         -2.0778        -0.58953
LJ            2.2319        0.174765        0.727379
LJ          -1.32126      -0.0255451       0.0919872
LJ          -1.82821         1.86664         1.84193
LJ          -2.25753        0.134919         3.34522
LJ          -1.70377         0.83853       -0.716826
LJ          -1.11951        -2.59212         1.14909
LJ          -1.25766         2.24012        -1.47639
LJ          0.885472         1.07321         1.35831
LJ           2.33201         1.44429         1.65623
LJ           1.39465       -0.837624        0.195127
LJ         -0.495885        0.280866        -0.82175
LJ           2.33174        -2.31443       -0.711189
LJ           3.44244        0.416918       -0.700284
LJ         -0.800028         1.39502        -1.15141
LJ          -5.17596         2.47313        -3.13842
LJ           -1.2481       -0.293278         1.28458
LJ          -1.37477       -0.539964        -1.53584
LJ          0.111851         2.14177       -0.401342
LJ          0.625856         1.85428        -1.67531
LJ          0.631901        -0.89738         3.09196
LJ           1.21587         1.89039        0.309731
LJ          -5.06115        -5.12639         5.53837
LJ         -0.899049         1.67928         1.09178
LJ          -5.00275        -2.70038         5.51888
LJ           1.86707        -0.63765         2.29714
LJ           1.10228        0.111899        0.729575
LJ         0.0852698         2.13884        0.741857
LJ          -2.32182         1.70674         2.78535
LJ         -0.132704       0.0471704         3.27053
LJ          0.120484        -1.28083        0.630174
LJ          0.183393       -0.160021        0.327883
LJ           1.24169         -5.7576          5.8698
LJ          0.584417        -2.22123        0.768183
LJ          0.170536         1.09435       -0.879017
LJ          0.511468       -0.241913       -0.725465
LJ        -0.0846935       -0.673552         1.65943
LJ          0.246376        0.217094         1.23464
LJ         0.0800917         1.23232         2.93623
LJ          -1.96008         1.26613        0.888738
LJ           1.03509        0.197585         2.77933
LJ           1.71164         1.96568        -1.84446
LJ         0.0518444         0.23969         2.22799
LJ         -0.600882        -1.26663         2.87754
LJ           -2.5704         2.59909        0.711661
LJ          0.167163         2.38717         2.76815
LJ           1.19041        -1.65876         1.81037
LJ           3.15817         5.25062        0.291551
LJ          -4.87592          4.7772         4.66974
LJ          -1.57651        -5.05041       -0.442177
LJ         -0.661168         1.02547       -0.124073
LJ           1.17962         1.85307       -0.730399
LJ           1.56476        -0.39032          -1.013
LJ           3.71357        -0.94323        -5.24117
LJ           3.07308          2.7907         1.72346
LJ          -1.58249         1.90971       -0.179668
LJ           4.75563       -0.528202         2.59671
LJ           -4.4641      -0.0433367         4.79417
LJ           1.08369        0.517094        -1.35714
LJ          0.450512        -2.35779        -1.47353
LJ         -0.598124        -1.28762         5.23987
LJ          -1.39783          4.7722         4.71932
