108
#Comment!
LJ          -2.11361        -1.13002        -0.81814
LJ          -4.00735         -3.9627         -5.0465
LJ          -4.90047         -3.7613        -3.82706
LJ          -3.93845        -5.11638        -3.97927
LJ           1.09499        -3.31935        -2.26152
LJ         -0.606346       -0.387129        -2.94526
LJ           1.05532        -2.04264        -1.08055
LJ            1.1956        -2.83463       -0.162329
LJ         0.0524978        -1.63944        -1.77832
LJ           1.60601      -0.0798706       -0.629355
LJ           4.68442          3.5626         3.65634
LJ             1.719        -1.02754          1.4311
LJ           -1.5606       -0.792812        -2.78253
LJ         -0.115683         2.39074         -2.6579
LJ          -2.26189        0.979578        0.804975
LJ          -1.14887         1.95292       -0.914746
LJ          -1.37394     -0.00703424        -2.08966
LJ          0.364619        0.301288      -0.0116651
LJ          -1.32377        0.583837        -3.01424
LJ          -1.12171       -0.939732        -1.59587
LJ           1.01371         -1.9624        -2.26416
LJ           1.23867       -0.836201        -1.57861
LJ         0.0510739        -0.30203        -1.49701
LJ           5.73214        -3.36675        -6.41553
LJ          -1.17965          1.0765        -4.31961
LJ          0.519641         1.72237       -0.968472
LJ         -0.231795         2.40446       -0.536691
LJ           4.33091         -5.2246         4.49251
LJ         -0.661871         1.31979        -2.84741
LJ          -1.13792         2.21431        -2.04025
LJ          -3.34843         5.72882        -6.41427
LJ         -0.379507        0.629979        -2.03168
LJ          -0.32814        0.844402        -3.83615
LJ          0.571153         1.10125        -1.91424
LJ         -0.289021         1.71371        -1.73677
LJ           1.04469       -0.219311        -2.46205
LJ         -0.926527        -2.49918       -0.298818
LJ          -1.68366       -0.879837         1.33801
LJ          -2.37027      -0.0754427         1.76907
LJ          0.465652        -2.50564        0.787852
LJ         -0.974274        -1.22793       -0.586532
LJ          0.151273        -2.76532        -1.37277
LJ         -0.715014        -2.56219        0.866478
LJ        -0.0847484       -0.657144        0.164641
LJ           1.00219        -3.40846        -1.21148
LJ            5.7441        -6.43929        -3.35387
LJ        -0.0256612        -1.63252       -0.793254
LJ           2.03549        -1.24596       -0.856602
LJ          -1.09777        0.605689        -1.13156
LJ          -1.39713         1.09689        -1.92744
LJ         -0.331734      -0.0454004        0.962786
LJ          -1.55598        -1.65474        0.197145
LJ         -0.617258       -0.280382       -0.672563
LJ           1.17438         1.01343       -0.464908
LJ          0.577693        0.375809         1.15194
LJ          0.961115       -0.674329        0.661269
LJ          0.721072       -0.573873       -0.581289
LJ          0.954359        0.246719        -1.36687
LJ             1.918     -0.00702308         -1.7953
LJ          0.873683        -1.57796      -0.0181056
LJ          -2.98985       -0.431489       -0.786803
LJ          -6.34817         5.63289        -3.99508
LJ          -2.23754         1.50151        -1.06587
LJ           -2.1557        0.442999        -1.40204
LJ          0.370559         1.31345        0.406994
LJ        -0.0252757        0.552976       -0.869246
LJ         -0.802874        0.494688      -0.0200204
LJ         -0.662029         1.57709        0.200172
LJ           3.57198         4.76625         1.50703
LJ           4.81584         4.59962         3.19059
LJ          -3.09993         4.06639         4.88591
LJ           4.05494        -3.12605         4.87626
LJ          -1.69738        -2.99532        0.665081
LJ            3.5465         3.23879         4.40251
LJ          -0.61225        0.920916         2.20628
LJ          0.746775       -0.341596         2.01711
LJ         -0.985122        -3.51734         1.43382
LJ         -0.890795        -1.53317         1.10942
LJ          -3.36154        -6.41758         5.72869
LJ          -1.85475        -1.91621         1.15521
LJ         -0.299765        -1.70948        0.261571
LJ           1.52206         -2.1656        0.830167
LJ         0.0778271         -2.0664         2.14193
LJ          0.520667        -1.43628          1.1005
LJ          -2.10934       -0.141656        0.263787
LJ          -1.03527       -0.653678        0.441711
LJ          -2.64395        -2.80105        0.939142
LJ          -6.41016         -3.3553         5.73196
LJ           -1.2766       -0.102888         1.86048
LJ          -1.20551        -1.89689         2.10211
LJ         -0.383254        0.986924         1.19245
LJ         -0.330276       -0.967144         1.83193
LJ           1.81845       -0.999686         3.14466
LJ           4.04258         4.89559        -3.11589
LJ          -3.11062         4.88232         4.06063
LJ           5.32979         2.72688         5.58076
LJ          -1.36486        0.391047        0.949367
LJ          -1.67592        0.958883      -0.0891789
LJ          -1.35867         2.59557        0.446493
LJ          -2.93964        -1.32282        0.990192
LJ           1.92695         4.95347         4.50572
LJ           4.93269         4.09661        -3.03872
LJ           3.00671         4.35103         4.85814
LJ           4.88066        -3.09932         4.06989
LJ           3.55838         4.06629         3.53506
LJ          -5.99161         6.25664         -2.4848
LJ          -2.31495         6.26334        -6.39393
LJ          -4.98405        -2.19913        -6.14702
