108
#Comment!
LJ           2.60592        0.533741         1.61593
LJ           2.45647        -3.41683        -1.20108
LJ         -0.657295        -1.11191        0.640304
LJ          -2.39807        0.626545       -0.288495
LJ            1.5304        -1.86882         2.50035
LJ           2.13697         1.67268        -1.58905
LJ           2.60115         1.47639        0.573872
LJ           1.49985         0.19263        -1.54761
LJ          0.983309       -0.465742         1.12868
LJ          0.918291        -3.18345        0.688214
LJ          -2.09046         1.95207         2.18437
LJ           1.61296         1.61278         2.88419
LJ         -0.953966         -1.0818       -0.420204
LJ           2.51624        -1.23938       -0.476668
LJ          -0.96339       0.0671654          2.7814
LJ         -0.179774        0.826293         2.18005
LJ           0.22724        -2.66203        -1.64186
LJ         -0.469044         1.03543        0.416896
LJ          0.727465         2.25114         2.73714
LJ         -0.529384        0.201805        -1.39405
LJ          0.827118        -2.69463         1.88276
LJ           1.00462         1.11811        -1.15278
LJ           2.22226        -1.54179        -1.44622
LJ          -6.24517         2.75125         5.71704
LJ           6.25324        -0.18671           5.226
LJ          -2.12836         1.88944       0.0528798
LJ          -3.09062        -5.62477        -1.15805
LJ          0.170436        -5.38379     -0.00773351
LJ           2.57256         2.25826          2.5761
LJ          -3.18968        0.323213         1.38985
LJ         -0.475271       -0.306916         1.81084
LJ          -4.25444        -6.03819          1.2993
LJ         0.0973505        -1.46827        -1.62502
LJ           1.62446       -0.687455       -0.925119
LJ          -1.65862         2.17143        0.984696
LJ          0.922058        -1.49155       -0.652689
LJ          0.266771        -2.00226        0.941831
LJ          0.762849        -1.49692        -2.63724
LJ          -2.01159        -0.21657         1.94749
LJ           1.46442        0.945504      -0.0912631
LJ           1.43384         1.50662         1.10885
LJ          0.459177        -1.17199         1.74027
LJ          -1.01665       -0.873912        -1.68117
LJ          -2.01231       -0.337107        0.134682
LJ           1.54056        0.385035         1.48987
LJ         -0.556499        -4.24627         4.83811
LJ           1.89725        -1.23412        0.425898
LJ            2.4166        0.194068        0.570399
LJ           -1.8115     -0.00571975       -0.912338
LJ          -1.16021        0.379373         1.40379
LJ         -0.462308         1.79663         2.81575
LJ         -0.570256         1.48472       -0.969423
LJ          -3.77988        -3.09814       -0.450722
LJ          -0.46699         2.50578        -1.06792
LJ          0.750064         1.51515         1.85068
LJ           2.02851       0.0483553          2.4956
LJ          0.618721        0.344052        0.134911
LJ          0.487598       -0.374069        -1.93445
LJ           1.60074        -1.54279         1.33621
LJ           3.51402        0.401786        0.787065
LJ          0.555518         1.43104        0.108943
LJ           3.81525         3.55442        -3.71126
LJ          -0.15314         -2.0036         2.13466
LJ          -1.40002        0.172448        -2.14268
LJ         -0.950499         1.94157      -0.0197785
LJ         -0.299441        0.262312        -2.78027
LJ           2.39908       -0.536089         1.38535
LJ           2.38329          1.5867         1.68671
LJ           -3.8618        0.799365        -4.52263
LJ         -0.501033         2.14395         1.29043
LJ          -3.83889       -0.297376         6.44841
LJ           3.46471        -0.38322         1.49893
LJ            0.3637        0.761532         1.08238
LJ          0.597767         2.39901         1.03511
LJ          -2.39642        0.930669         1.94458
LJ           1.43183       -0.123984         3.36776
LJ         -0.033427       -0.531517       -0.336682
LJ          0.100276         0.74236       -0.684161
LJ          0.295775         4.23265         4.79784
LJ          0.521437        -1.01312         0.38786
LJ          0.272885        0.730804        -1.81554
LJ          0.771871      -0.0582749       -0.907488
LJ            1.6441       -0.852196         2.35373
LJ         -0.213138       -0.196228        0.687058
LJ           1.57836           2.448         2.01475
LJ          -1.97034        0.775842        0.666892
LJ         -0.838175        -1.23562         2.01659
LJ         -0.829024        0.968529        -2.07709
LJ          0.680273       -0.184468         2.04594
LJ        -0.0597246       -0.601212          2.7525
LJ          -1.09492         1.32996         2.08161
LJ          0.539969         1.12067         3.21503
LJ          0.938941        -1.09195         3.24038
LJ          0.208053        -4.01414        -2.62903
LJ          -3.75504        0.518709        0.409011
LJ           2.48187         -2.3263       -0.563297
LJ         -0.847613        0.127706       -0.357735
LJ           1.24441         2.14257       -0.717517
LJ           1.62708       -0.181268      -0.0306209
LJ            4.4452       0.0793852        -5.39674
LJ           1.83075         2.33883        0.744308
LJ          -1.38141         1.04261       -0.387368
LJ           3.06789         3.61235        0.601771
LJ           -3.1802        -1.29372         5.93722
LJ            2.1958       -0.557292        -1.88244
LJ           1.14462        -2.29633        -1.26003
LJ          -5.82123         5.23035        -4.49972
LJ            0.5949          5.4033        -1.06503
