108
#Comment!
LJ          -1.11317        -2.26482        0.299813
LJ          -5.22382         5.50905       -0.242944
LJ           2.52035         4.11258        -3.00082
LJ           3.40244         4.10981        -3.70285
LJ           1.54972        -1.73725        -1.53135
LJ         0.0522252         2.22631       -0.904148
LJ          0.838122        -1.74549      -0.0115416
LJ          0.953647        -3.39845        0.304451
LJ           1.13848        -2.42771        -0.73913
LJ           1.45631        0.492015       -0.443433
LJ           1.60206         1.37478        0.892701
LJ          0.946546        -1.23475         2.31946
LJ          -1.43052        -1.09346        -1.64821
LJ           0.84795         1.69906        -1.70722
LJ         -0.919629          1.7697        0.597714
LJ          0.153228         2.58521        0.166014
LJ          -1.53235          1.3702        -1.16543
LJ         -0.179851       -0.211528         0.33161
LJ         -0.666319         3.20233      -0.0326971
LJ         -0.151175       -0.650573        -1.25709
LJ          0.991001       -0.340055        -1.03689
LJ         -0.170378        -1.32593       -0.124339
LJ          -0.42031       -0.405022         -2.5768
LJ          0.795875         3.52039         2.45866
LJ          -1.59984         4.94758        0.437543
LJ         -0.307791         2.36838        -2.05873
LJ            1.7076         2.63687        -2.48669
LJ            3.8008         1.37907         1.95871
LJ          0.033463         3.59752       -0.823766
LJ            1.3753         4.83822          -1.157
LJ         -0.902655         1.25242         1.57761
LJ          0.543827         0.34186        -2.01741
LJ         -0.207949         1.24923         -2.3287
LJ           1.63713         1.02758        -1.46989
LJ          0.296361         1.51982        0.181813
LJ         -0.292374        0.866118        -1.27485
LJ         -0.916871        -2.80468       -0.992934
LJ           -3.1634       -0.752029        0.421409
LJ          -1.79236          1.0864        0.196886
LJ          0.919252        -1.76372         1.18121
LJ         -0.859659        -1.25111        0.672472
LJ         -0.390749        -3.35909      -0.0629226
LJ          -1.95831        -1.42739         0.78187
LJ         -0.720903       -0.380695         1.33448
LJ        -0.0188978        -3.95581        0.816557
LJ          -5.94973        -3.29933       -0.101646
LJ         0.0530124        -2.40779       -0.376457
LJ           1.43053        -2.42624        0.483761
LJ         -0.803032      -0.0485102       -0.565522
LJ          -1.20669         2.16948       -0.587255
LJ          0.484276       -0.107162         1.11477
LJ          -1.89529        0.443794       -0.660797
LJ         -0.595038        -1.79034        -1.14704
LJ          0.573004         1.28489       -0.834873
LJ          0.744277        0.575948        0.392318
LJ           1.26433       -0.772197         1.24397
LJ          0.871454       -0.702025      -0.0127412
LJ          0.122218        0.481792       -0.364761
LJ           2.09985      -0.0346663        -1.16963
LJ           2.18486       -0.407197        0.554071
LJ          -1.17907        0.254495        -1.66198
LJ           5.72068         4.12899         2.19451
LJ          -2.25062         1.86521       -0.443236
LJ          -1.11979        -1.05082       -0.594422
LJ          0.151459         1.42734         1.42559
LJ         -0.856966           1.137       -0.363784
LJ         -0.520154        0.771008        0.507252
LJ           1.21341         2.43006       -0.329469
LJ           2.92037         6.22009          5.7413
LJ           1.25469         1.84788          2.1021
LJ          -4.20491       -0.360664         6.31143
LJ          -1.13446         6.07913        -5.24846
LJ         -0.129328        -2.06297        0.658653
LJ            1.9686         1.88334       -0.125486
LJ         -0.150926        0.411279          1.8679
LJ           0.67855        0.927044         2.23132
LJ          -1.16505        -3.60276        0.741812
LJ           -0.7638        -1.97006         1.50962
LJ           1.20653          2.5657         5.03607
LJ          -4.61971        -2.02432         2.20552
LJ          0.312343        -1.05439         0.78221
LJ           1.99573        -1.72912       -0.129229
LJ          -0.26763         -2.9809         1.36959
LJ        -0.0355426       -0.997336         1.83915
LJ          -2.37468        0.315481        0.797231
LJ          -1.35621      -0.0566065        0.420766
LJ          0.202724        -3.74049         2.09237
LJ          -3.36163         2.00678         3.12435
LJ          0.683623      -0.0947745         2.12979
LJ          -1.13561        -1.25541         2.55535
LJ          -1.65083         2.48153        0.287939
LJ         0.0151575        -1.22194          2.9127
LJ         0.0850903         -2.2965         2.16633
LJ          -1.26161        -5.12266          6.1819
LJ           6.18785        -5.52568        0.282255
LJ          -6.34613         2.71394        -4.54891
LJ          -1.86793       -0.657393         2.04028
LJ          0.814266         2.27786        0.885693
LJ           1.11925         3.19498        0.405042
LJ            2.2404        -2.82012       -0.155308
LJ           5.22534         3.58823        0.455991
LJ          -5.20016         1.40232        -2.93056
LJ         -0.659368         5.30222         0.47724
LJ           5.64086         6.25595         2.74469
LJ            2.3981         1.67968         3.13141
LJ          -2.09603       -0.655928      -0.0765048
LJ          0.358085         4.07039        -4.62288
LJ          -5.14867       -0.227342         3.83001
