108
#Comment!
LJ          -4.54229        -4.53784        -4.54073
LJ          -0.23657       -0.239231        -3.88328
LJ          -3.88462       -0.237486        -0.23601
LJ         -0.231946        -3.88088        -0.23688
LJ          -1.01653        -2.91043        -2.91352
LJ          0.483223       -0.716484         -2.9913
LJ          0.262103        -1.12012        -1.12406
LJ          0.480514        -2.99318       -0.715484
LJ           1.65511        -2.02858        -2.03025
LJ           1.67002        0.157097       -0.714562
LJ          -3.38604         5.02271         5.02271
LJ           1.67163       -0.716367        0.159162
LJ          -2.92441         -1.0212        -2.92423
LJ         -0.713495        0.484441         -2.9924
LJ          -2.99263        0.486746       -0.714245
LJ          -1.11599        0.268239        -1.11556
LJ          -1.08631         -1.0874        -3.00283
LJ         -0.117824        -0.12185       -0.883377
LJ          -1.83757        0.196175        -2.67031
LJ          0.204479         -1.8344        -2.66332
LJ           2.22598       -0.756419        -2.15209
LJ           1.12605        -1.07982        -2.24316
LJ        -0.0194282       -0.883088        -2.08749
LJ           4.94563        -2.64511        -3.87999
LJ          -2.02999         1.65284         -2.0282
LJ          0.160134         1.66824       -0.718633
LJ          -0.71567         1.66684        0.162187
LJ           5.02271        -3.38604         5.02271
LJ         -0.750969         2.22846        -2.15378
LJ          -1.07875         1.12864        -2.24089
LJ           -2.6453           4.946        -3.88007
LJ         -0.886058      -0.0159885        -2.08444
LJ          0.225454        0.224274        -2.03278
LJ          0.440135        0.434706        -3.50023
LJ          0.344964         2.23022        -1.64121
LJ           2.22023        0.346676        -1.64029
LJ          -2.92331        -2.91955        -1.02077
LJ          -1.12093        -1.11631        0.265133
LJ          -2.99315       -0.716734        0.483736
LJ         -0.714482        -2.99323        0.481177
LJ          -1.08887        -3.00081          -1.087
LJ          0.200305        -2.66604        -1.83274
LJ          -1.83529        -2.66914        0.192542
LJ         -0.119474       -0.884446       -0.120044
LJ           2.22311        -2.14672       -0.755051
LJ           4.94575        -3.88019        -2.64553
LJ        -0.0175445        -2.08428       -0.882127
LJ           1.12641        -2.24368        -1.08071
LJ          -3.00742        -1.08581        -1.08483
LJ          -2.66521        0.202946         -1.8419
LJ         -0.883289       -0.118202       -0.115063
LJ          -2.66193        -1.83817        0.208213
LJ           -1.9589        -1.96999        -1.96321
LJ          0.829649        0.826956       -0.725661
LJ         -0.715703         0.82911        0.831188
LJ          0.825177       -0.734612        0.822262
LJ          0.745782       -0.153123       -0.152571
LJ          0.923965       -0.287589        -1.35808
LJ           1.70165       -0.900849       -0.898279
LJ          0.921852        -1.35888       -0.287573
LJ          -2.15818         2.23451       -0.750407
LJ          -3.87999          4.9458         -2.6452
LJ          -2.24128         1.12849        -1.07578
LJ            -2.087      -0.0170816       -0.887731
LJ         -0.145967        0.742589         -0.1509
LJ         -0.283346        0.919541        -1.36138
LJ          -1.36092        0.919871       -0.283114
LJ          -0.90325         1.69894       -0.904352
LJ           2.82301         2.82284         1.90028
LJ           3.11357         3.11396        0.673478
LJ         -0.449061         2.82751        -4.93904
LJ            2.8273       -0.449072        -4.93913
LJ          -2.03252        -2.02914          1.6524
LJ           5.02271         5.02271        -3.38604
LJ         -0.713436        0.162001         1.67007
LJ          0.159734       -0.716328         1.66929
LJ         -0.752345        -2.15269         2.22613
LJ         -0.884173        -2.08281      -0.0162892
LJ          -2.64552        -3.88026         4.94603
LJ          -1.08167        -2.24326         1.12766
LJ          0.226843         -2.0353        0.226062
LJ           2.22422        -1.64014        0.350474
LJ          0.346118        -1.63852         2.22772
LJ          0.441324         -3.5018        0.438885
LJ          -2.15436       -0.752238         2.23205
LJ          -2.08819       -0.883657      -0.0158103
LJ          -2.24334        -1.07709         1.12938
LJ           -3.8799        -2.64508         4.94554
LJ         -0.146088       -0.152909        0.746291
LJ         -0.898141       -0.902784         1.69764
LJ          -1.36172       -0.286182        0.920365
LJ         -0.285911        -1.36023        0.918861
LJ           2.82251         1.89989         2.82268
LJ           2.82787        -4.93962       -0.449282
LJ         -0.449282        -4.93937         2.82761
LJ           3.11312        0.673204         3.11329
LJ          -2.04331        0.227682        0.225317
LJ          -1.64171         2.22353          0.3433
LJ          -3.49836        0.435002        0.437197
LJ          -1.64309        0.344508         2.22032
LJ           1.90025         2.82269         2.82303
LJ          -4.93779         2.82658       -0.449433
LJ          0.673457         3.11389         3.11353
LJ          -4.93872       -0.449161         2.82748
LJ          -5.34493        -5.34492        -5.34492
LJ           1.88138         1.87594        -1.01464
LJ          -1.02302         1.88044          1.8835
LJ           1.88582        -1.00667          1.8702
