108
#Comment!
LJ          -1.59815        -1.11601        -1.52546
LJ          -3.22214        -3.18986        -4.95638
LJ          -4.84269        -3.03349        -3.08146
LJ          -3.17472        -5.00429        -3.20305
LJ          0.625283        -3.68571        -2.49095
LJ        -0.0756658       -0.473356        -2.70115
LJ          0.903951         -1.7271        -1.04548
LJ           1.27882        -2.49226       -0.250148
LJ          0.400063        -1.86464        -2.02489
LJ           1.88409       -0.137054       -0.616971
LJ           5.00691         3.94505         4.07984
LJ           1.00607        -1.14862          1.4568
LJ          -1.85777        -1.08284        -2.75174
LJ         -0.165863         2.28944        -2.58585
LJ          -2.35718        0.893486         0.73112
LJ           -1.0841        0.936243        -1.31319
LJ          -1.17813      -0.0930156        -1.97094
LJ          0.108793        0.117439      -0.0884577
LJ          -1.27198        0.233374        -3.04226
LJ         -0.466048        -1.13487        -1.85453
LJ           1.33062        -2.05449        -2.38181
LJ           1.11526       -0.843963        -2.13316
LJ          0.171288        -0.36566        -1.68382
LJ           6.09205          -4.026         -5.6127
LJ           -1.9402         1.28616        -3.45209
LJ          0.307004         1.86256       -0.757695
LJ          0.010992         2.63477       0.0413313
LJ           4.26122         5.89005         4.36939
LJ         -0.865444         1.22785        -3.08252
LJ          -1.17777         1.84827        -2.31829
LJ          -4.02696         6.09032        -5.61096
LJ         -0.475908        0.719397        -2.26816
LJ         0.0668279        0.645762        -3.29381
LJ          0.538587         1.12577        -1.82944
LJ         -0.320395         1.69773        -1.60047
LJ          0.823784        0.145252        -2.37783
LJ           -1.4346        -2.81061       -0.207784
LJ          -1.40409         -0.7003        0.980669
LJ          -2.06229        0.122709         1.54009
LJ          0.388757        -2.86899         1.01194
LJ          -1.20282        -1.92459       -0.722317
LJ         -0.260954        -2.26491        -1.17974
LJ          -1.02745        -2.69695        0.783497
LJ          0.172826       -0.891938        0.462494
LJ           1.13554        -3.12824        -1.37269
LJ           6.08969        -5.61456        -4.03005
LJ        -0.0949137        -1.30676       -0.577359
LJ           2.02341        -1.60172       -0.672977
LJ          -1.49393       -0.220142       -0.505657
LJ          -1.94415         0.98283        -2.22029
LJ         -0.575692       -0.200878        0.724818
LJ          -1.76373        -1.77265        0.398893
LJ         -0.458939       -0.349919       -0.790699
LJ           1.07911        0.743131       -0.348246
LJ          0.284034        0.521484        0.995486
LJ           1.03289      -0.0478348        0.362326
LJ          0.842635       -0.555228       -0.730641
LJ           1.16393        0.262816         -1.3892
LJ           2.13487         0.24662        -2.05173
LJ          0.865013        -1.49125       0.0464255
LJ          -3.05869         0.91427        -0.53769
LJ          -5.61141         6.09121         -4.0259
LJ          -2.28646         1.73869       -0.853842
LJ          -1.91385        0.283844        -1.29366
LJ          0.173721         1.20985        0.153103
LJ        -0.0678403        0.778496        -1.02145
LJ         -0.863366        0.645604      -0.0225866
LJ         -0.861847         1.66426       -0.475836
LJ           3.69681         4.33363         1.28896
LJ           4.57259          4.4463         3.19386
LJ          -2.57651         3.85477         5.45665
LJ           3.85434        -2.57759         5.45649
LJ          -1.75885        -3.47728        0.876193
LJ           4.27194         3.95588         4.97562
LJ         -0.256072         0.47016         2.22042
LJ          0.550375       -0.174904         1.87772
LJ          -0.99621        -3.44003         1.72373
LJ         -0.680753        -1.53128        0.722517
LJ          -4.02909        -5.61293         6.09007
LJ          -1.69717        -2.47575         1.50734
LJ         -0.118457        -2.24198       -0.041597
LJ           1.39138        -2.17073        0.791665
LJ         -0.444723        -2.39278         1.62889
LJ           0.26099        -1.80408        0.996017
LJ          -2.23728       -0.536036        0.206463
LJ          -0.89913       -0.940602      -0.0703045
LJ          -2.86011        -2.26585        0.900214
LJ          -5.61238         -4.0255         6.09125
LJ          -1.01787        -0.22119          1.8454
LJ          -1.20331        -1.42965         1.81887
LJ         -0.736118           1.068         1.01621
LJ          -0.13988       -0.949721         1.50563
LJ           2.74802       0.0305044         3.45141
LJ           3.85709         5.45322        -2.57628
LJ          -2.57749         5.45599         3.85456
LJ           4.81657         3.01473         4.90671
LJ          -1.57369          0.2165        0.542452
LJ          -1.85643        0.688276       -0.342621
LJ          -1.95041          2.0453        0.789583
LJ          -3.19803       -0.246258          1.1547
LJ           1.51334         4.41721         4.25276
LJ           5.46102         3.85439        -2.57182
LJ           2.97517         4.40733         4.47266
LJ           5.45642         -2.5733         3.85689
LJ           3.88207         4.64843         3.99489
LJ           5.51485          5.0916         -1.2474
LJ          -0.78638         5.13231         5.26407
LJ           6.01678       -0.907806         5.38022
