108
#Comment!
LJ          -2.33662        -2.33662        -2.33662
LJ           -1.4871         -1.4871        -2.80045
LJ          -2.80045         -1.4871         -1.4871
LJ           -1.4871        -2.80045         -1.4871
LJ         -0.806326         -2.5521         -2.5521
LJ          -1.06519        -3.08827        -4.03614
LJ         -0.754411        -1.82909        -1.82909
LJ          -1.06519        -4.03614        -3.08827
LJ          0.310768        -2.18166        -2.18166
LJ           1.85847       -0.749379        -2.66232
LJ           2.89029        -5.13057        -5.13057
LJ           1.85847        -2.66232       -0.749379
LJ           -2.5521       -0.806326         -2.5521
LJ          -3.08827        -1.06519        -4.03614
LJ          -4.03614        -1.06519        -3.08827
LJ          -1.82909       -0.754411        -1.82909
LJ         -0.639077       -0.639077        -1.59905
LJ         0.0828781       0.0828781        -1.58213
LJ          -1.30631       -0.380791         -2.7087
LJ         -0.380791        -1.30631         -2.7087
LJ           1.93382      -0.0339424        -3.95165
LJ           1.54514        0.577584        -2.80985
LJ          0.605079        -1.08137        -2.02961
LJ           2.85856       0.0575729        -3.03099
LJ          -2.18166        0.310768        -2.18166
LJ         -0.749379         1.85847        -2.66232
LJ          -2.66232         1.85847       -0.749379
LJ          -5.13057         2.89029        -5.13057
LJ        -0.0339424         1.93382        -3.95165
LJ          0.577584         1.54514        -2.80985
LJ         0.0575729         2.85856        -3.03099
LJ          -1.08137        0.605079        -2.02961
LJ         -0.231121       -0.231121        -3.04092
LJ          0.577752        0.577752        -2.32531
LJ           1.09914         1.86292       -0.690733
LJ           1.86292         1.09914       -0.690733
LJ           -2.5521         -2.5521       -0.806326
LJ          -1.82909        -1.82909       -0.754411
LJ          -4.03614        -3.08827        -1.06519
LJ          -3.08827        -4.03614        -1.06519
LJ         -0.639077        -1.59905       -0.639077
LJ         -0.380791         -2.7087        -1.30631
LJ          -1.30631         -2.7087       -0.380791
LJ         0.0828781        -1.58213       0.0828781
LJ           1.93382        -3.95165      -0.0339424
LJ           2.85856        -3.03099       0.0575729
LJ          0.605079        -2.02961        -1.08137
LJ           1.54514        -2.80985        0.577584
LJ          -1.59905       -0.639077       -0.639077
LJ           -2.7087       -0.380791        -1.30631
LJ          -1.58213       0.0828781       0.0828781
LJ           -2.7087        -1.30631       -0.380791
LJ          -0.48034        -0.48034        -0.48034
LJ          0.371332        0.371332       -0.447502
LJ         -0.447502        0.371332        0.371332
LJ          0.371332       -0.447502        0.371332
LJ          0.538903       -0.667736       -0.667736
LJ           1.11383      -0.0877706        -1.61747
LJ           1.36751      -0.0556792      -0.0556792
LJ           1.11383        -1.61747      -0.0877706
LJ          -3.95165         1.93382      -0.0339424
LJ          -3.03099         2.85856       0.0575729
LJ          -2.80985         1.54514        0.577584
LJ          -2.02961        0.605079        -1.08137
LJ         -0.667736        0.538903       -0.667736
LJ        -0.0877706         1.11383        -1.61747
LJ          -1.61747         1.11383      -0.0877707
LJ        -0.0556792         1.36751      -0.0556792
LJ           1.12878         1.12878       0.0141036
LJ          0.878749        0.878749        -1.10834
LJ           1.69323          2.7192       -0.862915
LJ            2.7192         1.69323       -0.862915
LJ          -2.18166        -2.18166        0.310768
LJ          -5.13057        -5.13057         2.89029
LJ          -2.66232       -0.749379         1.85847
LJ         -0.749379        -2.66232         1.85847
LJ        -0.0339424        -3.95165         1.93382
LJ          -1.08137        -2.02961        0.605079
LJ         0.0575729        -3.03099         2.85856
LJ          0.577584        -2.80985         1.54514
LJ         -0.231121        -3.04092       -0.231121
LJ           1.86292       -0.690733         1.09914
LJ           1.09914       -0.690733         1.86292
LJ          0.577752        -2.32531        0.577752
LJ          -3.95165      -0.0339424         1.93382
LJ          -2.02961        -1.08137        0.605079
LJ          -2.80985        0.577584         1.54514
LJ          -3.03099       0.0575729         2.85856
LJ         -0.667736       -0.667736        0.538903
LJ        -0.0556792      -0.0556792         1.36751
LJ          -1.61747      -0.0877707         1.11383
LJ        -0.0877706        -1.61747         1.11383
LJ           1.12878       0.0141036         1.12878
LJ            2.7192       -0.862915         1.69323
LJ           1.69323       -0.862915          2.7192
LJ          0.878749        -1.10834        0.878749
LJ          -3.04092       -0.231121       -0.231121
LJ         -0.690733         1.86292         1.09914
LJ          -2.32531        0.577752        0.577752
LJ         -0.690733         1.09914         1.86292
LJ         0.0141036         1.12878         1.12878
LJ         -0.862915          2.7192         1.69323
LJ          -1.10834        0.878749        0.878749
LJ         -0.862915         1.69323          2.7192
LJ           1.50721         1.50721         1.50721
LJ           2.20486         2.20486       0.0801636
LJ         0.0801636         2.20486         2.20486
LJ           2.20486       0.0801636         2.20486
