108
#Comment!
LJ          -1.78487        -1.78487        -1.78487
LJ          -1.99856        -1.99856        -3.00539
LJ          -3.00539        -1.99856        -1.99856
LJ          -1.99856        -3.00539        -1.99856
LJ           -2.0979        -3.07044        -3.07044
LJ          0.481793        -2.62018         -4.1409
LJ          -1.17601        -2.52078        -2.52078
LJ          0.481793         -4.1409        -2.62018
LJ          0.432081        -2.98537        -2.98537
LJ           1.90545        -1.51013        -2.98141
LJ          0.957153        -2.03862        -2.03862
LJ           1.90545        -2.98141        -1.51013
LJ          -3.07044         -2.0979        -3.07044
LJ          -2.62018        0.481793         -4.1409
LJ           -4.1409        0.481793        -2.62018
LJ          -2.52078        -1.17601        -2.52078
LJ          -1.12219        -1.12219        -2.55801
LJ         0.0406324       0.0406324        -2.55281
LJ         -0.957936       -0.120064        -1.70229
LJ         -0.120064       -0.957936        -1.70229
LJ           1.54414        -1.55891        -4.13837
LJ           1.99705         1.01942         -3.0729
LJ           1.44836         0.10302        -2.52582
LJ           3.06201        -1.55866        -2.61928
LJ          -2.98537        0.432081        -2.98537
LJ          -1.51013         1.90545        -2.98141
LJ          -2.98141         1.90545        -1.51013
LJ          -2.03862        0.957153        -2.03862
LJ          -1.55891         1.54414        -4.13837
LJ           1.01942         1.99705         -3.0729
LJ          -1.55866         3.06201        -2.61928
LJ           0.10302         1.44836        -2.52582
LJ          0.923819        0.923819        -3.00779
LJ          0.707091        0.707091        -1.78432
LJ          0.923867         1.92989        -2.00012
LJ           1.92989        0.923867        -2.00012
LJ          -3.07044        -3.07044         -2.0979
LJ          -2.52078        -2.52078        -1.17601
LJ           -4.1409        -2.62018        0.481793
LJ          -2.62018         -4.1409        0.481793
LJ          -1.12219        -2.55801        -1.12219
LJ         -0.120064        -1.70229       -0.957936
LJ         -0.957936        -1.70229       -0.120064
LJ         0.0406324        -2.55281       0.0406324
LJ           1.54414        -4.13837        -1.55891
LJ           3.06201        -2.61928        -1.55866
LJ           1.44836        -2.52582         0.10302
LJ           1.99705         -3.0729         1.01942
LJ          -2.55801        -1.12219        -1.12219
LJ          -1.70229       -0.120064       -0.957936
LJ          -2.55281       0.0406324       0.0406324
LJ          -1.70229       -0.957936       -0.120064
LJ         -0.968937       -0.968937       -0.968937
LJ         -0.100682       -0.100682       -0.978174
LJ         -0.978174       -0.100682       -0.100682
LJ         -0.100682       -0.978174       -0.100682
LJ          0.622782          -0.958          -0.958
LJ           1.46906       0.0426043        -1.12018
LJ           0.62539       -0.119361       -0.119361
LJ           1.46906        -1.12018       0.0426043
LJ          -4.13837         1.54414        -1.55891
LJ          -2.61928         3.06201        -1.55866
LJ           -3.0729         1.99705         1.01942
LJ          -2.52582         1.44836         0.10302
LJ            -0.958        0.622782          -0.958
LJ         0.0426043         1.46906        -1.12018
LJ          -1.12018         1.46906       0.0426043
LJ         -0.119361         0.62539       -0.119361
LJ           1.44708         1.44708        -1.17811
LJ           1.99656         1.99656        -2.09735
LJ           1.54364         3.06281        0.481112
LJ           3.06281         1.54364        0.481112
LJ          -2.98537        -2.98537        0.432081
LJ          -2.03862        -2.03862        0.957153
LJ          -2.98141        -1.51013         1.90545
LJ          -1.51013        -2.98141         1.90545
LJ          -1.55891        -4.13837         1.54414
LJ           0.10302        -2.52582         1.44836
LJ          -1.55866        -2.61928         3.06201
LJ           1.01942         -3.0729         1.99705
LJ          0.923819        -3.00779        0.923819
LJ           1.92989        -2.00012        0.923867
LJ          0.923867        -2.00012         1.92989
LJ          0.707091        -1.78432        0.707091
LJ          -4.13837        -1.55891         1.54414
LJ          -2.52582         0.10302         1.44836
LJ           -3.0729         1.01942         1.99705
LJ          -2.61928        -1.55866         3.06201
LJ            -0.958          -0.958        0.622782
LJ         -0.119361       -0.119361         0.62539
LJ          -1.12018       0.0426043         1.46906
LJ         0.0426043        -1.12018         1.46906
LJ           1.44708        -1.17811         1.44708
LJ           3.06281        0.481112         1.54364
LJ           1.54364        0.481112         3.06281
LJ           1.99656        -2.09735         1.99656
LJ          -3.00779        0.923819        0.923819
LJ          -2.00012         1.92989        0.923867
LJ          -1.78432        0.707091        0.707091
LJ          -2.00012        0.923867         1.92989
LJ          -1.17811         1.44708         1.44708
LJ          0.481112         3.06281         1.54364
LJ          -2.09735         1.99656         1.99656
LJ          0.481112         1.54364         3.06281
LJ          0.961235        0.961235        0.961235
LJ           1.90622         1.90622         0.43239
LJ           0.43239         1.90622         1.90622
LJ           1.90622         0.43239         1.90622
