108
#Comment!
LJ          -2.06956        -1.23776       -0.331595
LJ           -4.4436        -4.46904        -5.90439
LJ          -5.15971        -4.40527        -4.03915
LJ          -4.69326        -5.39814        -4.46102
LJ           1.45827        -2.68436        -1.37586
LJ          -0.67761        0.434202         -2.3906
LJ          0.948314        -1.77527        -1.04227
LJ          0.863106        -2.73403       -0.362938
LJ        -0.0310588        -1.47649        -2.02018
LJ           1.64145       0.0206145        0.118858
LJ           4.42819         3.15789          3.4529
LJ           1.66627         -1.1925         1.51451
LJ           -1.6257        -1.08698        -2.37092
LJ         0.0146974         2.58159        -2.15841
LJ           -2.3224        0.746309        0.377787
LJ          -1.09715         2.08014       -0.643805
LJ          -1.35823     -0.00857699        -1.66707
LJ          0.615829        0.250847        0.308081
LJ          -1.63333        0.982478        -2.91363
LJ         -0.990576        -1.01264        -1.52097
LJ          0.969046        -1.73662        -2.60181
LJ           1.09372       -0.912244        -1.58175
LJ         0.0666802        -0.48268        -1.29067
LJ           4.98032        -2.76522         6.12914
LJ         -0.900978         1.71515        -5.65198
LJ          0.812107          1.7875        -1.85725
LJ          0.290838         1.85474       -0.590573
LJ           4.57066         -3.4355         4.46784
LJ         -0.685442         1.57273        -2.62922
LJ          -0.97838         2.20428        -1.78773
LJ          -2.76128         4.83068         6.15705
LJ         -0.179678        0.478671        -1.51404
LJ        -0.0254944        0.949778         -3.3633
LJ          0.436835        0.957744         -2.3638
LJ         -0.211878         1.50243        -1.58365
LJ          0.382737       -0.194021         -2.3565
LJ          -0.87223        -2.25919       -0.916046
LJ           -2.0108       -0.873398         1.61493
LJ          -2.15998        0.299195         1.57929
LJ          0.636302        -2.38915        0.844167
LJ         -0.989461        -1.24074       -0.429273
LJ          0.117024        -2.60338        -1.41896
LJ         -0.693533        -2.17376         1.24415
LJ         -0.150455       -0.644671        0.231999
LJ          0.840794        -3.82185        -0.64714
LJ           5.91967         5.31102        -2.75298
LJ       -0.00992942         -1.4224       -0.845278
LJ            1.9094       -0.826833       -0.643872
LJ          -1.34326        0.825194       -0.831084
LJ           -1.3057         1.18746         -1.9074
LJ         0.0338853      0.00660835         1.13125
LJ          -1.35484        -1.53765        0.653871
LJ         -0.692807      -0.0537718       -0.588257
LJ          0.979762          1.0115       -0.694382
LJ           1.01088        0.575298         1.22897
LJ           1.17082       -0.723491        0.612971
LJ          0.908779       -0.675424        -0.54696
LJ          0.929038         0.22895        -1.31173
LJ           1.85329       -0.179947        -1.63891
LJ          0.660783         -1.6415       0.0546231
LJ          -2.59091       -0.998365        -1.20414
LJ           5.76933          5.2898         -5.5557
LJ          -2.55141         1.16226        -1.46548
LJ          -1.67819       -0.347974       -0.756913
LJ          0.999981         1.29259        0.282314
LJ         -0.173452        0.831034       -0.539616
LJ          -0.46625         0.41787        0.297259
LJ          -1.05768         1.27199        0.166556
LJ           3.49015         5.13982         1.81426
LJ           4.32627         4.25364         3.47612
LJ           -3.5696         3.46441         5.23706
LJ           3.32342        -3.67506         5.25078
LJ           -1.2869        -2.40377        0.129651
LJ           3.37429         2.68544            3.68
LJ         -0.764889        0.963686          1.5317
LJ          0.584168       -0.417882         2.01755
LJ          -1.27418        -3.22214         1.21904
LJ         -0.723361       -0.947369         1.17321
LJ           -2.5318         6.19281         5.21278
LJ          -2.28173        -2.07781         1.43569
LJ         -0.336593        -1.75759        0.243346
LJ           1.75324        -1.88453        0.541374
LJ         -0.124654        -2.12328          2.0017
LJ          0.291725        -1.44616         1.18066
LJ          -2.43269       -0.322466        0.592742
LJ           -1.3109       -0.471716        0.245035
LJ          -2.35343        -3.18388         1.20066
LJ           6.16557        -2.69691         4.99415
LJ          -0.57479       -0.206015         2.10175
LJ          -1.26194        -1.50306         1.92683
LJ          0.157005         1.17996        0.979607
LJ         -0.231682       -0.978768         2.86195
LJ           0.81543        -1.75077         2.37777
LJ           3.37428         5.20059        -3.67232
LJ          -3.60897         5.21475         3.43738
LJ           5.68914         2.60701         6.05207
LJ           -1.1475        0.206853         0.97384
LJ          -2.08373         1.68962        -0.15132
LJ         -0.318904         2.54099       0.0285244
LJ          -2.75579        -2.26157        0.330984
LJ           2.41255         5.35979          4.7344
LJ           5.33909         3.55967        -3.41507
LJ           3.19967         4.35067         4.62686
LJ           5.14508         -3.6653          3.5488
LJ           3.25039         3.89521         3.47182
LJ          -5.08958        -5.30973         -2.0312
LJ          -3.94858        -5.50802        -5.46361
LJ          -3.24859        -3.55212        -4.83257
