108
#Comment!
LJ          -3.85852        -3.85581        -3.85758
LJ         -0.338355       -0.339909        -4.00713
LJ          -4.00831       -0.338065       -0.337596
LJ         -0.335988        -4.00642       -0.339032
LJ         -0.758351         -3.0014        -3.00357
LJ          0.763974       -0.394819        -3.15975
LJ          0.349812        -1.18404        -1.18425
LJ          0.763571        -3.16138       -0.393849
LJ           1.27351        -2.13785        -2.13794
LJ           1.60339        0.268341       -0.509963
LJ          -2.52519         5.03463         5.03463
LJ           1.60284       -0.510351        0.268309
LJ          -3.00871       -0.759719        -3.00811
LJ         -0.392722        0.764315         -3.1616
LJ          -3.16064        0.764929       -0.393789
LJ          -1.18695        0.347883         -1.1865
LJ          -1.00461        -1.00546        -2.85658
LJ         -0.204265       -0.202286        -1.05954
LJ          -1.81803       0.0388562        -2.61291
LJ         0.0425615        -1.81965        -2.60974
LJ           2.08252       -0.389248        -2.26973
LJ           1.04051        -1.07497         -1.9962
LJ        -0.0426809       -0.829646        -2.28657
LJ           4.66565        -2.39531        -3.63157
LJ          -2.13817         1.27481        -2.13591
LJ          0.267993         1.60085       -0.513412
LJ         -0.511706         1.60136        0.264607
LJ           5.03463        -2.52519         5.03463
LJ         -0.387996         2.08221        -2.27203
LJ           -1.0746         1.04152        -1.99312
LJ          -2.39549         4.66597        -3.63165
LJ         -0.830627      -0.0430986        -2.28574
LJ          0.304516         0.30509        -2.38783
LJ           0.64534        0.645175        -3.51278
LJ          0.292642         2.36888        -1.38729
LJ           2.36365        0.291411        -1.38887
LJ          -3.00857        -3.00537       -0.759364
LJ          -1.18692         -1.1856        0.348561
LJ          -3.16055       -0.395328        0.763801
LJ         -0.393526        -3.16243        0.763648
LJ          -1.00514        -2.85601        -1.00518
LJ         0.0414046        -2.61068        -1.81837
LJ          -1.81693        -2.61158       0.0377417
LJ         -0.205519        -1.05893       -0.203391
LJ           2.08125        -2.26742       -0.388757
LJ           4.66576        -3.63176        -2.39568
LJ         -0.042476        -2.28558       -0.829424
LJ           1.04072        -1.99673        -1.07453
LJ          -2.85979        -1.00514        -1.00425
LJ          -2.61052       0.0396362        -1.81769
LJ          -1.05733       -0.204007       -0.204451
LJ          -2.60953        -1.81742       0.0413445
LJ          -2.12865        -2.13398         -2.1305
LJ          0.708516        0.706224       -0.902168
LJ          -0.90316        0.708213        0.709024
LJ          0.708372       -0.904972        0.706702
LJ          0.656231       -0.256966       -0.255234
LJ          0.921647       -0.146183        -1.47951
LJ           1.37672       -0.950802       -0.951403
LJ          0.919513        -1.47939       -0.146362
LJ          -2.27451         2.08463       -0.387988
LJ          -3.63158         4.66579         -2.3954
LJ          -1.99418         1.04104        -1.07504
LJ          -2.28683      -0.0434985       -0.830956
LJ         -0.254683        0.658198       -0.255736
LJ         -0.144458        0.921399        -1.47772
LJ          -1.47912        0.921719       -0.143062
LJ         -0.948763         1.37556       -0.947004
LJ           2.62074         2.62062         1.75884
LJ           2.81257         2.81287        0.627533
LJ          -0.21276         2.70818        -4.64861
LJ           2.70801       -0.212781        -4.64867
LJ          -2.13871        -2.13788         1.27416
LJ           5.03463         5.03463        -2.52519
LJ         -0.510404        0.265352         1.60195
LJ          0.270751       -0.511289         1.60116
LJ         -0.387436           -2.27         2.08164
LJ         -0.829789        -2.28413      -0.0431392
LJ          -2.39567        -3.63182           4.666
LJ          -1.07469         -1.9944          1.0422
LJ          0.304154        -2.38916        0.305339
LJ           2.36497        -1.38798        0.293138
LJ          0.292301        -1.38684         2.36676
LJ          0.645646        -3.51338        0.645946
LJ          -2.27325       -0.389525         2.08394
LJ          -2.28745       -0.829484      -0.0433544
LJ          -1.99515        -1.07566         1.04039
LJ           -3.6315        -2.39529         4.66557
LJ         -0.253665       -0.256198        0.657261
LJ         -0.950079       -0.947586         1.37571
LJ          -1.48068       -0.144294        0.921648
LJ         -0.145432        -1.47761        0.920942
LJ           2.62028         1.75879         2.62047
LJ           2.70843          -4.649       -0.212952
LJ         -0.212953        -4.64886         2.70826
LJ           2.81229        0.627159         2.81242
LJ          -2.38796        0.304138        0.304074
LJ          -1.38695         2.36612        0.291941
LJ          -3.51239        0.645127        0.644956
LJ          -1.38743        0.292716         2.36458
LJ           1.75895         2.62045         2.62076
LJ          -4.64772         2.70753       -0.213061
LJ          0.627423         2.81283         2.81253
LJ          -4.64837       -0.212843         2.70817
LJ          -5.80648        -5.80648        -5.80648
LJ           1.34175         1.33958         -1.1826
LJ          -1.18542         1.34094         1.34185
LJ           1.34374        -1.18192         1.33914
