108
#Comment!
LJ          -1.84602        -2.03476       -0.249069
LJ          -4.56118        -5.09321         5.34332
LJ          -5.76686        -5.24065        -4.04951
LJ          -6.32841        -6.37805        -3.96878
LJ           1.61823        -2.36359        0.708225
LJ         -0.640152        0.966762        -2.26411
LJ           1.44246        -1.70295       -0.753224
LJ          0.360852        -2.48216      -0.0945595
LJ         -0.478464        -2.07093        -1.96369
LJ           1.35202        0.526283       -0.326678
LJ           3.50005          2.8998         3.21242
LJ           1.38265        -1.87645         1.46828
LJ         -0.880563        -1.30391        -2.59851
LJ         -0.280758         3.17124         -1.3567
LJ          -1.67616        0.838584        0.236575
LJ         -0.736965         2.05485        -1.14693
LJ          -1.60596        0.159878        -1.29938
LJ           0.46389       0.0891115        0.150604
LJ          -2.35705         1.60195        -1.81407
LJ          -0.97709       -0.914558        -1.23055
LJ           1.28165        -1.30219        -2.83601
LJ           1.08297       -0.782832        -1.61309
LJ         0.0471369       -0.985304        -1.73819
LJ           4.10683         -1.9195         4.82264
LJ         -0.479491         2.60894          5.4697
LJ          0.765842         2.31822        -2.09511
LJ           1.08469         2.25016       -0.838076
LJ           4.23009        -1.20794         4.05442
LJ         -0.317694         1.96097        -2.17373
LJ          -1.12791         2.66244         -1.9732
LJ          -1.97856         3.64849         5.44604
LJ         -0.405357        0.324375        -1.46405
LJ          0.724564          1.3755        -3.26011
LJ          0.439966        0.800869        -2.31442
LJ         0.0934087           1.336        -1.43318
LJ         -0.781534       -0.312438        -2.18661
LJ          -1.36672        -1.97285        -1.27091
LJ           -1.9398       -0.726613         1.46193
LJ          -2.01853        0.911011         1.23861
LJ          0.512906         -2.5019        0.964751
LJ         -0.962632        -1.37971       -0.127284
LJ         -0.619595        -2.85593        -1.03554
LJ          -1.77022         -1.2439        0.619282
LJ         -0.227507       -0.629046        0.434282
LJ           0.28581        -3.56437       -0.458742
LJ           6.17557         3.44186        -2.02239
LJ         -0.105355        -1.62198       -0.614516
LJ           2.45193       -0.812829       -0.650576
LJ          -1.02312        0.487475       -0.523628
LJ          -1.18672         1.16363        -1.39884
LJ         0.0425686        0.101727         1.18926
LJ          -2.73044       -0.919292       -0.113785
LJ         -0.115997       -0.413165        -0.75458
LJ           1.23188          1.2119        -1.30591
LJ           1.04919        0.565654         1.08366
LJ           1.00285        -0.52561         0.78726
LJ          0.977843       -0.529658       -0.518764
LJ          0.692097        0.191401        -1.20373
LJ           1.83192      -0.0173583        -1.41996
LJ          0.698572        -1.42055        0.144804
LJ          -2.02043        -1.11663        -1.09764
LJ           4.53349         4.80363         5.15366
LJ          -2.31307         0.88577        -1.08921
LJ          -1.48551       -0.541567       -0.415305
LJ          0.801207         1.17121        0.226289
LJ         0.0563399        0.719018       -0.524999
LJ         -0.556598        0.589344        0.431275
LJ         -0.554662         1.49489       -0.134723
LJ           3.40373         5.57407         2.44377
LJ           4.04957         3.86799         3.70741
LJ          -4.15285         2.79392         5.77303
LJ           2.16471        -4.20862         5.92517
LJ          -0.82543        -2.41197       -0.176781
LJ           3.19777         2.05432         2.41117
LJ         -0.548694        0.767729         1.77249
LJ          0.886919       -0.342549          1.9776
LJ          -1.26952        -3.35073         1.00005
LJ         -0.755122        -1.00263         1.29008
LJ          -1.37306         5.50339         4.68919
LJ           -1.6942         -2.3976         1.69939
LJ         -0.276607         -1.8025        0.627653
LJ           2.06389        -1.23257        0.352419
LJ         -0.612437        -2.26493         1.57647
LJ          0.260743        -1.10236         1.36272
LJ          -2.32941      -0.0344845        0.541023
LJ           -1.3253      -0.0817205        0.813598
LJ          -2.12365        -3.53705         1.74391
LJ          -6.45384        -1.70889         4.38925
LJ        -0.0375779       -0.844805         2.49108
LJ          -1.44322        -1.37039         2.15938
LJ        -0.0828637         1.56578         1.04469
LJ           0.19201        -1.15229         3.56631
LJ          0.392107         -2.1478         1.90272
LJ           2.47661         5.60125         -4.4798
LJ          -4.31711         5.65935         2.63261
LJ           6.19974         2.45121        -6.19818
LJ           -1.5765        0.235926         1.99646
LJ          -1.73382          2.1016       -0.533149
LJ          0.340589           2.293        0.216822
LJ          -1.29191        -4.10427      -0.0425964
LJ            3.3678         5.70448         4.96376
LJ            5.9274         2.96635        -3.89379
LJ           3.25996         4.34865         4.17569
LJ           5.27066        -4.37051         3.31534
LJ           2.81864         3.36734         3.79523
LJ          -3.80347        -3.32286        -1.45547
LJ          -5.91284        -3.28329        -5.24654
LJ         -0.895081        -5.81341        -2.93842
