108
#Comment!
LJ           2.57847      0.00797917          1.3454
LJ           2.62762        -2.21129         -2.2934
LJ          -0.23416        -1.88356         0.47428
LJ          -2.70966        0.858757       -0.169227
LJ           1.68657       -0.833215          3.1271
LJ           1.96491        0.566683        -1.17043
LJ           2.48576         1.80537        0.285316
LJ           1.64671        0.566992        -2.17935
LJ           1.17878       -0.510122         1.69283
LJ          0.769617        -1.83711        0.671073
LJ          -1.31235         2.47404         2.97544
LJ           1.72869         1.58755         2.65348
LJ           -1.2703        -1.17545         -0.8528
LJ           2.83899       -0.617559       -0.306446
LJ          -1.15431        -0.20128         2.06809
LJ         -0.362511        0.605972         2.23842
LJ         -0.289054        -3.05763        -2.00525
LJ         -0.516954        0.848298       0.0852688
LJ          0.971631         2.23599         2.27487
LJ         -0.284915       -0.696107        -1.45963
LJ          0.532174        -2.28275         2.25255
LJ          0.940417         1.44957        -1.26162
LJ           2.68919        -1.19138         -1.2854
LJ          -5.89823         2.15807        -6.25311
LJ           5.50337         1.45139         5.23513
LJ          -1.68865         1.86521       -0.194934
LJ          -2.99896        -5.09577        -1.33956
LJ          -1.31988        -5.83447       -0.648883
LJ           2.43203         2.25665         2.13739
LJ          -2.41082        0.153166        0.852183
LJ         -0.531296       -0.997936          1.1202
LJ          -4.97347         6.20904     -0.00256265
LJ          0.631261        -1.83989       -0.486378
LJ           1.91809       -0.330724        -1.60612
LJ          -1.73684         1.61934         1.21579
LJ            1.6472        -1.17735       -0.810326
LJ         -0.408623        -2.01663         1.60168
LJ           1.23096         -2.0369        -1.65214
LJ          -1.51775       -0.716824        0.887851
LJ           1.48971        0.921839        -0.32921
LJ           1.44774         1.31747        0.911916
LJ          0.483029        -0.87441         2.51619
LJ          -1.16054       -0.776794        -2.05544
LJ           -1.9373       -0.434523      -0.0636479
LJ           1.55694        0.511052         1.59843
LJ          -1.42758        -4.31814         5.38032
LJ           1.96041       -0.618445        0.933947
LJ          0.988824        0.387556        0.555949
LJ          -1.57477       -0.231922        -1.12317
LJ         -0.877648        0.161039         1.08592
LJ          0.293349          1.2798         2.70404
LJ          -0.78916         2.10359        -1.30098
LJ          -4.78523        -3.36858       -0.762267
LJ         -0.382131         2.72271       -0.398529
LJ           0.93008         1.35861          1.7606
LJ           3.21089        0.372013         2.28792
LJ          0.463095        0.644295       -0.277161
LJ          0.640158       -0.781995        -2.01378
LJ           1.34744        -1.47432         2.13066
LJ           2.07889        0.628827        0.527654
LJ          0.329229         1.41784        0.596879
LJ           2.67175         3.86325        -3.87466
LJ         -0.574536        -2.75833         2.44136
LJ          -2.16682       0.0583413        -2.06459
LJ         -0.761074         1.93107        0.274389
LJ        -0.0220421        0.169418        -2.46256
LJ           2.52508         -1.2359          2.2845
LJ           2.39871         1.05733         1.88499
LJ           -3.1331       -0.991713        -3.97815
LJ         -0.692582         1.18225         1.39161
LJ          -3.28797        0.241278         6.39808
LJ           3.50689       -0.499375         1.73523
LJ          0.194489        0.196708         1.40931
LJ          0.518942         2.17149         1.25458
LJ           -1.6116        0.624015         1.58026
LJ           1.48492        0.345978         3.49768
LJ        -0.0801575        -1.09199       -0.215061
LJ          -0.10169         1.63461       -0.641591
LJ         0.0215097         3.34815         4.44767
LJ          0.878005       -0.689045         0.31525
LJ          0.688075        0.167575        -1.48737
LJ          0.788229       -0.376448       -0.647855
LJ           2.30997       -0.135658         2.42034
LJ         -0.154232       -0.149141        0.449967
LJ           1.64134         2.17901         1.42314
LJ          -1.48608         0.48464        0.292352
LJ          -1.39895        -1.72452         1.08223
LJ         -0.549329        0.507367        -1.59521
LJ          0.989431        0.314799         2.46264
LJ         -0.564741        -1.07396         2.27488
LJ          -1.31916         1.55906         2.32017
LJ           1.13571         2.03589         3.49653
LJ          0.573787       -0.207357         3.45398
LJ         -0.581255        -2.49295        -3.08064
LJ          -2.37855        -1.28373        0.505411
LJ           2.85073        -2.40985        -1.15253
LJ         -0.806279       -0.123185        -0.37299
LJ           1.07699         1.83504       -0.144818
LJ           1.88443     -0.00968187       -0.362691
LJ           4.66334        0.378873        -5.44661
LJ           1.86161         3.36286       0.0796145
LJ          -1.53137        0.929865       -0.682273
LJ           2.78217         4.17345        0.861889
LJ          -3.07841        -1.55648        -6.37577
LJ           2.69668        0.277643        -1.91837
LJ          0.847693        -3.45608        -1.48361
LJ           5.19379         -6.0608        -3.35381
LJ           1.74308        -6.29072       -0.263353
