108
#Comment!
LJ          -3.43118        -3.38686        -3.41566
LJ          -1.31039        -1.29505        -4.51577
LJ          -4.51021        -1.26175        -1.28404
LJ          -1.29212        -4.52562        -1.29873
LJ          -0.77699        -2.04901        -2.05951
LJ          0.751998       -0.662013        -2.87722
LJ          0.267889       -0.949344        -1.05182
LJ          0.837421        -2.89793       -0.651863
LJ           1.53578        -2.15379        -2.10137
LJ           1.77605         0.29103        -0.89052
LJ          -6.11881         4.99312         4.99322
LJ           1.77444       -0.961748        0.318151
LJ          -1.88896        -0.83331        -1.96511
LJ         -0.539119        0.803666         -2.8004
LJ          -2.82657        0.718207       -0.602155
LJ          -1.05718        0.185557       -0.952824
LJ         -0.866612       -0.857837        -3.06466
LJ        -0.0154894        0.039327       -0.772057
LJ          -1.65272        0.628916        -2.50167
LJ          0.501383        -1.61237        -2.51709
LJ            2.0652        -0.98544        -2.52106
LJ            1.2535        -1.00002        -1.84746
LJ         -0.360774        -1.19503        -2.02032
LJ           5.82942        -3.69123        -4.41059
LJ          -2.09398         1.59671        -2.19279
LJ          0.315837         1.84666         -1.0269
LJ         -0.940142         1.76861        0.287309
LJ           4.99253        -6.11817         4.99248
LJ          -1.01204         2.04095        -2.52683
LJ          -1.07343         1.24633        -1.83579
LJ          -3.69143         5.82985        -4.41056
LJ          -1.17101       -0.224339        -1.95685
LJ        -0.0864251       -0.148265        -2.24949
LJ          0.728101        0.744148        -2.32415
LJ         -0.136861         1.66062         -2.2655
LJ           1.53609       -0.126537        -2.42256
LJ          -1.91769        -2.00767       -0.798355
LJ          -1.07753       -0.940736        0.237623
LJ          -2.82855       -0.687429        0.697275
LJ         -0.597085        -2.83218        0.822166
LJ         -0.833409        -3.04584       -0.843943
LJ           0.55471        -2.49402        -1.62575
LJ          -1.67825         -2.5197        0.592889
LJ        -0.0527224       -0.808592      -0.0387717
LJ           2.05758          -2.532       -0.997557
LJ           5.82953         -4.4107        -3.69166
LJ         -0.323854        -1.91484        -1.13267
LJ           1.24191        -1.87116        -1.02329
LJ          -3.13313       -0.822713       -0.832598
LJ          -2.45036        0.543369        -1.61785
LJ         -0.717267       0.0742907       0.0657478
LJ          -2.42416        -1.64436        0.483814
LJ         -0.882825       -0.795599       -0.775268
LJ          0.976229         1.01762       -0.198446
LJ         -0.131295         0.93712        0.911023
LJ          0.999435       -0.180588         1.02921
LJ          0.916906        -0.35049       -0.289528
LJ          0.910182      -0.0680773        -1.33425
LJ           1.73451       -0.798343       -0.752827
LJ          0.880696        -1.37433      -0.0932381
LJ          -2.55081          2.1107        -1.00396
LJ          -4.41049         5.82965        -3.69131
LJ          -1.81568         1.28908        -1.04382
LJ          -2.02141       -0.312564         -1.1721
LJ         -0.313649        0.980323       -0.309518
LJ         -0.135374        0.877167        -1.39906
LJ          -1.37056        0.874182       -0.135243
LJ         -0.755358         1.77543        -0.79517
LJ           3.21275         3.21405         2.37642
LJ           3.81476         3.81495         1.70368
LJ          -1.19958         3.19024        -5.83444
LJ           3.18985        -1.19956        -5.83465
LJ           -2.0837        -2.18327         1.58943
LJ             4.993         4.99285        -6.11857
LJ         -0.873562        0.300079         1.76844
LJ          0.296581        -1.02329         1.83904
LJ          -1.02823        -2.53967         2.04959
LJ          -1.13899        -1.92489       -0.262415
LJ          -3.69167        -4.41074         5.82983
LJ          -1.04996        -1.83058         1.29339
LJ        -0.0835442        -2.37749      -0.0960792
LJ           1.56496        -2.35044       -0.112523
LJ         -0.126736        -2.32625         1.64477
LJ            0.7747        -2.33898        0.740285
LJ          -2.50516       -0.991939         2.08334
LJ          -2.00284        -1.15643       -0.372031
LJ          -1.80297        -1.00485         1.30944
LJ          -4.41045        -3.69123         5.82937
LJ         -0.271277       -0.348431        0.950841
LJ         -0.755629       -0.771216         1.77308
LJ          -1.34505       -0.104983        0.893457
LJ         -0.160598        -1.40391        0.846087
LJ           3.21354         2.37491         3.21327
LJ           3.19092        -5.83575        -1.19987
LJ          -1.19987        -5.83508         3.19039
LJ           3.81415           1.702         3.81409
LJ           -2.1773       -0.144978        -0.11029
LJ           -2.3336         1.62616       -0.167524
LJ          -2.34405        0.818784        0.790093
LJ          -2.44341        -0.14464         1.54418
LJ           2.37621         3.21424         3.21262
LJ          -5.83181         3.18835         -1.2002
LJ           1.70361         3.81518         3.81512
LJ          -5.83381        -1.19975          3.1901
LJ           5.76321         5.72785          5.7508
LJ           2.95976         2.93779       -0.440597
LJ         -0.462378         2.96388         2.97724
LJ           2.97823        -0.41452         2.91286
