108
#Comment!
LJ           1.17458        -1.15763        0.872554
LJ           3.17434        -1.47792         2.95749
LJ          -2.65317        0.304673          1.0473
LJ         -0.894699         5.71209      -0.0434753
LJ           1.71189        -1.99003        0.178365
LJ            1.9299         1.70715         -1.5415
LJ           1.86235        -0.31115         1.26282
LJ           2.64736        0.249986        0.684386
LJ           2.19839        -1.29168         1.24068
LJ         0.0684319       -0.922596        -1.88582
LJ          -1.04489          2.9097        0.186218
LJ           1.98025         1.71587         1.33747
LJ         -0.804621        -3.29849       -0.365346
LJ           2.23203       -0.646536        -1.33222
LJ          -2.55751        0.945254         2.79773
LJ          0.400973         1.86362         1.75996
LJ          0.747888       0.0687938        -2.56735
LJ         -0.192236       -0.229058        0.687005
LJ         -0.641899         1.50507         1.64804
LJ         -0.723472       -0.771441       -0.671481
LJ           1.08144        -2.20096       -0.940626
LJ           1.44974        0.125595       -0.403811
LJ           1.21522         1.18299         -2.3458
LJ           4.11646         5.55363      -0.0505212
LJ         -0.154033         3.87383        -6.26381
LJ           -2.0166           2.703         0.59509
LJ          -3.41197         4.20025        0.114728
LJ          -2.96681         4.96066        -5.03739
LJ           1.23984         1.56058          2.4358
LJ          -6.09183         2.87013         3.72457
LJ          -1.30358        0.253144          1.2642
LJ         0.0245816        -2.00779         -4.0186
LJ          -0.30547       0.0111978        -1.60373
LJ           0.35579        -1.22664        -0.85008
LJ           -1.1385          1.6748        0.733341
LJ         0.0906541        -2.55255       -0.741702
LJ          -1.23943        -2.23722        -0.53711
LJ          0.234395        0.951251        -1.85162
LJ          -1.72916         1.12858         1.72899
LJ           1.70402        0.722824        0.701595
LJ            1.9353       -0.544701        0.239941
LJ           1.29606        -2.34043         1.41272
LJ          -1.35201         -1.0589        0.117284
LJ          -1.10305        -0.81159         1.12045
LJ          0.472721       -0.568551         2.46425
LJ           4.30016        -3.17241        0.981028
LJ          0.633525        -2.02345        0.201822
LJ           2.78263        -0.53564       -0.288383
LJ          -1.12776       0.0232446       0.0653961
LJ          -2.22849         1.68762         0.73018
LJ         -0.804464       -0.585823         2.20942
LJ          -1.60792         1.15701       -0.568753
LJ         -0.713932        -3.79654        0.709553
LJ         -0.566208         1.91688        -0.53542
LJ           1.02578         1.73659        0.768788
LJ           2.17418         1.23888       -0.010896
LJ           1.15805        -1.08443       -0.243224
LJ          0.365339       -0.141343       -0.350331
LJ             1.561        -1.34407        -1.35891
LJ           3.12139       -0.760673        -2.07238
LJ          -1.13231        0.114521        -1.03561
LJ          -2.26708         1.67324        -2.66487
LJ           -2.1679        0.187313       -0.366767
LJ          -1.27874        -1.00638        -1.68424
LJ        -0.0068282         1.88462        0.501534
LJ         -0.111473        0.706489        -0.80167
LJ         -0.554151        0.692166         3.55858
LJ          0.933428         2.57697        0.138566
LJ           5.98186        -4.78855         2.34602
LJ         0.0357144        0.925983        0.952195
LJ          -4.62221        0.420642         5.21828
LJ           1.75004        0.433623         2.13053
LJ          0.910129        -0.15227         0.53182
LJ         -0.337444         2.65886         1.81289
LJ          -1.51584         2.28763         1.54096
LJ         -0.428713         1.69742         3.81283
LJ          0.160649        -1.94006         1.24453
LJ        -0.0595742        -1.29141        0.416623
LJ           1.83106        -3.61409        -6.35907
LJ           2.09812        -2.17033         2.03152
LJ          0.794025          0.8065     -0.00955537
LJ           1.06293       -0.422843        -1.41881
LJ          0.582676       -0.417484          1.4371
LJ           1.03383        0.602928         1.48691
LJ         -0.636049         1.93299         2.76139
LJ          -1.69721        0.733834        0.476724
LJ          0.253383          1.2602         2.89542
LJ           2.36883         2.60471        -2.19734
LJ          0.155492        0.400232         2.26553
LJ         -0.746195        -1.75369         1.63353
LJ          -2.35349         1.76085         2.04745
LJ          0.909267         1.81884         3.65693
LJ           1.24645        -1.16792         1.95291
LJ           5.75442         3.14035         2.64906
LJ          -6.01277        -5.39765        -4.65287
LJ          -4.29901         5.74243        -1.41409
LJ         -0.432253        0.997299        0.126705
LJ           1.21292          1.6706       -0.708612
LJ           2.06738        0.594146        -1.09988
LJ           3.16302        -1.68086        -5.09686
LJ           3.66429         2.98948         4.65581
LJ          -1.96314         2.23253       -0.280831
LJ          -5.47468         -2.6451         4.66509
LJ          -5.76144        0.473949         4.23607
LJ          0.897482        0.716995        -1.10656
LJ         -0.875572        -2.18138        -1.52686
LJ           2.69598        -6.09465         2.73743
LJ          -3.45895        -6.04845         -1.6788
