108
#Comment!
LJ          -2.97876        -2.97876        -2.97876
LJ          -1.03847        -1.03848        -3.23377
LJ          -3.23377        -1.03848        -1.03848
LJ          -1.03848        -3.23376        -1.03848
LJ          -1.25978        -2.00106        -2.00106
LJ         -0.124771        -1.73945        -3.60497
LJ         -0.307255        -1.49843        -1.49843
LJ          -0.12477        -3.60497        -1.73945
LJ          0.708261        -1.82452        -1.82452
LJ           2.31724      -0.0847535         -1.4705
LJ           3.07835         5.10927         5.10927
LJ           2.31724        -1.47052      -0.0847478
LJ          -2.00106        -1.25978        -2.00106
LJ          -1.73945       -0.124772        -3.60497
LJ          -3.60496       -0.124771        -1.73945
LJ          -1.49843       -0.307249        -1.49843
LJ         -0.874153       -0.874155        -2.16333
LJ         0.0386176        0.038615        -1.39962
LJ          -1.78049       -0.434143        -2.55361
LJ         -0.434142         -1.7805        -2.55362
LJ           1.02742         0.27185         -2.9894
LJ           1.67305       -0.985764         -2.0739
LJ          0.238299       -0.842192        -2.24169
LJ           3.02276       -0.428662        -2.09548
LJ          -1.82452        0.708266        -1.82452
LJ        -0.0847489         2.31724        -1.47052
LJ          -1.47051         2.31724       -0.084749
LJ           5.10927         3.07835         5.10927
LJ          0.271847         1.02742         -2.9894
LJ         -0.985769         1.67306        -2.07389
LJ         -0.428664         3.02276        -2.09548
LJ         -0.842189        0.238306        -2.24169
LJ          0.105909        0.105907        -2.59008
LJ          0.710937        0.710936        -2.02026
LJ          0.519581         1.91992        -2.42705
LJ           1.91992         0.51958        -2.42705
LJ          -2.00106        -2.00105        -1.25978
LJ          -1.49843        -1.49844       -0.307258
LJ          -3.60497        -1.73945       -0.124772
LJ          -1.73945        -3.60497        -0.12477
LJ         -0.874151        -2.16333       -0.874153
LJ         -0.434146        -2.55362        -1.78049
LJ          -1.78049        -2.55362       -0.434148
LJ         0.0386223        -1.39961       0.0386203
LJ           1.02742         -2.9894         0.27185
LJ           3.02277        -2.09548       -0.428663
LJ            0.2383        -2.24169       -0.842193
LJ           1.67306         -2.0739        -0.98576
LJ          -2.16333       -0.874155       -0.874152
LJ          -2.55361       -0.434143        -1.78049
LJ          -1.39963       0.0386126       0.0386125
LJ          -2.55361         -1.7805       -0.434137
LJ         -0.503938       -0.503939       -0.503937
LJ          0.316732        0.316727       -0.446285
LJ         -0.446294         0.31673        0.316737
LJ          0.316727       -0.446278        0.316726
LJ          0.572912       -0.772974       -0.772974
LJ           1.05385       -0.307148        -1.51429
LJ           1.74945       -0.658552       -0.658552
LJ           1.05385        -1.51429       -0.307145
LJ           -2.9894         1.02742        0.271846
LJ          -2.09548         3.02277       -0.428663
LJ          -2.07389         1.67306       -0.985769
LJ          -2.24169        0.238305       -0.842189
LJ         -0.772983        0.572903       -0.772982
LJ         -0.307154         1.05385        -1.51429
LJ          -1.51429         1.05385       -0.307154
LJ         -0.658561         1.74945        -0.65856
LJ           1.13947         1.13948        0.349859
LJ           1.10357         1.10356           -0.89
LJ           1.75404         2.52252        -2.61058
LJ           2.52252         1.75404        -2.61058
LJ          -1.82452        -1.82452        0.708263
LJ           5.10927         5.10927         3.07835
LJ          -1.47051      -0.0847511         2.31724
LJ        -0.0847476        -1.47052         2.31724
LJ          0.271847         -2.9894         1.02742
LJ         -0.842192        -2.24169        0.238306
LJ         -0.428665        -2.09548         3.02276
LJ         -0.985763         -2.0739         1.67306
LJ          0.105906        -2.59008        0.105905
LJ           1.91992        -2.42705        0.519576
LJ           0.51958        -2.42705         1.91992
LJ          0.710933        -2.02026        0.710934
LJ           -2.9894         0.27185         1.02742
LJ          -2.24168        -0.84219        0.238298
LJ          -2.07389       -0.985768         1.67305
LJ          -2.09548       -0.428662         3.02277
LJ          -0.77298       -0.772979        0.572906
LJ         -0.658556       -0.658557         1.74945
LJ          -1.51429        -0.30715         1.05385
LJ          -0.30715        -1.51429         1.05385
LJ           1.13948        0.349862         1.13948
LJ           2.52252        -2.61058         1.75404
LJ           1.75404        -2.61057         2.52252
LJ           1.10357       -0.890005         1.10356
LJ          -2.59008        0.105907        0.105909
LJ          -2.42704         1.91992        0.519574
LJ          -2.02026        0.710937        0.710938
LJ          -2.42704        0.519574         1.91992
LJ           0.34986         1.13949         1.13947
LJ          -2.61057         2.52251         1.75404
LJ         -0.889997         1.10356         1.10357
LJ          -2.61057         1.75404         2.52251
LJ           4.13027         4.13027         4.13027
LJ           2.07284         2.07284        -0.99425
LJ         -0.994253         2.07284         2.07284
LJ           2.07284       -0.994252         2.07284
