108
#Comment!
LJ           3.61384       -0.982168        0.770372
LJ          -2.22031         2.87652        -3.08416
LJ           1.05276        -1.96974         1.56153
LJ         -0.555814         2.89395       -0.322345
LJ          0.987148     -0.00403883         3.04231
LJ          0.859643        -2.55969       -0.847031
LJ          0.665826       -0.156239        -1.13416
LJ           2.13496         -1.9508       -0.547566
LJ           1.74673        -1.33736         1.96564
LJ        -0.0539013         -1.0658         2.48661
LJ         -0.619837          2.1124         2.84233
LJ          0.176692        0.934063        0.624899
LJ          0.073088       -0.634625       -0.211207
LJ           2.10242        -6.26592        -2.63512
LJ           1.15637          -3.826       -0.570647
LJ         -0.220798        -1.54375         0.21715
LJ           5.11759        -1.73556        -6.30536
LJ          0.820495         1.43743       -0.134154
LJ         -0.261273         4.89829        -4.27984
LJ           1.12948        -1.09363        -1.07797
LJ          -2.25766        0.315167          3.5072
LJ            1.2555         2.26295        -2.61408
LJ            2.7701      -0.0263149        0.213596
LJ          -2.11247        -2.65195        -1.37067
LJ          0.487901        0.774574         4.03362
LJ        0.00387955         1.95947        -1.09655
LJ           -0.8597         0.34321        -1.54949
LJ          -3.41177         5.71182        -1.72451
LJ           2.43384         1.55944         1.94026
LJ           1.34094        -2.66316        0.836091
LJ           2.01143       -0.656093         3.90779
LJ            4.1082        0.293917          3.8059
LJ             1.216        -3.09646        -1.89476
LJ          0.931235       -0.222604        -2.65575
LJ         -0.105339          1.9708        0.749437
LJ           2.46785        0.606186       -0.968938
LJ           1.78427        -1.34627        0.582149
LJ          0.757922         -3.5714        -2.80977
LJ          0.818684        0.349675       -0.229064
LJ           1.62797        0.664293        -1.51196
LJ            1.6062         2.02974        0.216946
LJ         0.0153329        -1.75209         1.35858
LJ          0.629259        -2.18515        -2.05467
LJ         -0.677201       0.0291826        0.251831
LJ           3.01703      -0.0133256         3.82066
LJ           5.02769        -4.72491        -3.49222
LJ           2.91346       -0.622952         2.15986
LJ           2.79581        -1.61693         2.27683
LJ           2.24272        -1.52917        -1.52482
LJ          -1.29871         2.19964          1.7937
LJ           2.05155        0.524697         1.78664
LJ         -0.390337         3.18748        -2.44773
LJ          0.642026        -6.16141        -2.79268
LJ         0.0398295         1.15917         1.79896
LJ            2.6798        -1.37183         1.29353
LJ            2.8454        -1.06794       -0.244198
LJ           1.72162          1.0023       -0.347899
LJ           1.94016        -3.07659       -0.588174
LJ          0.948971       -0.805413         3.91483
LJ           3.12512     -0.00148798          1.3225
LJ          0.549722         1.01448        -1.21261
LJ          -5.81655         6.05906        -4.92282
LJ           1.00319        -1.20596         2.88728
LJ         -0.415879         4.40135        -2.20559
LJ           2.31044        0.839295        0.721557
LJ           1.24671       -0.507767        0.259347
LJ           1.47105        -2.18011         2.80294
LJ           1.23878         1.99628       -0.992763
LJ          0.724303         3.26509        -2.47001
LJ           1.23615         1.59621         1.99521
LJ           1.67105         1.76994        -5.67515
LJ           1.99084        0.881655         2.99332
LJ          0.727642        -1.26483        0.889801
LJ           1.40712        0.418266        0.743307
LJ         -0.276795       -0.769078         1.02268
LJ          0.429834      -0.0561432        0.986296
LJ           2.13009       -0.459722         1.25017
LJ         -0.353772         1.23942       -0.331501
LJ           3.01503        -1.12776         5.34542
LJ          0.948943       -0.708843          1.7856
LJ           1.78507      -0.0321481       -0.537237
LJ          0.903239        -1.54352       -0.131161
LJ           2.01653       -0.235994         2.70315
LJ            3.4248        -2.06557         1.57375
LJ           1.12583         1.46313        0.949457
LJ          -1.60585       0.0398153         1.31673
LJ          -0.82561         -2.8989         1.02716
LJ         -0.220038        0.983428        -2.04283
LJ           1.00862        0.295925         2.03907
LJ          0.406284        -2.32883         2.35602
LJ          0.631474         2.40877       -0.270951
LJ          -1.04883         1.11438         1.36465
LJ         -0.744205         1.08101          2.9225
LJ          0.268702        -1.11523        -1.84472
LJ          0.121203        -1.70523       -0.907698
LJ           1.17478        0.848758        -5.33971
LJ         -0.223375        0.241705       -0.735632
LJ         -0.279202         2.84406         1.35459
LJ          -1.75819         -6.0682         4.30061
LJ           5.30529         3.85029        -6.43245
LJ          -1.01429         3.74363       -0.788038
LJ        -0.0959563       -0.186745        -2.13046
LJ          0.248788         2.80576        -1.58437
LJ            5.0303       -0.250938        -2.64639
LJ          0.360769         4.01711        -1.50528
LJ          -1.30689        -1.68344        0.604347
LJ           1.98104        -2.37374         1.89234
LJ          0.191794        -2.72107         1.06911
