108
#Comment!
LJ           4.09229       -0.268452         1.45905
LJ          0.606722         3.44807        -1.87728
LJ          0.752708        -1.81373          1.6693
LJ          -0.53048        0.849508        -1.72527
LJ          0.714594        0.776905         3.34084
LJ        -0.0740435        -1.95051        -1.79439
LJ          0.583385        0.787751        -1.58387
LJ           0.44283       -0.924845        -2.06077
LJ           1.23957        -1.02046         2.72419
LJ          0.614991       -0.681999         1.84192
LJ          0.271198         2.08502         2.83291
LJ          0.483968        0.292249          1.6039
LJ          -1.28967       -0.927207       -0.515153
LJ           2.86127         2.49075        0.130326
LJ         -0.717369         -2.4675       -0.194334
LJ          -1.21602        -1.69459        0.370933
LJ          -4.21047       -0.679044        -3.79418
LJ           1.30476        0.596259        0.239747
LJ          0.125087         4.31683         5.98548
LJ         -0.224726       -0.900664        -1.26396
LJ         -0.400608       0.0898136         5.41655
LJ           1.07699          1.8602        -1.09545
LJ            3.6967         0.73115        -0.57646
LJ          -4.44037       -0.646742        -2.31498
LJ           2.30893        -4.25108         5.48427
LJ         0.0604591         1.72138        -1.41195
LJ          -2.17534        -1.16296        -1.69682
LJ           2.65909         6.29623         -1.3215
LJ           2.18385         1.89688         1.52608
LJ        -0.0842849        -1.79857        0.470096
LJ         -0.933108        -2.24318         2.61322
LJ           4.91265         3.32103        -5.71737
LJ         -0.126743        -4.53548        -0.52852
LJ           1.64776     -0.00661647        -2.34773
LJ          0.154488         1.28964        0.679098
LJ           2.30448       0.0791476        -1.14853
LJ           1.78352        -1.44371       -0.295105
LJ          0.387665        -2.73914       -0.509549
LJ          0.396894      -0.0520585        0.461392
LJ           2.01872         1.02417        -1.72969
LJ          0.836813         1.82769      -0.0231181
LJ         -0.364157       -0.289842         1.72339
LJ          -1.08571        -2.50698        -2.87534
LJ         -0.636052       0.0879137        0.358742
LJ           3.47164        -1.19942           2.055
LJ          -5.24866        -4.57323        -5.16276
LJ           2.38973       -0.841018         1.50267
LJ           3.33409        -1.37345         1.00768
LJ         -0.279945        -1.34236        -2.70958
LJ          -1.07017          0.8634         2.19829
LJ          0.994975        0.999422         2.23411
LJ         -0.379993         1.72989        -2.61472
LJ           3.90779        -4.83527         -2.0723
LJ        -0.0946553         2.15141         1.59199
LJ           1.38318      -0.0900152         1.30307
LJ           3.68743        0.259621         0.38925
LJ           1.32425       -0.511805       -0.123578
LJ          0.735971        -1.33121       -0.968049
LJ        -0.0268748        -1.36138         2.94838
LJ           4.25341       -0.921418        0.544092
LJ           1.37147        0.781472        -0.83654
LJ          -2.34941         5.16379        -4.51671
LJ           2.56858       -0.775795         2.72236
LJ          -1.55768         1.76163        -2.55555
LJ           2.69612        0.354772      -0.0846659
LJ          0.484632       -0.100399       -0.952365
LJ           0.42155          -2.256          2.5794
LJ           2.64087         1.13334       -0.895772
LJ          0.253823         4.98504        -2.29944
LJ        -0.0394736        0.968133         2.31571
LJ         -0.473909        0.706756         6.22425
LJ           1.26935         1.89992         2.79916
LJ         -0.269193       -0.793993        0.859762
LJ            1.6912          2.1685        0.524066
LJ          -1.44108       -0.224742         1.12078
LJ           1.42708        0.156415         2.72378
LJ          0.769195        -1.08028        0.635579
LJ          0.336091        0.898554       -0.348612
LJ          0.683793        0.137783         4.53936
LJ           1.63357        -1.85925         2.15798
LJ           1.49195       -0.538022        -1.37422
LJ         0.0150383       -0.805118       -0.264074
LJ           1.85233        0.873162         1.21439
LJ           1.64087        -1.47943          1.1248
LJ          0.912451          1.4815         1.31931
LJ         -0.831523         1.20703       0.0563687
LJ         -0.557212        -2.37771         1.13998
LJ          0.136856        0.757453        -2.76593
LJ          0.363007       -0.250243         2.70925
LJ         -0.307892        -1.32273         1.67179
LJ         -0.260621         1.89519       -0.269061
LJ         -0.414153         3.67228        0.554585
LJ         -0.488048        0.621407         3.52314
LJ           -1.2633        -1.80346        -2.08612
LJ         -0.726159        -1.79744        -1.01456
LJ          0.597395         1.65362        -2.28467
LJ         -0.657983        0.523154       -0.696594
LJ         -0.320592         3.30244         2.38144
LJ           1.21089        -4.49649         2.19034
LJ           5.76176         1.81579        -5.69383
LJ          0.514635         4.19411        0.457511
LJ          -0.44989       -0.330421        -2.24602
LJ           1.25111         3.67584       -0.745426
LJ          -3.48846       -0.668699        -4.65968
LJ           1.09968         2.85663       0.0229929
LJ          0.534837        -2.74409         1.11893
LJ           1.12665        -2.01231        0.464607
LJ          -3.08582        -3.95219         2.17446
