108
#Comment!
LJ          -2.92245        -2.92245        -2.92245
LJ         -0.692407       -0.692388        -3.48391
LJ          -3.48391       -0.692403       -0.692401
LJ          -0.69242        -3.48388       -0.692407
LJ         -0.415482        -2.49625        -2.49627
LJ          0.846356       -0.656241        -3.49496
LJ         -0.347812        -1.67062        -1.67067
LJ          0.846352        -3.49497       -0.656239
LJ          0.695516        -2.51366        -2.51368
LJ           1.81693        0.634882        -0.63754
LJ          0.775293          5.0804          5.0804
LJ           1.81691       -0.637529        0.634841
LJ          -2.49617       -0.415482        -2.49619
LJ         -0.656246        0.846372          -3.495
LJ          -3.49496        0.846347       -0.656224
LJ          -1.67055       -0.347733        -1.67051
LJ         -0.748091       -0.748019        -2.32652
LJ         -0.112888       -0.112784        -1.58215
LJ          -1.44207       -0.111845        -2.86541
LJ         -0.111956        -1.44208        -2.86538
LJ           1.17683        0.100141        -2.69271
LJ            1.5455       -0.968713        -2.30224
LJ          0.515977       -0.864009        -2.22989
LJ           3.55816        -1.58028        -2.51173
LJ          -2.51369         0.69554        -2.51367
LJ          0.634858         1.81689       -0.637548
LJ         -0.637545         1.81688        0.634848
LJ            5.0804        0.775293          5.0804
LJ          0.100166         1.17684        -2.69278
LJ         -0.968659         1.54549        -2.30226
LJ          -1.58031         3.55824        -2.51174
LJ         -0.864114        0.515972        -2.22997
LJ          0.207864        0.207879        -2.43426
LJ           1.13015         1.13014        -2.50812
LJ         -0.025158         2.18406        -2.03917
LJ           2.18411      -0.0251879        -2.03914
LJ          -2.49616        -2.49615       -0.415494
LJ          -1.67051        -1.67048       -0.347577
LJ          -3.49502         -0.6562        0.846386
LJ         -0.656261        -3.49501        0.846321
LJ         -0.748107        -2.32652       -0.748092
LJ         -0.111895         -2.8654        -1.44209
LJ          -1.44208        -2.86538       -0.111862
LJ         -0.112911        -1.58226       -0.112908
LJ           1.17687        -2.69274        0.100153
LJ           3.55819        -2.51177        -1.58037
LJ          0.516113        -2.22993       -0.864031
LJ           1.54553        -2.30225       -0.968612
LJ          -2.32653       -0.748072       -0.748071
LJ          -2.86539       -0.111906        -1.44209
LJ          -1.58202       -0.112701       -0.112781
LJ           -2.8654        -1.44209       -0.111906
LJ         -0.955203       -0.955194       -0.955194
LJ          0.776191        0.776165       -0.808724
LJ          -0.80876        0.776156        0.776166
LJ          0.776201       -0.808693        0.776188
LJ          0.436444       -0.939884       -0.939902
LJ           0.98661       0.0999093        -1.63813
LJ           1.46692       -0.966096       -0.966035
LJ          0.986571        -1.63815        0.100017
LJ          -2.69275         1.17677        0.100165
LJ          -2.51172         3.55821        -1.58029
LJ           -2.3023         1.54549       -0.968684
LJ          -2.22997        0.515978       -0.864092
LJ         -0.940498        0.436292       -0.940493
LJ         0.0998826        0.986642        -1.63817
LJ          -1.63812        0.986697       0.0998063
LJ         -0.965907         1.46689       -0.965951
LJ           1.99546         1.99549         1.16447
LJ           1.57298           1.573       -0.281053
LJ          0.656476          1.8851        -3.18076
LJ           1.88504        0.656428         -3.1807
LJ          -2.51371         -2.5137        0.695503
LJ            5.0804          5.0804        0.775293
LJ         -0.637529        0.634852         1.81691
LJ          0.634858       -0.637536         1.81687
LJ          0.100142        -2.69278         1.17689
LJ         -0.864104        -2.22995        0.516096
LJ          -1.58036        -2.51177         3.55824
LJ         -0.968634         -2.3022         1.54551
LJ          0.207892        -2.43433        0.207916
LJ           2.18413        -2.03916      -0.0251069
LJ        -0.0251025        -2.03915         2.18414
LJ           1.13014        -2.50811         1.13014
LJ          -2.69275        0.100139         1.17679
LJ          -2.22986       -0.864075        0.515954
LJ          -2.30228       -0.968736          1.5455
LJ           -2.5117        -1.58029         3.55816
LJ          -0.94027       -0.940281        0.436312
LJ         -0.965962       -0.966005         1.46685
LJ          -1.63814       0.0998535        0.986646
LJ          0.100008        -1.63818        0.986557
LJ           1.99543         1.16444         1.99545
LJ           1.88509        -3.18074        0.656416
LJ          0.656436        -3.18076         1.88509
LJ           1.57299       -0.281065         1.57299
LJ          -2.43422        0.207823        0.207838
LJ          -2.03915         2.18408      -0.0251688
LJ          -2.50813         1.13014         1.13015
LJ          -2.03916      -0.0252019         2.18405
LJ           1.16449         1.99551         1.99548
LJ          -3.18072         1.88511        0.656454
LJ         -0.281056         1.57297         1.57297
LJ          -3.18068         0.65643         1.88506
LJ           5.35797         5.35797         5.35797
LJ           1.30458         1.30457        -1.53455
LJ          -1.53457         1.30459          1.3046
LJ           1.30455        -1.53455         1.30453
