108
#Comment!
LJ          -1.71457        -1.71457        -1.71457
LJ          -1.37814        -1.37814        -2.61026
LJ          -2.61026        -1.37814        -1.37814
LJ          -1.37814        -2.61026        -1.37814
LJ          -1.51854        -2.85592        -2.85592
LJ         -0.122028        -3.25528         -4.2109
LJ          -0.63137        -2.06125        -2.06125
LJ         -0.122028         -4.2109        -3.25528
LJ          0.263249        -2.38194        -2.38194
LJ           1.40814        -1.42799        -2.57041
LJ           2.01113        -3.57563        -3.57563
LJ           1.40814        -2.57041        -1.42799
LJ          -2.85592        -1.51854        -2.85592
LJ          -3.25528       -0.122028         -4.2109
LJ           -4.2109       -0.122028        -3.25528
LJ          -2.06125        -0.63137        -2.06125
LJ         -0.895851       -0.895851        -1.72628
LJ        -0.0970941      -0.0970941        -1.52239
LJ          -1.09936       -0.279021        -2.59625
LJ         -0.279021        -1.09936        -2.59625
LJ            2.1421       -0.948075        -4.18673
LJ            1.8836        0.935617        -2.74073
LJ          0.702219       -0.844339         -1.7903
LJ           3.09863        -0.90882        -3.22376
LJ          -2.38194        0.263249        -2.38194
LJ          -1.42799         1.40814        -2.57041
LJ          -2.57041         1.40814        -1.42799
LJ          -3.57563         2.01113        -3.57563
LJ         -0.948075          2.1421        -4.18673
LJ          0.935617          1.8836        -2.74073
LJ          -0.90882         3.09863        -3.22376
LJ         -0.844339        0.702219         -1.7903
LJ        -0.0187272      -0.0187272        -2.60491
LJ          0.694099        0.694099        -2.39336
LJ        -0.0166703         2.16684       -0.809921
LJ           2.16684      -0.0166703       -0.809921
LJ          -2.85592        -2.85592        -1.51854
LJ          -2.06125        -2.06125        -0.63137
LJ           -4.2109        -3.25528       -0.122028
LJ          -3.25528         -4.2109       -0.122028
LJ         -0.895851        -1.72628       -0.895851
LJ         -0.279021        -2.59625        -1.09936
LJ          -1.09936        -2.59625       -0.279021
LJ        -0.0970941        -1.52239      -0.0970941
LJ            2.1421        -4.18673       -0.948075
LJ           3.09863        -3.22376        -0.90882
LJ          0.702219         -1.7903       -0.844339
LJ            1.8836        -2.74073        0.935617
LJ          -1.72628       -0.895851       -0.895851
LJ          -2.59625       -0.279021        -1.09936
LJ          -1.52239      -0.0970941      -0.0970941
LJ          -2.59625        -1.09936       -0.279021
LJ          -0.65221        -0.65221        -0.65221
LJ          0.225374        0.225374       -0.496646
LJ         -0.496646        0.225374        0.225374
LJ          0.225374       -0.496646        0.225374
LJ          0.429105       -0.805684       -0.805684
LJ           1.00509           0.227        -1.40211
LJ           1.26457       -0.304445       -0.304445
LJ           1.00509        -1.40211           0.227
LJ          -4.18673          2.1421       -0.948075
LJ          -3.22376         3.09863        -0.90882
LJ          -2.74073          1.8836        0.935617
LJ           -1.7903        0.702219       -0.844339
LJ         -0.805684        0.429105       -0.805684
LJ             0.227         1.00509        -1.40211
LJ          -1.40211         1.00509           0.227
LJ         -0.304445         1.26457       -0.304445
LJ           1.08396         1.08396       -0.352254
LJ           1.52663         1.52663        -1.92705
LJ           2.15794         3.11408       -0.132097
LJ           3.11408         2.15794       -0.132097
LJ          -2.38194        -2.38194        0.263249
LJ          -3.57563        -3.57563         2.01113
LJ          -2.57041        -1.42799         1.40814
LJ          -1.42799        -2.57041         1.40814
LJ         -0.948075        -4.18673          2.1421
LJ         -0.844339         -1.7903        0.702219
LJ          -0.90882        -3.22376         3.09863
LJ          0.935617        -2.74073          1.8836
LJ        -0.0187272        -2.60491      -0.0187272
LJ           2.16684       -0.809921      -0.0166703
LJ        -0.0166703       -0.809921         2.16684
LJ          0.694099        -2.39336        0.694099
LJ          -4.18673       -0.948075          2.1421
LJ           -1.7903       -0.844339        0.702219
LJ          -2.74073        0.935617          1.8836
LJ          -3.22376        -0.90882         3.09863
LJ         -0.805684       -0.805684        0.429105
LJ         -0.304445       -0.304445         1.26457
LJ          -1.40211           0.227         1.00509
LJ             0.227        -1.40211         1.00509
LJ           1.08396       -0.352254         1.08396
LJ           3.11408       -0.132097         2.15794
LJ           2.15794       -0.132097         3.11408
LJ           1.52663        -1.92705         1.52663
LJ          -2.60491      -0.0187272      -0.0187272
LJ         -0.809921         2.16684      -0.0166703
LJ          -2.39336        0.694099        0.694099
LJ         -0.809921      -0.0166703         2.16684
LJ         -0.352254         1.08396         1.08396
LJ         -0.132097         3.11408         2.15794
LJ          -1.92705         1.52663         1.52663
LJ         -0.132097         2.15794         3.11408
LJ           1.25115         1.25115         1.25115
LJ           1.75471         1.75471        0.387753
LJ          0.387753         1.75471         1.75471
LJ           1.75471        0.387753         1.75471
