108
#Comment!
LJ         -0.916977        -2.04498         0.11517
LJ          -5.33949         5.29612       -0.838224
LJ           2.08736         3.99472        -2.83411
LJ           2.93966         3.50872        -3.68425
LJ           1.46899        -1.88168        -1.52214
LJ         0.0608107         2.60671       -0.671002
LJ          0.860607        -1.59771        0.234286
LJ          0.714279        -3.13379        0.251918
LJ            1.1908        -2.69208       -0.628342
LJ            1.2655        0.415484       -0.524394
LJ           1.50268         1.31337        0.860447
LJ          0.974719        -1.23168         2.21191
LJ          -1.13274       -0.929657        -1.83862
LJ          0.622592         1.43936        -1.98155
LJ         -0.706742         1.88594        0.638667
LJ         0.0587943          2.9435         0.38551
LJ          -1.29266         1.33695         -1.3298
LJ         -0.120198       -0.291225        0.380003
LJ         -0.947505         3.25636       -0.183594
LJ         -0.118033       -0.632862        -1.35572
LJ           1.08419        -0.35447        -1.29341
LJ         -0.136954        -1.22059        -0.37566
LJ         -0.875718      -0.0157906        -2.41596
LJ          0.766769         3.82401         3.13487
LJ          -2.24707         5.50739        0.165567
LJ         -0.491873         2.11046        -1.64564
LJ            1.2279         2.40754        -2.52907
LJ           4.12509         1.49665         1.61098
LJ          0.413882         3.75329       -0.591402
LJ           1.58838         5.15356        -1.34214
LJ          -1.59004        0.867477         1.38559
LJ          0.645531        0.373915        -2.02923
LJ         -0.348445        0.850504        -2.73293
LJ           1.31042        0.896934        -1.45598
LJ          0.364626         1.63902        0.353031
LJ         -0.241372        0.897916        -1.40742
LJ           -0.8809        -2.91939       -0.628827
LJ          -3.10068       -0.606292        0.106762
LJ          -1.68833         1.26965        0.400139
LJ          0.990418        -1.88442         1.42219
LJ         -0.660951        -1.13694        0.636239
LJ         -0.258611        -3.03518        0.251982
LJ          -1.67907        -1.37033        0.784453
LJ         -0.836526       -0.389491         1.45628
LJ        -0.0380492        -3.92584        0.888374
LJ          -5.86309        -4.02144        0.103779
LJ        -0.0262098        -2.24041       -0.533291
LJ            1.6053        -2.52965        0.642455
LJ         -0.652757        -0.30877       -0.496566
LJ          -1.00648         2.35046       -0.782273
LJ          0.211759      -0.0889463         1.57916
LJ          -1.83034        0.435934       -0.513256
LJ         -0.588224        -1.82044        -1.31506
LJ          0.808346         1.40295       -0.691025
LJ          0.669925        0.535676         0.61494
LJ           1.36707       -0.725328        0.990579
LJ          0.814901       -0.537945       0.0226155
LJ          0.353913         0.13599       -0.792265
LJ           2.09552        0.168854        -1.33881
LJ           2.43311        0.122421         0.18748
LJ          -1.07592        0.243843        -1.35484
LJ           6.07978         3.85139         1.88442
LJ          -2.08439         2.00291       -0.469559
LJ          -1.20994        -1.19996       -0.584993
LJ         -0.198332         1.68413         1.56204
LJ         -0.575571         1.04706       -0.192903
LJ         -0.286723        0.715898        0.899746
LJ           1.36174         2.24244       -0.361298
LJ           2.87355         6.26082         6.07859
LJ           1.05024         1.68678         1.86204
LJ           -4.0588       -0.767069         6.24324
LJ          -1.36867         5.75101        -5.25908
LJ           0.12556         -2.1721        0.617963
LJ           1.87601          1.1695       -0.227719
LJ         -0.598692        0.694374         2.09893
LJ          0.397677        0.970906          2.5209
LJ          -1.13536        -3.49028         0.84501
LJ         -0.943921         -2.0069         1.26658
LJ           1.26774         2.28659         5.16466
LJ          -4.97958        -1.95358         2.23654
LJ          0.321218        -1.08963        0.980645
LJ           1.91085        -1.68056       -0.192958
LJ         -0.289954        -2.92487         1.29477
LJ         -0.170482        -1.19227         1.88611
LJ          -2.09615        0.124779        0.865524
LJ          -1.22277       -0.195988        0.408952
LJ          0.331136        -3.56519          1.8698
LJ          -3.02462         2.39142         2.97798
LJ           1.11102       -0.237015         2.76628
LJ          -1.12378        -1.22959         2.41647
LJ          -1.70572         2.69728        0.316607
LJ        -0.0471271         -1.1878         3.27729
LJ          0.304529          -2.141         2.16319
LJ          -1.76619        -4.84903         6.13975
LJ           5.96403        -5.36838        0.053445
LJ          -6.43226         2.77892         -4.3024
LJ          -1.75401       -0.712947         1.55115
LJ           1.02298         2.51237        0.808043
LJ            1.1518          3.4304        0.367154
LJ           2.41046        -2.96322      -0.0325362
LJ           5.18433         3.55519     -0.00148249
LJ          -5.03616         1.27138         -2.7801
LJ         -0.566881         5.48598      -0.0672161
LJ           5.68367         5.96835         2.66325
LJ           2.37994         1.32272         2.53518
LJ          -2.04379       -0.588778      -0.0252409
LJ         -0.350556         4.85585        -4.53636
LJ          -4.13299       -0.873511         4.56954
