108
#Comment!
LJ          -1.33225        -2.43934        0.365228
LJ          -4.97841         6.14807         1.37505
LJ           3.85991         4.47266         -3.5247
LJ           4.34861         5.52291         -3.5769
LJ           1.72073        -2.03644        -1.30593
LJ          -0.20295         1.55386        -1.36811
LJ          0.769133        -1.81577        0.111187
LJ          0.691981        -3.34168        0.400761
LJ          0.984189        -2.39739       -0.690997
LJ           1.57443         0.93441       -0.467224
LJ           2.72493         2.35928         1.71772
LJ           1.20013        -2.00676          2.3096
LJ          -1.25398       -0.982483        -1.21318
LJ          0.938727         2.87399        -1.80231
LJ          -1.03865         1.76224        0.449659
LJ         -0.434594          2.3691       -0.678936
LJ          -1.91639         1.19974        -1.37792
LJ         -0.254043       -0.681451       -0.207754
LJ          -1.21807         2.83925        0.036065
LJ        -0.0884279       -0.199344         -1.1832
LJ          0.875755        0.105587        -1.18434
LJ          0.588261        -1.13013       -0.636431
LJ          0.568512       -0.716009        -2.13118
LJ           1.43309         1.91829          1.6142
LJ          -1.23352         4.00133         1.62242
LJ         -0.100487         2.48443        -2.84342
LJ           2.07219         2.75901        -1.72492
LJ           2.57306         1.24346         2.88993
LJ         -0.550033         2.55857        -1.81745
LJ           0.56738         3.69017       -0.765255
LJ          0.323106         1.70772         2.42158
LJ          0.315711        0.731022        -2.00504
LJ          0.348554         1.85851        -2.18285
LJ           1.64393        0.831276        -1.99877
LJ          0.182026         1.42555       -0.271268
LJ         -0.942995        0.734472        -1.67093
LJ          -1.25637        -2.10505        -1.08847
LJ          -2.77199        -0.26207         1.25159
LJ          -1.57521         0.97756        0.757947
LJ          0.695773        -2.12625         1.31262
LJ          -0.93642        -1.53232       -0.132185
LJ          -0.62624        -3.16418       -0.184265
LJ          -1.75243        -0.86331        0.533963
LJ         -0.778933       -0.565846        0.796077
LJ         -0.139258        -3.85192        0.891673
LJ           -6.1912        -1.36157       -0.650641
LJ         -0.174689        -2.29229       -0.763822
LJ           1.48438        -2.64334        0.471797
LJ          -1.09458       0.0369449        -0.83392
LJ          -1.26299         1.76036        -0.75754
LJ          0.269547       -0.278232         1.00259
LJ          -2.76303       0.0693821       -0.775162
LJ          -0.37738        -1.47918        -1.50656
LJ            0.9656         1.36173        -1.42948
LJ           1.30623         0.24708        0.809798
LJ           1.03393       -0.901657          1.3968
LJ          0.963614       -0.605836        0.356423
LJ          0.429585        0.237501         0.13475
LJ           1.80076       -0.140587       -0.202597
LJ           1.87529        -1.25739        0.772413
LJ          -1.70888     -0.00960247        -1.94804
LJ           4.73602         4.82522         2.82218
LJ          -1.86651         0.95231       -0.331414
LJ          -2.05404       -0.865785       -0.489819
LJ          0.210581          1.2952        0.975072
LJ          -0.63844        0.688744       -0.123904
LJ         -0.543395        0.468185         1.00455
LJ          0.692571         2.30148       -0.977635
LJ           3.04697         6.10758         4.82546
LJ           2.17854         2.66166         2.99172
LJ          -4.60675        0.744709        -6.44802
LJ         -0.446713        -5.88467        -5.38362
LJ         -0.220851        -2.49032        0.565823
LJ           2.91358         1.69598        0.590271
LJ         -0.174413        0.993765         1.92238
LJ          0.827344         0.36435         1.81483
LJ           -1.0874        -3.42991        0.800172
LJ         -0.903342        -1.66764        0.924943
LJ           1.14583          3.2481         4.56331
LJ          -3.60182        -2.17759         2.09553
LJ         0.0841925        -1.31197        0.580854
LJ           1.78578        -1.77828       -0.239736
LJ         -0.639185        -2.57401         1.54519
LJ         0.0591945        -1.37453         1.72958
LJ          -2.72131        0.374296        0.452406
LJ          -1.48355       0.0611579         0.12008
LJ        -0.0562304        -3.49513         1.99297
LJ          -4.26269        0.944108          3.4999
LJ          0.272902       -0.481707         2.25036
LJ          -0.67697         -1.5127         2.47599
LJ          -2.23576         1.74224        0.951968
LJ           0.70514        -1.27366         3.01619
LJ          0.145561        -2.38645         2.25286
LJ         0.0730258        -5.95639        -6.45826
LJ            -6.061        -5.99822        0.918398
LJ            -6.094         2.51356        -5.18223
LJ          -1.68196      -0.0233642         1.43899
LJ        -0.0136314         2.32512        0.342934
LJ           1.05319         3.03684        0.139971
LJ           1.96089        -3.03699       -0.990441
LJ           5.34351         3.78899          1.9239
LJ          -5.66113          1.7807        -3.37319
LJ          0.305423         5.11738         1.95557
LJ           5.52718        -5.94537         2.93652
LJ           1.99185         2.67753         4.18076
LJ          -3.27784       -0.716682      -0.0377147
LJ           2.27833         1.95018        -4.83075
LJ           5.03335         1.52384         1.82831
