108
#Comment!
LJ           1.97202       -0.874552         1.09037
LJ            3.2074        -1.56847         2.14046
LJ          -1.20778       0.0364222         2.65994
LJ          -2.48803         2.87752         1.88965
LJ           3.11167        -1.89502        0.123054
LJ           2.01226         1.06007        -2.07156
LJ           1.55139        0.298214          1.8096
LJ           2.37383        0.331582        -1.09237
LJ           2.01344        -1.78621        0.278875
LJ            1.9891        -1.30529       -0.651021
LJ          -1.27876         3.20291        0.813349
LJ           1.75787         1.60332         2.40291
LJ         -0.544451        -2.22354        0.177912
LJ           2.81371       -0.607698       -0.486122
LJ         -0.980973        0.794286         3.40174
LJ         -0.357806         1.25713          1.7719
LJ          0.881066       -0.635273        -2.23488
LJ          0.166078        0.966551        0.353429
LJ         -0.896878         2.09533         2.41651
LJ         -0.721262       -0.931526        -0.82707
LJ          0.814077        -4.05195        0.300297
LJ           1.57747        0.419506       -0.283764
LJ           1.71033        0.130761        -2.46409
LJ            5.4273         4.82325         2.25377
LJ          -3.50155        -5.72268         5.52327
LJ          -1.47059         2.97209       -0.551533
LJ          -3.41725         5.42328       -0.419823
LJ           -1.2271         6.31506         5.33799
LJ          0.656237         1.70496         2.13568
LJ            -4.059        0.986155         1.85098
LJ         -0.724169        0.449401        0.874811
LJ          -1.63963        -3.57391         5.93943
LJ         0.0256152       -0.732743        -1.64733
LJ          0.980833        -1.27523        -1.19692
LJ         -0.649666         2.60257      -0.0383642
LJ         0.0749092        -1.69708       -0.503503
LJ          -1.15345        -1.97594       -0.801827
LJ          0.365397        0.281602         -1.9434
LJ          -1.59855        0.696633         1.85685
LJ            2.2141         1.27311         -0.2685
LJ           1.80007        0.921789        0.823353
LJ           1.32157        -2.92194       0.0160464
LJ          -1.71385       -0.958399       -0.307727
LJ          -0.93798        -1.10679        0.700424
LJ          0.730944       -0.483135         1.79536
LJ           2.55191        -3.87963         2.66306
LJ           1.14914        -2.06359       -0.557875
LJ           2.31472      0.00315202        0.759218
LJ          -1.19818       0.0880867      -0.0241445
LJ          -1.78491         1.92453         1.64765
LJ           -2.2488      -0.0410941         3.28106
LJ          -1.65649        0.812389       -0.712483
LJ          -1.01741        -2.56061         1.23111
LJ          -1.34385         2.35496        -1.41365
LJ          0.773519         1.24616         1.15591
LJ            2.2991         1.45655         1.57552
LJ           1.23885       -0.889178        0.220005
LJ         -0.516612         0.23364       -0.727698
LJ           2.22142        -2.31945       -0.767565
LJ           3.42644        0.184117       -0.826072
LJ         -0.806341         1.24434         -1.1106
LJ          -4.98527         2.42076         -3.1107
LJ          -1.45841       -0.214758         1.23674
LJ          -1.39904       -0.485992        -1.51996
LJ          0.122456         2.12244       -0.562981
LJ          0.501025         1.84812        -1.63187
LJ          0.599217        -0.77699         3.18496
LJ           1.21145         1.82634        0.504277
LJ          -5.13667        -4.78394         5.38951
LJ         -0.918558         1.70071         1.00679
LJ          -5.04021        -2.81603         5.43264
LJ           1.60517       -0.644033         2.38492
LJ           1.24741        0.079932        0.715123
LJ         0.0474044         2.32882        0.723069
LJ          -2.28732         1.91506         2.72582
LJ         0.0970564        0.103399         3.37303
LJ          0.246698        -1.30727        0.623753
LJ          0.191736       -0.273897        0.295905
LJ            1.2829        -5.61583         5.91809
LJ          0.781411        -2.31477        0.741028
LJ          0.293993          1.1242       -0.759487
LJ          0.482775       -0.188323       -0.753749
LJ         -0.102776       -0.972424         1.53378
LJ          0.265983        0.343391         1.24583
LJ        -0.0456438         1.09251         2.93217
LJ           -2.0209         1.17363         0.86586
LJ           1.00658        0.278588          2.6902
LJ           1.53866         2.06309        -1.86108
LJ         -0.102452        0.155485         2.34987
LJ          -0.51303        -1.22228         2.83378
LJ          -2.55161           2.616         0.61404
LJ          0.105769         2.36502         2.84069
LJ           1.23103        -1.56026         1.89674
LJ           3.30024         5.07812         0.43746
LJ          -4.95456         4.95853         4.91016
LJ          -1.76902        -5.19245       -0.522225
LJ         -0.877207         1.14153      -0.0715501
LJ           1.18669          1.6997        -0.75192
LJ           1.64923       -0.346023        -1.13989
LJ           3.67766       -0.992609        -5.23265
LJ            3.1587         2.85076         1.94356
LJ          -1.64397          1.9122       -0.138313
LJ           4.94151       -0.667534         2.73574
LJ          -4.54381     -0.00220985         4.76593
LJ           1.16764        0.560891        -1.27141
LJ          0.395222        -2.28855        -1.29989
LJ         -0.378203        -1.61542         5.08375
LJ          -1.52616         4.92179         4.30047
