108
#Comment!
LJ          0.794223        -1.33591         0.61465
LJ           3.13558        -1.38859         3.01973
LJ          -2.72732        0.641573        0.991494
LJ         -0.813553         6.11223       -0.365819
LJ           1.70455        -1.99006         0.36863
LJ           1.54718         1.63634         -1.3645
LJ           1.80539       -0.198498         1.40882
LJ           2.89242       -0.040745        0.900972
LJ           2.32951        -1.33814         1.31736
LJ          0.655489       -0.954309          -2.129
LJ         -0.936283         2.68036        0.232784
LJ           2.01611         1.29116         1.44932
LJ         -0.805994        -3.19225       -0.571956
LJ           2.49061       -0.377745         -1.4436
LJ          -2.58208        0.881346         3.08896
LJ          0.320735         1.88086         1.65214
LJ          0.704762        0.228732        -2.07315
LJ         -0.231462       -0.130201         0.60494
LJ         -0.664767         1.41099         1.68259
LJ         -0.585723       -0.795535        -0.61744
LJ            1.0277        -2.18498       -0.689835
LJ           1.55276       -0.110643       -0.317127
LJ           1.05593         1.29031        -2.21456
LJ           3.89007         5.59301       -0.372442
LJ          0.318305         3.39689        -5.98171
LJ          -2.04517         2.98764        0.778808
LJ          -3.36588         4.02796        0.194711
LJ          -3.21132         4.76738        -4.79382
LJ           1.26822         1.80126         2.28662
LJ          -6.42568         3.14424         3.95627
LJ         -0.641738        0.309099         1.54321
LJ          0.266878        -1.77383        -3.57189
LJ         -0.264606       -0.184455        -1.77362
LJ          0.444207        -1.29818        -1.02076
LJ          -1.36083         1.68366        0.565355
LJ         -0.140882        -2.30406       -0.956033
LJ          -1.08396        -2.13922       -0.402829
LJ         0.0836786          1.0675        -1.77652
LJ          -1.77015         1.22158         1.46646
LJ           1.68681        0.573165        0.605322
LJ           2.01102       -0.860127        0.360202
LJ           1.33074        -2.05213         1.35184
LJ          -1.32497        -1.03701       0.0718442
LJ           -1.1625       -0.899473         1.25002
LJ          0.559642        -1.00974         2.75568
LJ           4.50672        -3.02284        0.743425
LJ          0.556959        -2.32548        0.278157
LJ           2.76643       -0.565896        -0.36852
LJ          -1.25711       0.0542114      -0.0592057
LJ          -2.48223         1.77355        0.811944
LJ         -0.309556       -0.654882         2.07539
LJ          -1.37187        0.953217       -0.510615
LJ         -0.623115         -3.7682         0.36413
LJ          -0.58135         1.77131       -0.334981
LJ            1.1754         1.67009        0.868433
LJ           2.04895         1.19217       -0.446785
LJ            1.4623        -1.21047       -0.506408
LJ          0.337777       -0.168217       -0.424611
LJ           1.51699        -1.22058        -1.54623
LJ           3.06705       -0.798187        -2.37659
LJ          -1.40756       0.0158792        -1.19987
LJ          -1.85149         1.55268        -2.55853
LJ          -2.34721        0.317573       -0.180446
LJ          -1.68017        -1.12988        -1.76797
LJ         -0.225543         2.05099         0.75226
LJ         -0.175347        0.840199       -0.759999
LJ         -0.669547        0.813559         3.32003
LJ           1.05897         2.79289        0.161024
LJ           5.69912        -4.91217         1.88687
LJ        -0.0183902        0.904877         1.06345
LJ          -4.49799        0.959795         5.25861
LJ           2.29794        0.429097         2.38223
LJ           0.82327      -0.0290412        0.544944
LJ         -0.687098         2.77773         1.57322
LJ          -1.59335         2.27059         1.46279
LJ         -0.416629         1.99934         3.70697
LJ          0.114032        -2.25061          1.3299
LJ         -0.294855        -1.34895        0.630893
LJ           1.90902        -3.32334        -6.26772
LJ           2.49918        -1.82573         2.36826
LJ          0.665115        0.942138        0.151286
LJ           1.17233       -0.320649        -1.24667
LJ          0.425691       -0.507556         1.35039
LJ           1.27307        0.620002         1.73836
LJ         -0.572049         2.16639         2.58055
LJ          -1.73716        0.811782        0.506552
LJ          0.177268          1.3645         2.51968
LJ           2.50986         2.15728        -1.96327
LJ         0.0851328        0.359459         2.13579
LJ         -0.822963        -1.78255         1.62891
LJ          -2.59713         2.02761          1.9684
LJ          0.798978         1.44249         3.42498
LJ           1.29234        -1.11048         1.58829
LJ           6.18663         2.90067         3.01106
LJ          -6.16162        -5.02999         -4.1725
LJ          -4.47145         5.60355         -1.4512
LJ          -0.63799        0.861532        0.225431
LJ          0.757273         1.92071       -0.419485
LJ           2.04308        0.520274        -1.31718
LJ            3.0855        -1.78091        -5.07558
LJ           3.71673         2.99303         5.01757
LJ          -1.67218         1.93915       -0.351547
LJ          -5.10789        -2.91995         4.94681
LJ          -5.98904        0.596215         4.09359
LJ           1.01015        0.823528       -0.949129
LJ          -1.28227        -2.12796        -1.76757
LJ           3.13621         6.19908         2.39781
LJ          -3.91766        -5.96958         -2.6114
