108
#Comment!
LJ          -1.58047        -1.58047        -1.58047
LJ          -1.85503        -1.85503        -3.35748
LJ          -3.35748        -1.85503        -1.85503
LJ          -1.85503        -3.35748        -1.85503
LJ          -1.43264         -2.7381         -2.7381
LJ         -0.119958        -2.13756        -3.08422
LJ           -0.4845        -2.16051        -2.16051
LJ         -0.119958        -3.08422        -2.13756
LJ          0.764468        -2.67437        -2.67437
LJ           1.59691        -1.84169        -2.67397
LJ          0.711106        -1.78862        -1.78862
LJ           1.59691        -2.67397        -1.84169
LJ           -2.7381        -1.43264         -2.7381
LJ          -2.13756       -0.119958        -3.08422
LJ          -3.08422       -0.119958        -2.13756
LJ          -2.16051         -0.4845        -2.16051
LJ          -1.16207        -1.16207         -2.3461
LJ         0.0842029       0.0842029        -2.34546
LJ         -0.957669       -0.119712        -1.73504
LJ         -0.119712       -0.957669        -1.73504
LJ            1.0605       -0.957042        -3.08449
LJ           1.66113        0.355404        -2.73805
LJ           1.08333       -0.592405         -2.1606
LJ           2.00708       -0.957214        -2.13751
LJ          -2.67437        0.764468        -2.67437
LJ          -1.84169         1.59691        -2.67397
LJ          -2.67397         1.59691        -1.84169
LJ          -1.78862        0.711106        -1.78862
LJ         -0.957042          1.0605        -3.08449
LJ          0.355404         1.66113        -2.73805
LJ         -0.957214         2.00708        -2.13751
LJ         -0.592405         1.08333         -2.1606
LJ          0.778212        0.778212        -3.35758
LJ          0.502865        0.502865        -1.58055
LJ          0.778024         2.28042        -1.85514
LJ           2.28042        0.778024        -1.85514
LJ           -2.7381         -2.7381        -1.43264
LJ          -2.16051        -2.16051         -0.4845
LJ          -3.08422        -2.13756       -0.119958
LJ          -2.13756        -3.08422       -0.119958
LJ          -1.16207         -2.3461        -1.16207
LJ         -0.119712        -1.73504       -0.957669
LJ         -0.957669        -1.73504       -0.119712
LJ         0.0842029        -2.34546       0.0842029
LJ            1.0605        -3.08449       -0.957042
LJ           2.00708        -2.13751       -0.957214
LJ           1.08333         -2.1606       -0.592405
LJ           1.66113        -2.73805        0.355404
LJ           -2.3461        -1.16207        -1.16207
LJ          -1.73504       -0.119712       -0.957669
LJ          -2.34546       0.0842029       0.0842029
LJ          -1.73504       -0.957669       -0.119712
LJ         -0.976681       -0.976681       -0.976681
LJ          -0.10071        -0.10071        -0.97662
LJ          -0.97662        -0.10071        -0.10071
LJ          -0.10071        -0.97662        -0.10071
LJ          0.657867       -0.957689       -0.957689
LJ            1.2681       0.0843797        -1.16162
LJ           0.65805       -0.119539       -0.119539
LJ            1.2681        -1.16162       0.0843797
LJ          -3.08449          1.0605       -0.957042
LJ          -2.13751         2.00708       -0.957214
LJ          -2.73805         1.66113        0.355404
LJ           -2.1606         1.08333       -0.592405
LJ         -0.957689        0.657867       -0.957689
LJ         0.0843797          1.2681        -1.16162
LJ          -1.16162          1.2681       0.0843797
LJ         -0.119539         0.65805       -0.119539
LJ           1.08344         1.08344       -0.484769
LJ           1.66119         1.66119        -1.43264
LJ           1.06047         2.00719       -0.120033
LJ           2.00719         1.06047       -0.120033
LJ          -2.67437        -2.67437        0.764468
LJ          -1.78862        -1.78862        0.711106
LJ          -2.67397        -1.84169         1.59691
LJ          -1.84169        -2.67397         1.59691
LJ         -0.957042        -3.08449          1.0605
LJ         -0.592405         -2.1606         1.08333
LJ         -0.957214        -2.13751         2.00708
LJ          0.355404        -2.73805         1.66113
LJ          0.778212        -3.35758        0.778212
LJ           2.28042        -1.85514        0.778024
LJ          0.778024        -1.85514         2.28042
LJ          0.502865        -1.58055        0.502865
LJ          -3.08449       -0.957042          1.0605
LJ           -2.1606       -0.592405         1.08333
LJ          -2.73805        0.355404         1.66113
LJ          -2.13751       -0.957214         2.00708
LJ         -0.957689       -0.957689        0.657867
LJ         -0.119539       -0.119539         0.65805
LJ          -1.16162       0.0843797          1.2681
LJ         0.0843797        -1.16162          1.2681
LJ           1.08344       -0.484769         1.08344
LJ           2.00719       -0.120033         1.06047
LJ           1.06047       -0.120033         2.00719
LJ           1.66119        -1.43264         1.66119
LJ          -3.35758        0.778212        0.778212
LJ          -1.85514         2.28042        0.778024
LJ          -1.58055        0.502865        0.502865
LJ          -1.85514        0.778024         2.28042
LJ         -0.484769         1.08344         1.08344
LJ         -0.120033         2.00719         1.06047
LJ          -1.43264         1.66119         1.66119
LJ         -0.120033         1.06047         2.00719
LJ           0.71149         0.71149         0.71149
LJ           1.59697         1.59697        0.764306
LJ          0.764306         1.59697         1.59697
LJ           1.59697        0.764306         1.59697
