108
#Comment!
LJ          -1.92092        -1.92092        -1.92092
LJ          -1.45477        -1.45477        -2.84554
LJ          -2.84554        -1.45477        -1.45477
LJ          -1.45477        -2.84554        -1.45477
LJ          -1.21369        -2.42083        -2.42083
LJ          -0.52975        -3.31543        -4.06142
LJ         -0.773347        -1.80484        -1.80484
LJ          -0.52975        -4.06142        -3.31543
LJ          0.385599        -2.18569        -2.18569
LJ           1.47921        -1.36478        -2.57112
LJ           2.39829        -4.25759        -4.25759
LJ           1.47921        -2.57112        -1.36478
LJ          -2.42083        -1.21369        -2.42083
LJ          -3.31543        -0.52975        -4.06142
LJ          -4.06142        -0.52975        -3.31543
LJ          -1.80484       -0.773347        -1.80484
LJ         -0.696237       -0.696237        -1.71544
LJ         0.0530831       0.0530831        -1.37601
LJ          -1.33591       -0.305572        -2.65173
LJ         -0.305572        -1.33591        -2.65173
LJ           2.18051       -0.545453        -4.03693
LJ           1.73106        0.875468        -2.87335
LJ          0.271542       -0.855637        -1.85759
LJ           2.94689       -0.494202        -3.26864
LJ          -2.18569        0.385599        -2.18569
LJ          -1.36478         1.47921        -2.57112
LJ          -2.57112         1.47921        -1.36478
LJ          -4.25759         2.39829        -4.25759
LJ         -0.545453         2.18051        -4.03693
LJ          0.875468         1.73106        -2.87335
LJ         -0.494202         2.94689        -3.26864
LJ         -0.855637        0.271542        -1.85759
LJ        -0.0111202      -0.0111202        -2.55165
LJ          0.720102        0.720102        -2.20817
LJ          0.241442         1.98388       -0.886356
LJ           1.98388        0.241442       -0.886356
LJ          -2.42083        -2.42083        -1.21369
LJ          -1.80484        -1.80484       -0.773347
LJ          -4.06142        -3.31543        -0.52975
LJ          -3.31543        -4.06142        -0.52975
LJ         -0.696237        -1.71544       -0.696237
LJ         -0.305572        -2.65173        -1.33591
LJ          -1.33591        -2.65173       -0.305572
LJ         0.0530831        -1.37601       0.0530831
LJ           2.18051        -4.03693       -0.545453
LJ           2.94689        -3.26864       -0.494202
LJ          0.271542        -1.85759       -0.855637
LJ           1.73106        -2.87335        0.875468
LJ          -1.71544       -0.696237       -0.696237
LJ          -2.65173       -0.305572        -1.33591
LJ          -1.37601       0.0530831       0.0530831
LJ          -2.65173        -1.33591       -0.305572
LJ         -0.490444       -0.490444       -0.490444
LJ          0.359249        0.359249       -0.489464
LJ         -0.489464        0.359249        0.359249
LJ          0.359249       -0.489464        0.359249
LJ          0.703991       -0.839326       -0.839326
LJ           1.09177      -0.0500076        -1.35063
LJ           1.28647        -0.12322        -0.12322
LJ           1.09177        -1.35063      -0.0500076
LJ          -4.03693         2.18051       -0.545453
LJ          -3.26864         2.94689       -0.494202
LJ          -2.87335         1.73106        0.875468
LJ          -1.85759        0.271542       -0.855637
LJ         -0.839326        0.703991       -0.839326
LJ        -0.0500076         1.09177        -1.35063
LJ          -1.35063         1.09177      -0.0500076
LJ          -0.12322         1.28647        -0.12322
LJ           1.18734         1.18734       -0.283839
LJ           1.18743         1.18743        -1.43254
LJ           2.14943         2.87079       -0.493869
LJ           2.87079         2.14943       -0.493869
LJ          -2.18569        -2.18569        0.385599
LJ          -4.25759        -4.25759         2.39829
LJ          -2.57112        -1.36478         1.47921
LJ          -1.36478        -2.57112         1.47921
LJ         -0.545453        -4.03693         2.18051
LJ         -0.855637        -1.85759        0.271542
LJ         -0.494202        -3.26864         2.94689
LJ          0.875468        -2.87335         1.73106
LJ        -0.0111202        -2.55165      -0.0111202
LJ           1.98388       -0.886356        0.241442
LJ          0.241442       -0.886356         1.98388
LJ          0.720102        -2.20817        0.720102
LJ          -4.03693       -0.545453         2.18051
LJ          -1.85759       -0.855637        0.271542
LJ          -2.87335        0.875468         1.73106
LJ          -3.26864       -0.494202         2.94689
LJ         -0.839326       -0.839326        0.703991
LJ          -0.12322        -0.12322         1.28647
LJ          -1.35063      -0.0500076         1.09177
LJ        -0.0500076        -1.35063         1.09177
LJ           1.18734       -0.283839         1.18734
LJ           2.87079       -0.493869         2.14943
LJ           2.14943       -0.493869         2.87079
LJ           1.18743        -1.43254         1.18743
LJ          -2.55165      -0.0111202      -0.0111202
LJ         -0.886356         1.98388        0.241442
LJ          -2.20817        0.720102        0.720102
LJ         -0.886356        0.241442         1.98388
LJ         -0.283839         1.18734         1.18734
LJ         -0.493869         2.87079         2.14943
LJ          -1.43254         1.18743         1.18743
LJ         -0.493869         2.14943         2.87079
LJ           1.15131         1.15131         1.15131
LJ           1.82663         1.82663        0.178034
LJ          0.178034         1.82663         1.82663
LJ           1.82663        0.178034         1.82663
