108
#Comment!
LJ           2.77924        0.532225          1.4928
LJ           2.59138        -3.40121       -0.362781
LJ         -0.821286       -0.900911        0.824848
LJ          -2.68028        0.636956       -0.418061
LJ           1.65994        -2.11888         2.17714
LJ           1.31864         1.51523        -1.56334
LJ           2.69355         1.46138        0.691401
LJ            1.4893        0.513938         -1.6786
LJ            1.2727       -0.570981        0.832013
LJ          0.879994        -3.81103       -0.191659
LJ          -2.54228         2.07206         1.35033
LJ           1.38115         1.48504         3.20261
LJ          -1.37351        -1.27411       -0.083915
LJ            2.6011       -0.784544       -0.170622
LJ         -0.249595        0.526922         2.84444
LJ        -0.0339513         1.14398         1.89729
LJ            0.2783        -2.39812         -1.6721
LJ          0.238799          1.0913        0.660204
LJ          0.438127         1.77049         2.92147
LJ         -0.618081       0.0864117        -1.37614
LJ          0.606766         -2.8443         1.92415
LJ            1.1149        0.891181       -0.783042
LJ           2.39028        -1.79782        -1.76833
LJ          -6.46179         3.10312         5.12923
LJ          -6.20987        -1.17864         5.23186
LJ          -2.48094          2.0252        0.248085
LJ          -3.14942        -5.94126        -1.03718
LJ          0.266434        -4.90115        0.693447
LJ           2.15017         2.20362         2.60811
LJ          -2.91393        0.223258        0.955662
LJ         -0.427328       -0.197136         1.90549
LJ          -3.81073        -5.61964         2.08747
LJ          0.142335       -0.816898        -1.71819
LJ           1.64001        -1.13098        -1.03043
LJ          -1.27857         2.08676         1.03522
LJ          0.243366        -1.24601       -0.525949
LJ           0.30912         -2.5051        0.570505
LJ         0.0999716       -0.887401        -2.77572
LJ          -1.61688      -0.0769286         2.60011
LJ           2.05211        0.702059        -0.30313
LJ           1.57615          1.3647        0.488356
LJ          0.778522        -1.52037         1.35464
LJ          -1.26033       -0.886227        -1.11319
LJ            -1.401       -0.218896        0.134006
LJ           1.80853        0.596518          1.5062
LJ        -0.0229043        -4.19806         4.50235
LJ           1.39496        -1.64596       0.0873701
LJ           2.39016      0.00707797        0.620644
LJ           -1.8525        0.330787       -0.809709
LJ         -0.983444         0.37348         1.06594
LJ         -0.684732         1.56107         3.12231
LJ          -0.95537         1.03384        -1.10353
LJ          -3.15341        -2.93354       -0.260582
LJ         -0.479966         2.09508       -0.994587
LJ           1.10614         1.24016         2.00106
LJ           2.04493        0.678415         2.60426
LJ          0.662944        -0.10193      -0.0140492
LJ          0.818917       -0.151197         -2.2765
LJ           1.75457        -1.58571         1.22274
LJ           3.57706        0.461447        0.842775
LJ          0.253757         1.78176       -0.341014
LJ           4.51322         3.36366        -3.60938
LJ         -0.147533        -2.01651         1.91866
LJ          -1.28374       -0.181988        -2.31676
LJ         -0.652459         1.84642        0.186772
LJ         -0.299269        0.467937        -2.65135
LJ           2.13087        -0.47869         1.49017
LJ           1.88896         1.83145         1.55301
LJ          -4.30131         1.88464        -4.87784
LJ         -0.360538         2.12433         1.83802
LJ          -4.17756       -0.787416        -6.38544
LJ           3.15461        -0.80701         1.92114
LJ          0.887747        0.473374         1.12956
LJ           0.51179         1.89886         1.33493
LJ            -2.308         1.05925         1.68916
LJ          0.963966        0.347938         3.36349
LJ         -0.370304       -0.360701       -0.106898
LJ         0.0624333         0.63818       -0.515254
LJ          0.466516         4.75637         4.99503
LJ          0.291024       -0.979521        0.491824
LJ          0.238396        0.802945        -1.65426
LJ          0.734396      -0.0633939        -1.08585
LJ           1.09445       -0.509937         1.86648
LJ       -0.00448876        0.110913        0.780912
LJ           1.14791         2.46958         2.24739
LJ          -2.06532        0.581375         0.53126
LJ         -0.862012       -0.643012         2.99886
LJ         -0.617661         1.85886        -2.21606
LJ          0.588506        0.401886         2.25777
LJ          0.216985       -0.553482         2.64747
LJ          -1.17059         1.30739         1.68875
LJ          0.138394         1.10791         3.67912
LJ           0.63724        -1.59505         2.41936
LJ          0.731139        -4.72889        -2.15872
LJ          -3.68364         1.73135        0.738444
LJ           1.83498           -2.61      -0.0756727
LJ           -0.7472        0.845125        0.119097
LJ           1.18859         2.24655       -0.406065
LJ            1.6254       -0.428113       -0.278175
LJ           4.31551       -0.102257        -5.37068
LJ           1.98842         2.28026        0.329037
LJ          -1.75217         1.31855       -0.145004
LJ           2.98565         2.96985        0.477027
LJ          -3.24413       -0.961288         5.52619
LJ           2.00662       -0.561498        -2.36489
LJ          0.958026        -2.13126       -0.888255
LJ          -4.65367         4.22953        -5.20036
LJ          0.520901         4.05832        -1.73308
