108
#Comment!
LJ          -1.06054        -2.48214        0.168183
LJ           -5.0405         5.88776        0.782006
LJ           3.25385         4.22455        -3.28445
LJ           4.12617           5.135        -3.68008
LJ           1.52261        -1.40796        -1.47612
LJ         -0.260645         1.67442       -0.834639
LJ          0.921841         -1.7358        0.168425
LJ          0.691736        -3.40621        0.102644
LJ           0.99123        -2.60892       -0.398318
LJ           1.36277        0.755386       -0.428049
LJ           2.35137         2.07658         1.40812
LJ           1.11832        -1.87011         2.24353
LJ          -1.18076       -0.861043        -1.31477
LJ          0.931987         2.55051        -1.74224
LJ         -0.764664         1.87509        0.488464
LJ         -0.323992         2.62253       -0.214197
LJ          -1.77445         1.12067        -1.48528
LJ         -0.576397        -0.36356       -0.120911
LJ          -1.32218         2.94238        0.304792
LJ         -0.227978       -0.478419        -1.14891
LJ           0.79524        0.156089        -1.11091
LJ           0.15629        -1.27189       -0.405547
LJ          0.686476       -0.977252        -2.28951
LJ           0.84081         2.58336         1.46206
LJ          -1.32769         4.04307         1.05713
LJ         -0.295582         2.58578        -2.86866
LJ           2.17319         2.79015        -2.10358
LJ           3.11502         1.21269         2.57632
LJ         -0.240363         2.57064        -1.36149
LJ          0.938296         4.15488         -0.8151
LJ        -0.0146061         1.83822         1.96937
LJ          0.216175        0.641916        -1.93908
LJ          0.254634         1.77414        -2.02553
LJ           1.88241         0.92374        -1.82645
LJ          0.456083          1.3249       -0.177421
LJ         -0.753396        0.870082        -1.62099
LJ          -1.06762        -2.51857        -1.07095
LJ          -2.85871       -0.532365         1.22456
LJ          -1.60008          1.0803        0.672045
LJ           0.63396        -2.02001         1.35366
LJ          -0.80593        -1.46392       0.0807029
LJ         -0.295371        -3.44843       -0.114857
LJ          -1.72449        -1.32115        0.689813
LJ         -0.773377       -0.722011            1.11
LJ         -0.092904        -3.96523        0.764337
LJ          -6.10318        -2.07543       -0.449201
LJ        -0.0709479        -2.42863       -0.409449
LJ           1.51202        -2.65359        0.565417
LJ          -1.27816        0.107848       -0.769011
LJ          -1.22878         2.03621       -0.670496
LJ          0.213233      -0.0820587         1.08689
LJ          -2.32814        0.206627       -0.737726
LJ         -0.458493        -1.65644        -1.47162
LJ          0.909021         1.40028        -1.27406
LJ            1.4577        0.577312        0.766232
LJ          0.971784        -1.00681         1.34242
LJ           0.76066       -0.606316       0.0274606
LJ          0.278746        0.261568       0.0793875
LJ           1.72147        -0.35841       -0.470536
LJ           1.81096       -0.976464        0.474212
LJ          -1.57315       0.0267433        -1.85627
LJ            5.0893         4.59706         2.64588
LJ          -1.85349         1.13497       -0.437591
LJ          -1.76156       -0.833574       -0.355295
LJ          0.341748         1.07142        0.883899
LJ         -0.746461         1.06661       -0.172141
LJ         -0.547748        0.602465          0.8735
LJ          0.815859         2.27379       -0.604375
LJ           3.00031         6.14948         5.16318
LJ           1.91388         2.36491         2.60234
LJ          -4.45829        0.336757         6.41721
LJ         -0.721165         -6.2693        -5.25664
LJ        -0.0469721         -2.1622        0.635458
LJ           2.67465          1.8201        0.413767
LJ         -0.359655        0.651706         2.06787
LJ          0.920633        0.763798         1.60975
LJ          -1.14842        -3.36427        0.905549
LJ         -0.951355        -1.70216         1.34855
LJ           1.11812         3.03118         4.78363
LJ          -3.98814        -2.13111         2.14444
LJ         0.0397241        -1.05529        0.664815
LJ           1.83124        -1.76836       -0.439423
LJ         -0.599206        -2.67331         1.46784
LJ      -0.000506125        -1.20374         1.78466
LJ          -2.52724        0.440544        0.358415
LJ          -1.58396       -0.012704        0.369097
LJ         -0.135243        -3.50798         1.93128
LJ          -3.93219         1.33798         3.36453
LJ          0.480986       -0.284916         2.32109
LJ         -0.700967        -1.55905          2.5382
LJ          -1.86656         2.08136        0.703803
LJ          0.551763        -1.22419          2.9205
LJ          0.101377        -2.32618          2.2746
LJ         -0.398017        -5.61899         6.28573
LJ          -6.33638         -5.7982        0.676406
LJ          -6.19098         2.59303        -4.95834
LJ          -1.87697       -0.170882         1.39334
LJ          0.266202         2.28537        0.713798
LJ            1.0644         2.99904        0.183301
LJ            2.0636        -2.85499       -0.808695
LJ           5.30897         3.67806          1.3266
LJ          -5.48773         1.63612        -3.20056
LJ        -0.0230154         5.22899         1.42663
LJ           5.56905        -6.20283         2.87128
LJ           2.22198         2.29165         3.83174
LJ          -2.84312       -0.662978       -0.159202
LJ           1.57056         2.73117        -4.76177
LJ           6.04471        0.877277         2.56614
