108
#Comment!
LJ           3.46555        -1.69776         1.53183
LJ          -3.06397         2.61836        -6.34702
LJ           1.67014         -2.1632         2.34477
LJ          -1.17262         2.57824        0.815653
LJ         -0.876107        0.625281         2.19033
LJ           1.23291        -2.62616       -0.314299
LJ           1.09998       -0.496736       -0.851796
LJ           3.14598        -1.98498      -0.0402355
LJ            1.8228        -1.00508         1.92487
LJ          -1.87849        -3.36929         3.16888
LJ           1.27461        0.617088         3.80051
LJ          0.369696        0.568457       -0.121525
LJ          0.358444        -1.20516        0.489191
LJ            2.9616        -2.83371        -5.20884
LJ           2.33427        -1.77149        -0.71398
LJ          0.651636        -3.27743        0.856294
LJ           2.05421        -2.20173         4.27408
LJ           1.32324         1.51802       -0.192271
LJ         -0.596765         5.57221        -1.76645
LJ           2.35514        -2.02383        0.567299
LJ          -2.30053        0.307763        0.321124
LJ           1.77859          3.2796        -1.78268
LJ           2.44118        0.275082        0.561096
LJ           1.13903        -3.90701       -0.656528
LJ           0.47116          2.5169         1.19998
LJ        -0.0434785         2.42195        -1.34405
LJ          -1.07546       -0.239705       -0.938622
LJ           4.20759         4.97783        -2.00151
LJ           3.07523         2.11834         2.44184
LJ           1.44949         -3.2621         1.88179
LJ          0.657311        -1.50289          5.5668
LJ           5.00609         -1.3142        0.574183
LJ           1.45212        -1.38587        -1.42222
LJ          0.575043       -0.643026        -2.15827
LJ           0.16191         1.70887       -0.463299
LJ           3.19204        0.143226       -0.225579
LJ           2.36245        -1.04508         1.02016
LJ         0.0358602        -3.96547       -0.447926
LJ          0.932794       -0.154161        0.553198
LJ           1.64975        0.305306       -0.235842
LJ           2.44337         2.68083        -0.17797
LJ         -0.182787        -1.20721         2.17151
LJ            1.0634        -1.39996       -0.293909
LJ         0.0518634       -0.503286       -0.315202
LJ           2.27741         1.31043         2.92863
LJ           2.38918        -4.79391        -2.11478
LJ           3.37133        0.390562         1.55316
LJ           2.26526          -1.333         2.94442
LJ           2.16334       -0.738624       -0.994073
LJ         -0.797985         1.69935        0.285104
LJ           3.32741         1.41122        0.910369
LJ          0.218168         4.61231       -0.915292
LJ          -2.85125         5.12182        -3.58913
LJ         -0.087385       -0.377038        0.941968
LJ            2.3267        -1.97407         1.52823
LJ           3.03466       -0.984937       -0.288122
LJ           2.48691        0.949407       -0.638176
LJ           4.04389       -0.445631       -0.279883
LJ         -0.446231       -0.453576         3.16621
LJ           3.70349       -0.289339        0.739987
LJ          0.846041        0.838087        -1.16577
LJ           3.98599        -6.11265        -5.32626
LJ           1.04244        -1.22871         2.54442
LJ          -0.80106         4.51845        -1.38183
LJ           2.12795         1.39342        0.637877
LJ           1.33748        -1.40585         0.99684
LJ           1.61515         -3.4418         3.07616
LJ          0.942944         2.05678        -1.08095
LJ          0.517241          1.7511        -2.33638
LJ           2.13356         1.07674         1.81735
LJ           2.41409        0.614669        -4.18513
LJ          0.297109        0.246172         2.60875
LJ          0.676437         -2.2461         1.88913
LJ           1.52044         0.58262        0.932635
LJ          -0.83536        -1.36026         1.01441
LJ          0.846619       -0.563381         1.63082
LJ            2.3057       0.0420289         1.58545
LJ         -0.953447        0.619349       -0.439174
LJ           3.60341       -0.568628         4.09711
LJ           1.49932        0.132255         2.28561
LJ           1.89855       -0.697818        0.102282
LJ           1.41947        -2.50872        0.853076
LJ           2.57024        0.381989         3.47043
LJ           2.98026       -0.735651         1.89021
LJ           1.34135         2.69134        -0.25519
LJ          -1.24711       0.0634198        0.847836
LJ         -0.547924        -1.45348       -0.259314
LJ        -0.0935952         1.30163        -1.48247
LJ          0.980283         1.40481         1.80562
LJ          0.353026        -3.15114         2.77455
LJ           0.26092         2.79169       -0.155598
LJ          0.702982         1.57208        0.706598
LJ          0.541408        0.488379          1.3168
LJ         -0.345081        -1.03153         -1.3214
LJ          0.242165        -2.21971       0.0526886
LJ           2.29726         1.32088         4.05434
LJ        -0.0296727        0.289734        -1.21156
LJ         -0.586875          3.5988        0.641403
LJ           -4.4248          5.5759         6.13272
LJ           4.65205         5.76993         5.69866
LJ          -1.24934         2.81398       -0.301477
LJ          -1.01984        0.526807         -2.1012
LJ          0.490791         3.34446        -1.04812
LJ           1.72076        0.312415        -1.54553
LJ         -0.440704         3.56116       -0.743877
LJ          -1.02628       -0.389073         2.14775
LJ           -5.8841        -4.72063        -2.00787
LJ           2.69676        -3.13442       -0.433313
