108
#Comment!
LJ          -1.67333        -1.67333        -1.67333
LJ           -1.3561         -1.3561        -2.57471
LJ          -2.57471         -1.3561         -1.3561
LJ           -1.3561        -2.57471         -1.3561
LJ          -1.55156        -2.88085        -2.88085
LJ        -0.0646388        -3.25892        -4.21431
LJ         -0.761696        -2.05367        -2.05367
LJ        -0.0646388        -4.21431        -3.25892
LJ          0.278185        -2.45505        -2.45505
LJ           1.46491        -1.42562        -2.60965
LJ           1.95447        -3.47743        -3.47743
LJ           1.46491        -2.60965        -1.42562
LJ          -2.88085        -1.55156        -2.88085
LJ          -3.25892      -0.0646388        -4.21431
LJ          -4.21431      -0.0646388        -3.25892
LJ          -2.05367       -0.761696        -2.05367
LJ          -0.93882        -0.93882        -1.69861
LJ         -0.103916       -0.103916        -1.45691
LJ          -1.14367       -0.203297        -2.61276
LJ         -0.203297        -1.14367        -2.61276
LJ           2.14901        -1.00493        -4.19011
LJ           1.89394        0.947864        -2.72319
LJ          0.713316       -0.803072        -1.75971
LJ           3.10258       -0.968341        -3.23006
LJ          -2.45505        0.278185        -2.45505
LJ          -1.42562         1.46491        -2.60965
LJ          -2.60965         1.46491        -1.42562
LJ          -3.47743         1.95447        -3.47743
LJ          -1.00493         2.14901        -4.19011
LJ          0.947864         1.89394        -2.72319
LJ         -0.968341         3.10258        -3.23006
LJ         -0.803072        0.713316        -1.75971
LJ        -0.0062739      -0.0062739        -2.71256
LJ          0.675674        0.675674        -2.39937
LJ        0.00856671         2.19348       -0.866512
LJ           2.19348      0.00856671       -0.866512
LJ          -2.88085        -2.88085        -1.55156
LJ          -2.05367        -2.05367       -0.761696
LJ          -4.21431        -3.25892      -0.0646388
LJ          -3.25892        -4.21431      -0.0646388
LJ          -0.93882        -1.69861        -0.93882
LJ         -0.203297        -2.61276        -1.14367
LJ          -1.14367        -2.61276       -0.203297
LJ         -0.103916        -1.45691       -0.103916
LJ           2.14901        -4.19011        -1.00493
LJ           3.10258        -3.23006       -0.968341
LJ          0.713316        -1.75971       -0.803072
LJ           1.89394        -2.72319        0.947864
LJ          -1.69861        -0.93882        -0.93882
LJ          -2.61276       -0.203297        -1.14367
LJ          -1.45691       -0.103916       -0.103916
LJ          -2.61276        -1.14367       -0.203297
LJ         -0.666728       -0.666728       -0.666728
LJ          0.198837        0.198837         -0.5694
LJ           -0.5694        0.198837        0.198837
LJ          0.198837         -0.5694        0.198837
LJ          0.410241       -0.815684       -0.815684
LJ           1.05548        0.192789        -1.36923
LJ           1.26605       -0.300596       -0.300596
LJ           1.05548        -1.36923        0.192789
LJ          -4.19011         2.14901        -1.00493
LJ          -3.23006         3.10258       -0.968341
LJ          -2.72319         1.89394        0.947864
LJ          -1.75971        0.713316       -0.803072
LJ         -0.815684        0.410241       -0.815684
LJ          0.192789         1.05548        -1.36923
LJ          -1.36923         1.05548        0.192789
LJ         -0.300596         1.26605       -0.300596
LJ           1.05628         1.05628        -0.34024
LJ           1.55846         1.55846        -1.99502
LJ           2.16668         3.12166      -0.0755176
LJ           3.12166         2.16668      -0.0755176
LJ          -2.45505        -2.45505        0.278185
LJ          -3.47743        -3.47743         1.95447
LJ          -2.60965        -1.42562         1.46491
LJ          -1.42562        -2.60965         1.46491
LJ          -1.00493        -4.19011         2.14901
LJ         -0.803072        -1.75971        0.713316
LJ         -0.968341        -3.23006         3.10258
LJ          0.947864        -2.72319         1.89394
LJ        -0.0062739        -2.71256      -0.0062739
LJ           2.19348       -0.866512      0.00856671
LJ        0.00856671       -0.866512         2.19348
LJ          0.675674        -2.39937        0.675674
LJ          -4.19011        -1.00493         2.14901
LJ          -1.75971       -0.803072        0.713316
LJ          -2.72319        0.947864         1.89394
LJ          -3.23006       -0.968341         3.10258
LJ         -0.815684       -0.815684        0.410241
LJ         -0.300596       -0.300596         1.26605
LJ          -1.36923        0.192789         1.05548
LJ          0.192789        -1.36923         1.05548
LJ           1.05628        -0.34024         1.05628
LJ           3.12166      -0.0755176         2.16668
LJ           2.16668      -0.0755176         3.12166
LJ           1.55846        -1.99502         1.55846
LJ          -2.71256      -0.0062739      -0.0062739
LJ         -0.866512         2.19348      0.00856671
LJ          -2.39937        0.675674        0.675674
LJ         -0.866512      0.00856671         2.19348
LJ          -0.34024         1.05628         1.05628
LJ        -0.0755176         3.12166         2.16668
LJ          -1.99502         1.55846         1.55846
LJ        -0.0755176         2.16668         3.12166
LJ           1.25466         1.25466         1.25466
LJ           1.74119         1.74119        0.409245
LJ          0.409245         1.74119         1.74119
LJ           1.74119        0.409245         1.74119
