108
#Comment!
LJ          -1.07712        -2.08857        0.267431
LJ          -5.28965          5.3872       -0.583309
LJ           2.25245         4.05738        -2.88678
LJ            3.1634         3.75926        -3.71498
LJ           1.49576        -1.86957        -1.53297
LJ          0.167174         2.44972       -0.825222
LJ          0.902267        -1.69608        0.055156
LJ          0.879541        -3.26104        0.181385
LJ           1.16056        -2.63625       -0.720598
LJ           1.30515        0.397867       -0.421895
LJ            1.6385         1.32387        0.895831
LJ          0.860929        -1.24292         2.27846
LJ          -1.29588          -1.081         -1.7844
LJ          0.555649         1.52788        -1.95064
LJ          -0.90144         1.83896        0.665526
LJ          0.179231         2.81866        0.194264
LJ          -1.40715         1.23858        -1.33637
LJ         -0.179914       -0.332671        0.291078
LJ         -0.741595         3.25767       -0.146636
LJ        -0.0836292       -0.712282        -1.24974
LJ            1.0857       -0.333804        -1.26098
LJ         -0.153873        -1.25258       -0.327748
LJ         -0.774744       -0.109322        -2.34941
LJ          0.778942         3.69833         2.84831
LJ          -1.98861         5.26773        0.284166
LJ         -0.260663         2.09084         -1.6734
LJ            1.4494         2.52243        -2.52819
LJ           3.99093         1.44624         1.75872
LJ          0.205175         3.74337        -0.69329
LJ           1.49966         5.02379        -1.26299
LJ           -1.2701         1.03407         1.44513
LJ          0.683564        0.274384        -2.04927
LJ         -0.189394         1.10504        -2.45434
LJ           1.50563        0.963698         -1.5099
LJ          0.424263         1.70606        0.312049
LJ         -0.317664         1.03318        -1.45203
LJ         -0.905488        -2.88163       -0.842138
LJ          -3.18655       -0.677682         0.23791
LJ          -1.74056         1.24788        0.408499
LJ          0.949248        -1.85999         1.18739
LJ         -0.767114        -1.16909        0.689302
LJ         -0.339705        -3.17442        0.115348
LJ          -1.80691        -1.35573        0.775443
LJ         -0.730332       -0.275521         1.32964
LJ        -0.0238882        -4.01863        0.854666
LJ          -5.89889        -3.70962       0.0154461
LJ        -0.0215885        -2.34108        -0.43715
LJ           1.57351        -2.47521        0.643574
LJ         -0.854128       -0.073174       -0.540924
LJ          -1.13503         2.36673       -0.700272
LJ          0.303768      -0.0838265         1.37688
LJ          -1.75058        0.387013       -0.687169
LJ         -0.682935        -1.80673        -1.27907
LJ          0.752843          1.3502       -0.700328
LJ          0.677997        0.493282        0.555679
LJ           1.39297       -0.762013         1.12225
LJ          0.828926       -0.407141      -0.0480318
LJ          0.147907        0.238819       -0.620974
LJ            2.1174        0.100301        -1.31105
LJ           2.39507       -0.106974        0.358872
LJ          -1.07022        0.257812        -1.49296
LJ           5.92701         3.96982         2.01955
LJ          -2.23978         1.97207       -0.482096
LJ          -1.20549        -1.14695       -0.634528
LJ        -0.0639111         1.63455         1.57599
LJ         -0.660618         1.10056       -0.275848
LJ         -0.489851          0.5962        0.885404
LJ           1.10667         2.38313       -0.427392
LJ           2.89364          6.2434         5.93402
LJ           1.06728          1.7994         1.87431
LJ          -4.12099       -0.592879          6.2747
LJ          -1.27041         5.89351        -5.25548
LJ         0.0968485        -2.20331        0.714245
LJ           1.95556         1.45572       -0.194349
LJ         -0.453381        0.513934         1.91412
LJ          0.570667          1.0338         2.38449
LJ          -1.06773        -3.50489        0.770602
LJ          -0.92108        -2.03055            1.36
LJ           1.24149         2.40627         5.11049
LJ           -4.8258        -1.98439         2.22314
LJ          0.306783         -1.0766        0.949425
LJ           1.93582        -1.65742       -0.155366
LJ         -0.304953        -2.99776         1.31335
LJ         -0.110677        -1.11976           1.959
LJ          -2.15093         0.19715        0.817289
LJ            -1.206      -0.0947513         0.42861
LJ           0.26559        -3.63915         1.98318
LJ          -3.16974         2.22709         3.04146
LJ          0.956215       -0.203657         2.49555
LJ         -0.978885        -1.21004         2.52173
LJ           -1.7244          2.6537        0.331551
LJ          -0.15786        -1.19603         3.12957
LJ          0.286524        -2.17612         2.23329
LJ          -1.55001        -4.96587          6.1575
LJ           6.05837        -5.43782        0.151569
LJ          -6.39563         2.75143        -4.40847
LJ          -1.81163       -0.739954         1.81317
LJ          0.930344          2.2793          1.0091
LJ           1.09766         3.32068        0.377504
LJ           2.31867        -2.89723     -0.00615904
LJ           5.20105         3.56884        0.191956
LJ          -5.10624         1.32715        -2.84425
LJ         -0.590041         5.41331        0.165879
LJ           5.66515         6.09273         2.69875
LJ           2.39949         1.47574         2.80314
LJ          -2.03242       -0.725715      -0.0648911
LJ        -0.0450316         4.51712        -4.57253
LJ          -4.56879       -0.596311         4.25098
