108
#Comment!
LJ          -2.91536        -2.91537        -2.91537
LJ         -0.655026       -0.655011        -3.48452
LJ          -3.48452       -0.655027       -0.655023
LJ         -0.655044         -3.4845       -0.655026
LJ         -0.430611        -2.53076        -2.53078
LJ           0.86443       -0.660045        -3.47149
LJ          -0.25783         -1.6826        -1.68266
LJ          0.864427         -3.4715       -0.660043
LJ          0.772195        -2.52876        -2.52877
LJ           1.77525        0.636793       -0.617488
LJ           0.63178         5.07843         5.07843
LJ           1.77523       -0.617468         0.63676
LJ          -2.53065       -0.430612        -2.53068
LJ         -0.660061        0.864448        -3.47154
LJ           -3.4715        0.864419       -0.660036
LJ           -1.6825       -0.257721        -1.68245
LJ         -0.725561       -0.725478         -2.3255
LJ         -0.178243       -0.178146        -1.60022
LJ          -1.44016      -0.0722406        -2.85929
LJ        -0.0723286        -1.44012        -2.85921
LJ           1.13902       0.0386591        -2.69393
LJ           1.56538       -0.957669        -2.31107
LJ          0.463318       -0.874623        -2.20045
LJ           3.60985         -1.6504        -2.52825
LJ          -2.52879        0.772219        -2.52876
LJ          0.636771         1.77521       -0.617491
LJ         -0.617486         1.77519         0.63677
LJ           5.07843         0.63178         5.07843
LJ         0.0386841         1.13903          -2.694
LJ           -0.9576         1.56533        -2.31108
LJ          -1.65043         3.60993        -2.52826
LJ         -0.874723        0.463354         -2.2005
LJ          0.242554        0.242602        -2.36974
LJ           1.12016         1.12014        -2.53402
LJ        -0.0503972         2.15152        -1.96368
LJ           2.15159      -0.0504314        -1.96364
LJ          -2.53063        -2.53063       -0.430628
LJ          -1.68247        -1.68243       -0.257548
LJ          -3.47156       -0.660004        0.864466
LJ          -0.66007        -3.47155        0.864387
LJ         -0.725592        -2.32551       -0.725573
LJ         -0.072258        -2.85922        -1.44013
LJ          -1.44014        -2.85923      -0.0722417
LJ         -0.178267        -1.60041       -0.178278
LJ           1.13907        -2.69395       0.0386786
LJ           3.60988        -2.52829         -1.6505
LJ          0.463481        -2.20051       -0.874659
LJ           1.56538        -2.31107       -0.957569
LJ          -2.32548       -0.725533       -0.725526
LJ          -2.85926      -0.0722979        -1.44016
LJ          -1.60003       -0.178042       -0.178127
LJ          -2.85925        -1.44014      -0.0722831
LJ          -0.93921       -0.939188       -0.939187
LJ          0.695471        0.695433       -0.729154
LJ         -0.729201        0.695413        0.695446
LJ          0.695485         -0.7291         0.69545
LJ          0.463446        -1.00743        -1.00744
LJ          0.984239        0.122297        -1.57386
LJ           1.51096       -0.995439       -0.995363
LJ          0.984197        -1.57389        0.122437
LJ          -2.69398         1.13895       0.0386817
LJ          -2.52824          3.6099        -1.65042
LJ          -2.31112         1.56534       -0.957626
LJ          -2.20051        0.463347       -0.874702
LJ          -1.00822        0.463336        -1.00823
LJ          0.122307        0.984316        -1.57389
LJ          -1.57385        0.984384          0.1222
LJ          -0.99518         1.51084       -0.995235
LJ            2.0238         2.02383         1.22595
LJ            1.6483         1.64833       -0.237151
LJ          0.629058         1.96686        -3.28946
LJ           1.96679        0.629004         -3.2894
LJ          -2.52882        -2.52879         0.77218
LJ           5.07843         5.07843         0.63178
LJ         -0.617473         0.63677         1.77521
LJ          0.636785       -0.617468          1.7752
LJ         0.0386838        -2.69399         1.13909
LJ         -0.874735         -2.2005        0.463487
LJ          -1.65049        -2.52829         3.60993
LJ         -0.957583        -2.31101         1.56533
LJ          0.242582        -2.36979        0.242639
LJ           2.15162        -1.96367      -0.0503254
LJ        -0.0503251        -1.96365         2.15163
LJ           1.12011          -2.534         1.12013
LJ          -2.69397       0.0386564         1.13897
LJ          -2.20039       -0.874693        0.463296
LJ          -2.31111        -0.95769         1.56537
LJ          -2.52822        -1.65041         3.60984
LJ          -1.00792        -1.00796        0.463306
LJ         -0.995263       -0.995314         1.51086
LJ          -1.57387        0.122239        0.984308
LJ          0.122453        -1.57392        0.984201
LJ           2.02377         1.22591         2.02379
LJ           1.96684        -3.28945        0.628987
LJ          0.629009        -3.28947         1.96685
LJ            1.6483       -0.237185         1.64832
LJ          -2.36971        0.242539         0.24252
LJ          -1.96365         2.15155      -0.0504082
LJ          -2.53402         1.12015         1.12018
LJ          -1.96366      -0.0504452         2.15152
LJ           1.22597         2.02385         2.02381
LJ          -3.28941         1.96686        0.629025
LJ         -0.237167         1.64831         1.64828
LJ          -3.28937        0.629005         1.96683
LJ           5.43459         5.43459         5.43459
LJ           1.26808         1.26807        -1.54215
LJ          -1.54217          1.2681         1.26811
LJ           1.26803        -1.54214         1.26801
