108
#Comment!
LJ          -2.02473        -1.18901       -0.402708
LJ          -4.36237        -4.33423        -5.03534
LJ          -4.86397        -4.13523        -4.17094
LJ          -4.31444        -5.05648        -4.34789
LJ           1.21039        -2.86102        -2.01283
LJ         -0.417334       0.0135337        -2.65879
LJ           1.17336        -1.89765        -1.07266
LJ           1.09478        -2.70663       -0.453102
LJ        -0.0631174        -1.64351        -1.91517
LJ           1.73609       0.0468297       -0.405067
LJ           4.46275         3.36364         3.53716
LJ           1.57512        -1.14349         1.37696
LJ          -1.57492       -0.901423        -2.47978
LJ         0.0034474         2.57637        -2.57733
LJ           -2.3499        0.720961        0.740337
LJ           -1.1858         2.06775       -0.843388
LJ          -1.35801        0.118987        -2.16958
LJ          0.482477        0.246133        0.164718
LJ          -1.29422        0.612587        -3.08654
LJ          -1.05417       -0.866436        -1.51478
LJ           1.06348        -1.85784        -2.30828
LJ           1.07401        -1.06468        -1.70158
LJ         0.0403181       -0.721112        -1.42825
LJ           5.39678        -3.08688         6.33592
LJ          -1.05678         1.38514        -4.97483
LJ          0.732508         1.74809        -1.28225
LJ         -0.156033         2.06266       -0.557556
LJ           4.35855        -4.42522         4.54501
LJ         -0.703914         1.55415        -2.59698
LJ          -1.19744         2.39503        -1.97336
LJ          -3.06895         5.31421         6.33317
LJ         -0.268692        0.401013        -1.60095
LJ         -0.340066        0.746397        -3.57855
LJ          0.410221         1.08751        -2.22116
LJ         -0.464359         1.49299        -1.49259
LJ          0.615306       -0.281062        -2.32489
LJ         -0.744962        -2.27836       -0.384149
LJ          -1.78172       -0.862785         1.33111
LJ          -2.27319       -0.018097          1.6429
LJ          0.402989        -2.39332        0.839131
LJ         -0.891331        -1.16268       -0.426926
LJ          0.277513        -2.64001        -1.32093
LJ         -0.622603        -2.36062         1.14521
LJ         -0.106069       -0.758847        0.203409
LJ          0.951128         -3.8169       -0.911976
LJ           5.80871         5.95631        -3.06089
LJ       -0.00617513        -1.61574        -0.84463
LJ           1.89427       -0.887371       -0.837053
LJ          -1.02951        0.878043       -0.811178
LJ          -1.43784         1.16992        -1.99179
LJ         -0.178258       -0.139908         1.00996
LJ          -1.57212        -1.63832        0.456407
LJ          -0.70977       -0.156429       -0.851313
LJ           1.26231        0.969407       -0.671005
LJ          0.950307        0.479723         1.29669
LJ           1.01672       -0.471703        0.611558
LJ          0.820623       -0.617565       -0.673527
LJ           0.86723        0.226231         -1.4094
LJ           2.07591       -0.142189        -1.58232
LJ          0.765366        -1.74317       -0.047706
LJ          -2.98549       -0.769399        -1.03721
LJ           6.21493         5.46507        -4.73905
LJ          -2.24823         1.47436        -1.36553
LJ          -2.09768       0.0434318        -1.27461
LJ          0.695419         1.35098        0.529487
LJ          0.146691        0.710965        -0.67861
LJ         -0.583444         0.44914       0.0465106
LJ         -0.781876         1.56722         0.13418
LJ           3.53049         4.94541         1.63385
LJ           4.69696         4.52422         3.31405
LJ          -3.31826         3.76255         5.05961
LJ           3.74329        -3.39225         5.03068
LJ          -1.42062        -2.75935        0.380833
LJ           3.48841         2.86043         4.12987
LJ         -0.666425         1.00581         2.04598
LJ          0.724331       -0.659152         1.79209
LJ          -1.08149        -3.31387          1.1988
LJ         -0.819268          -1.113         1.11363
LJ          -2.98319         6.35206         5.46398
LJ          -1.98612        -1.95256         1.46566
LJ         -0.215854        -1.78658        0.312909
LJ             1.452        -1.88312        0.705211
LJ        -0.0932535        -2.09772           2.316
LJ          0.153199         -1.2425         1.18449
LJ          -2.24395       -0.293241        0.462472
LJ          -1.19366       -0.472017         0.39919
LJ          -2.64157        -2.85486         1.07343
LJ           6.35525        -3.04812         5.40336
LJ         -0.923964      -0.0117798         1.96545
LJ          -1.06107        -1.90397         1.89451
LJ         -0.198502        0.939504         1.00394
LJ         -0.394679       -0.959297         2.25309
LJ           1.35314        -1.42387         2.89373
LJ           3.71425         5.04913        -3.37449
LJ          -3.34196         5.05009         3.74991
LJ           5.49806         2.67021         5.80113
LJ          -1.32842        0.382993         1.08657
LJ          -1.93576         1.32655       -0.188112
LJ         -0.846988         2.64632        0.331108
LJ          -2.99169        -1.94368         0.70755
LJ             2.193         5.10276         4.62543
LJ           5.13411         3.82859           -3.21
LJ           3.01796         4.43851         4.81677
LJ           5.04633        -3.32684         3.77016
LJ            3.4283         3.98307         3.41108
LJ          -5.56437        -6.03898        -2.26503
LJ          -3.05639        -6.12229        -5.92115
LJ          -4.16855        -2.78192        -5.54736
