108
#Comment!
LJ          -1.90043        -1.90043        -1.90043
LJ          -1.77363        -1.77363        -3.14653
LJ          -3.14653        -1.77363        -1.77363
LJ          -1.77363        -3.14653        -1.77363
LJ          -2.18298        -3.02458        -3.02458
LJ          0.904783        -2.80401        -4.03528
LJ          -0.77645        -2.50175        -2.50175
LJ          0.904783        -4.03528        -2.80401
LJ          0.275781         -3.0638         -3.0638
LJ           1.98393        -1.35375        -3.05969
LJ          0.930822        -2.01236        -2.01236
LJ           1.98393        -3.05969        -1.35375
LJ          -3.02458        -2.18298        -3.02458
LJ          -2.80401        0.904783        -4.03528
LJ          -4.03528        0.904783        -2.80401
LJ          -2.50175        -0.77645        -2.50175
LJ         -0.907504       -0.907504        -2.78216
LJ         -0.196068       -0.196068        -2.77888
LJ          -1.00427      -0.0646937         -1.9062
LJ        -0.0646937        -1.00427         -1.9062
LJ           1.72707        -1.98205        -4.03178
LJ           1.94916         1.11425        -3.02674
LJ           1.43701       -0.298394        -2.51339
LJ            2.9557        -1.98257        -2.80117
LJ           -3.0638        0.275781         -3.0638
LJ          -1.35375         1.98393        -3.05969
LJ          -3.05969         1.98393        -1.35375
LJ          -2.01236        0.930822        -2.01236
LJ          -1.98205         1.72707        -4.03178
LJ           1.11425         1.94916        -3.02674
LJ          -1.98257          2.9557        -2.80117
LJ         -0.298394         1.43701        -2.51339
LJ          0.708941        0.708941        -3.14722
LJ          0.821835        0.821835         -1.8975
LJ          0.707602         2.07443        -1.78364
LJ           2.07443        0.707602        -1.78364
LJ          -3.02458        -3.02458        -2.18298
LJ          -2.50175        -2.50175        -0.77645
LJ          -4.03528        -2.80401        0.904783
LJ          -2.80401        -4.03528        0.904783
LJ         -0.907504        -2.78216       -0.907504
LJ        -0.0646937         -1.9062        -1.00427
LJ          -1.00427         -1.9062      -0.0646937
LJ         -0.196068        -2.77888       -0.196068
LJ           1.72707        -4.03178        -1.98205
LJ            2.9557        -2.80117        -1.98257
LJ           1.43701        -2.51339       -0.298394
LJ           1.94916        -3.02674         1.11425
LJ          -2.78216       -0.907504       -0.907504
LJ           -1.9062      -0.0646937        -1.00427
LJ          -2.77888       -0.196068       -0.196068
LJ           -1.9062        -1.00427      -0.0646937
LJ           -1.0669         -1.0669         -1.0669
LJ        -0.0206235      -0.0206235        -1.02468
LJ          -1.02468      -0.0206235      -0.0206235
LJ        -0.0206235        -1.02468      -0.0206235
LJ          0.820844          -1.012          -1.012
LJ           1.68382       -0.182406        -0.89384
LJ          0.827213      -0.0704811      -0.0704811
LJ           1.68382        -0.89384       -0.182406
LJ          -4.03178         1.72707        -1.98205
LJ          -2.80117          2.9557        -1.98257
LJ          -3.02674         1.94916         1.11425
LJ          -2.51339         1.43701       -0.298394
LJ            -1.012        0.820844          -1.012
LJ         -0.182406         1.68382        -0.89384
LJ          -0.89384         1.68382       -0.182406
LJ        -0.0704811        0.827213      -0.0704811
LJ           1.43157         1.43157       -0.778287
LJ           1.95148         1.95148        -2.19053
LJ           1.72747         2.95675          0.9036
LJ           2.95675         1.72747          0.9036
LJ           -3.0638         -3.0638        0.275781
LJ          -2.01236        -2.01236        0.930822
LJ          -3.05969        -1.35375         1.98393
LJ          -1.35375        -3.05969         1.98393
LJ          -1.98205        -4.03178         1.72707
LJ         -0.298394        -2.51339         1.43701
LJ          -1.98257        -2.80117          2.9557
LJ           1.11425        -3.02674         1.94916
LJ          0.708941        -3.14722        0.708941
LJ           2.07443        -1.78364        0.707602
LJ          0.707602        -1.78364         2.07443
LJ          0.821835         -1.8975        0.821835
LJ          -4.03178        -1.98205         1.72707
LJ          -2.51339       -0.298394         1.43701
LJ          -3.02674         1.11425         1.94916
LJ          -2.80117        -1.98257          2.9557
LJ            -1.012          -1.012        0.820844
LJ        -0.0704811      -0.0704811        0.827213
LJ          -0.89384       -0.182406         1.68382
LJ         -0.182406        -0.89384         1.68382
LJ           1.43157       -0.778287         1.43157
LJ           2.95675          0.9036         1.72747
LJ           1.72747          0.9036         2.95675
LJ           1.95148        -2.19053         1.95148
LJ          -3.14722        0.708941        0.708941
LJ          -1.78364         2.07443        0.707602
LJ           -1.8975        0.821835        0.821835
LJ          -1.78364        0.707602         2.07443
LJ         -0.778287         1.43157         1.43157
LJ            0.9036         2.95675         1.72747
LJ          -2.19053         1.95148         1.95148
LJ            0.9036         1.72747         2.95675
LJ          0.937602        0.937602        0.937602
LJ           1.98458         1.98458        0.275903
LJ          0.275903         1.98458         1.98458
LJ           1.98458        0.275903         1.98458
