108
#Comment!
LJ          -1.83782        -2.29937       0.0382328
LJ          -4.80723        -6.04938         3.01727
LJ           5.44422         5.39925         -4.0711
LJ           4.88948         6.22298        -3.38047
LJ           2.58959        -1.98071       -0.913429
LJ         -0.238389         1.43159        -2.01688
LJ          0.908481        -1.98782       -0.477618
LJ          0.556398        -2.77963        0.148359
LJ          0.163131        -2.90263        -1.01298
LJ           1.44824         1.17108       -0.215659
LJ           2.92414         2.30442         2.39828
LJ            1.0719        -1.60184         2.30288
LJ           -1.1458        -1.16465        -1.87963
LJ          0.417195         3.12093        -1.64685
LJ          -0.80965         1.66997        0.338842
LJ          -0.97627         2.07716        -1.39647
LJ          -1.79336        0.655976        -1.48231
LJ          0.370241      -0.0334937         0.11849
LJ          -1.61616         2.07945       -0.464699
LJ         -0.524855       -0.319839       -0.977491
LJ           1.34725        0.136007        -1.76669
LJ           1.71435        -1.34635        -1.08179
LJ          0.315045        -0.61097        -1.65055
LJ           2.88386       0.0203112         2.42525
LJ         -0.868313         3.80191         2.97282
LJ          0.699957         2.98994        -2.79609
LJ           1.29736         2.39704        -1.43552
LJ           2.66558         1.35932         3.24124
LJ         -0.418904          2.4061        -2.51669
LJ         -0.744039         3.30505        -1.64269
LJ         0.0954006         2.07389          3.8478
LJ         0.0689798        0.456617        -1.64938
LJ          0.588914         2.07636        -2.25776
LJ          0.738481        0.819306        -2.47473
LJ          0.197242         1.28703        -1.04178
LJ         -0.987948       -0.134092        -1.93396
LJ          -1.62753        -1.78074        -1.01649
LJ          -2.26144       -0.630715         1.51509
LJ          -1.46072        0.937803         1.21479
LJ          0.286539        -2.57018         1.14965
LJ          -1.08481          -1.424       0.0995085
LJ         -0.683992        -2.98595       -0.403544
LJ          -2.15475        -1.34779        0.612036
LJ         -0.616394       -0.507653        0.146965
LJ         -0.345848        -3.29968        0.743841
LJ          -6.40925        0.476471        -1.16679
LJ         -0.361405        -1.80437       -0.750148
LJ           1.73159        -2.72513      -0.0293753
LJ          -1.48767      -0.0304145       -0.335986
LJ          -1.11539        0.997963       -0.837571
LJ        -0.0230069       -0.462251         1.04652
LJ          -2.80614        0.139328        -1.01486
LJ          0.405563       -0.806559       -0.598855
LJ           1.20457         1.32436        -1.30228
LJ          0.796634        0.221904         1.04531
LJ           0.93055        -0.83414         1.26622
LJ           1.15317       -0.895362         0.19344
LJ           0.81898         0.50964        -0.72722
LJ           1.90683       0.0223705       -0.645354
LJ            1.1321        -1.98377        0.527504
LJ          -2.21321       -0.759762        -1.78262
LJ           4.19004          4.9379         2.98837
LJ          -1.86909         1.06676       -0.103711
LJ          -1.97694       -0.884272       -0.722191
LJ          0.572148         1.03993        0.437433
LJ          -0.23009        0.752251        -0.22491
LJ         -0.549965        0.481117        0.758762
LJ          0.297435         2.41922       -0.944811
LJ            3.1824         5.97949         3.93475
LJ           2.86701         2.91301         3.47695
LJ          -5.04851         1.85175        -6.24507
LJ          0.438209        -5.01989        -5.97784
LJ         -0.452958        -2.23415        0.319256
LJ           3.10462         1.74412          1.3792
LJ          -0.58853         0.67745          1.8964
LJ           0.47858        0.289866         2.02871
LJ            -1.536        -3.16197        0.756618
LJ         -0.929693        -1.12264         1.20409
LJ          0.510237         4.30736         4.10072
LJ          -2.43758        -2.16742         1.81271
LJ         0.0657231        -1.30458         0.38961
LJ           2.12512        -1.55761       0.0700654
LJ         -0.749895        -2.49407         1.28149
LJ         0.0531574        -1.50461         1.38792
LJ          -2.44822        0.180651        0.569173
LJ          -1.59645       -0.437482        0.663882
LJ         -0.172288         -3.2852         1.81822
LJ          -5.10361      -0.0725055         3.84121
LJ        -0.0862309        -0.73631         2.04886
LJ         -0.822416        -1.51591         2.12336
LJ           -2.4511         1.85634        0.885485
LJ          0.650928        -1.62444         3.69921
LJ          0.100813        -2.23542         2.16844
LJ           1.10722         6.22536        -5.72311
LJ          -5.38791         6.35492         1.44617
LJ           -5.7727         2.21639        -5.68389
LJ          -1.20371       -0.240147         1.63342
LJ         -0.820801          2.7913      -0.0758705
LJ           1.14466         2.07657        0.330591
LJ           1.05939        -4.07662       -0.538208
LJ           5.04111         4.55994          3.7604
LJ          -6.11989         2.18721         -3.9402
LJ            1.0617         4.70288         3.34924
LJ           5.42489        -5.32088         3.08388
LJ           2.34511         2.98473         4.38287
LJ          -3.01407       -0.657994       0.0422057
LJ           4.09202      -0.0557213        -4.99237
LJ           2.65115         3.59754      -0.0502135
