108
#Comment!
LJ            1.8528       -0.791677         1.14657
LJ           2.59796        -1.64384         1.37718
LJ          -1.63005       -0.667014         2.43608
LJ          -3.26474         2.27088         1.73366
LJ           2.61382        -1.21516        0.277651
LJ           1.66172         0.87358        -1.20924
LJ           2.50931        0.299719          1.0203
LJ            2.5812        0.360123        -1.25418
LJ           1.62314        -1.49787        0.330143
LJ           2.11145        -1.57354       -0.600857
LJ          -1.95608         3.37149        0.562632
LJ           1.27455         0.78296         2.51345
LJ         -0.515649        -1.74498        0.142537
LJ           3.13231       -0.594892       -0.316858
LJ         -0.362902         1.02553         3.09057
LJ         -0.059174        0.669397         1.65487
LJ          0.634251        -1.73873        -2.35547
LJ          0.526566        0.825943        0.237463
LJ         -0.788894         1.75831          2.4092
LJ          -0.56485       -0.747592       -0.826465
LJ           1.39183        -3.54206        0.762774
LJ           1.39216        0.463683       -0.305224
LJ            1.8733       -0.607811        -2.06333
LJ           5.76413         4.25195         3.21185
LJ           -4.5384        -4.27563         5.39048
LJ          -1.96686         3.49168       -0.772737
LJ          -3.33702          5.9567       -0.628263
LJ         -0.738807        -6.05375         3.77244
LJ          0.553772         2.46958          1.9453
LJ          -2.72098        0.292226         1.13997
LJ          -1.18784        0.337452         1.43085
LJ          -2.34876         -4.2464         4.65437
LJ         -0.182666        -1.45373        -1.68771
LJ           1.14722        -1.21706        -1.45532
LJ          -1.11235         2.59195        0.362452
LJ          0.239056        -1.39928       -0.504905
LJ         -0.661956        -2.39911        -1.03353
LJ         0.0411573       -0.622872        -2.54032
LJ          -1.81664        0.476107         2.37112
LJ           2.34519        0.805279       -0.129901
LJ           1.61584         1.34475          0.5343
LJ          0.781923        -2.47895        0.443627
LJ          -1.50693       -0.555852       -0.630061
LJ          -1.51353        -1.28509        0.121451
LJ           1.83049        0.115469         1.94537
LJ           1.71159        -4.00753         3.32033
LJ              1.21        -2.02549       -0.369695
LJ           2.05991       -0.180199        0.197042
LJ          -1.31511        0.188033        0.340452
LJ          -1.59507         1.33181          1.7161
LJ          -1.18957        0.336876         3.56771
LJ          -1.22803        0.557798       -0.838388
LJ             -1.33        -2.25656        0.644144
LJ          -1.39123         2.77038        -1.48115
LJ           1.11074         1.41228         1.52454
LJ           2.02489         1.77685         1.85454
LJ           1.00921       -0.352123        0.316485
LJ        -0.0342046      -0.0775224        -1.61396
LJ           2.19597        -2.46839       0.0564986
LJ           3.41344        0.667445       -0.207598
LJ         -0.470451         1.60351       -0.921325
LJ          -6.12873         2.73512        -3.27649
LJ         -0.935599         -1.3371         1.15577
LJ          -1.13895       -0.256727        -1.59474
LJ          -0.10373         2.09905     -0.00832083
LJ          0.271451         1.34937        -1.77263
LJ           1.08478       -0.700398         2.45165
LJ          0.952665         2.23048        0.597753
LJ          -4.88693         6.00118         6.33694
LJ         -0.749425         1.94017         1.36894
LJ          -4.80937        -2.12872         5.94608
LJ           2.79308       -0.170188         2.01284
LJ           1.28715        0.466791         0.99941
LJ          0.204886          1.6515         1.01885
LJ          -2.54852         1.44939         2.23783
LJ        -0.0999267        0.126974         3.76678
LJ         -0.372409       -0.690833        0.164526
LJ         -0.227743        0.265579       -0.344845
LJ           1.02399          6.4583         5.62226
LJ          0.478757        -1.43851        0.543414
LJ          0.475406        0.875162       -0.802392
LJ          0.487996       -0.323865       -0.551473
LJ         -0.238333       -0.368829         1.84015
LJ          0.140105       -0.108407        0.916947
LJ          0.363284         1.41836         2.31154
LJ          -1.52489         1.29268        0.598126
LJ           1.06935       -0.521463         3.95676
LJ           1.89799         2.47172        -1.13612
LJ          0.383916        0.289656         2.62332
LJ         -0.622328       -0.856675         2.85518
LJ          -1.75518         2.44867          1.3274
LJ         0.0128017         2.26805         3.05247
LJ          0.701532        -1.77027         1.78463
LJ           2.44684         6.10761       -0.435506
LJ          -4.48232         3.87312         3.46644
LJ         -0.599239        -4.30877      -0.0347524
LJ          -0.57404         1.14706        0.532008
LJ           1.08185         1.77425       -0.327767
LJ           1.73816       -0.476723       -0.716324
LJ           3.89201       -0.695979        -5.28183
LJ           2.43038         2.25369          0.4633
LJ           -1.3411         1.73852       -0.427487
LJ           3.68074        0.135527         1.84375
LJ          -4.05608       -0.255084         4.93004
LJ            1.1763      -0.0198309        -1.37108
LJ          0.519076        -2.35172        -1.28254
LJ           -1.6935        0.367175            5.96
LJ         -0.744996         4.10245        -6.10789
