108
#Comment!
LJ           -1.1236        -2.18082        0.286929
LJ          -5.25662         5.44804       -0.413199
LJ            2.3798         4.08816          -2.938
LJ           3.29115         3.93323        -3.71592
LJ           1.50577        -1.84778         -1.5048
LJ          0.144461         2.35252       -0.867118
LJ          0.813191        -1.75794      -0.0219465
LJ          0.937209        -3.34865        0.246694
LJ           1.16934        -2.49506       -0.801871
LJ           1.37561        0.406594       -0.415309
LJ           1.65008         1.34288         0.90163
LJ          0.901155         -1.2158         2.31693
LJ          -1.37868        -1.10649        -1.72003
LJ          0.714779         1.59496        -1.82971
LJ         -0.945921         1.80615        0.661973
LJ          0.230173         2.68186        0.111507
LJ          -1.49178         1.28818        -1.27156
LJ          -0.15648       -0.268121        0.303398
LJ         -0.620637         3.25954       -0.116826
LJ         -0.100584       -0.695313        -1.27767
LJ           1.06416       -0.339673        -1.14829
LJ         -0.130887        -1.28529       -0.122236
LJ         -0.608996       -0.254745        -2.47478
LJ          0.787202         3.61154         2.65504
LJ          -1.79726         5.10865        0.361476
LJ         -0.258341         2.26057        -1.82334
LJ            1.5831         2.58399        -2.51256
LJ           3.89761         1.41256         1.85818
LJ          0.069187          3.6694       -0.727828
LJ           1.43844         4.93279        -1.21019
LJ          -1.07618         1.15144         1.50146
LJ          0.628413        0.289152        -2.06117
LJ         -0.189197         1.19159        -2.40017
LJ           1.57426         1.02563        -1.51872
LJ          0.379287         1.64698        0.210147
LJ         -0.297283        0.889229        -1.27953
LJ         -0.917746        -2.82474       -0.949166
LJ          -3.19885       -0.717914        0.329928
LJ          -1.78676          1.1818        0.321728
LJ          0.957118        -1.79755         1.13503
LJ         -0.778035        -1.17891        0.700038
LJ         -0.376532        -3.26981       0.0132467
LJ          -1.90844         -1.3891        0.764071
LJ         -0.704389       -0.394577         1.33317
LJ        -0.0173601        -4.01826        0.832428
LJ          -5.92413        -3.50404      -0.0432074
LJ         0.0517093        -2.36715       -0.360558
LJ           1.53422        -2.45175        0.563914
LJ         -0.857715      -0.0607055       -0.513872
LJ          -1.20454         2.29141       -0.636446
LJ          0.428325       -0.102746         1.28179
LJ          -1.80979        0.410482       -0.703109
LJ         -0.667245        -1.83398        -1.22818
LJ          0.638285         1.33037       -0.740448
LJ          0.690731        0.510678        0.438193
LJ           1.33175       -0.794852         1.18679
LJ          0.869083       -0.533212      -0.0423091
LJ         0.0824632         0.41235       -0.513354
LJ           2.12544       0.0248542        -1.24946
LJ           2.31441       -0.254269        0.460462
LJ          -1.11671        0.281344        -1.59652
LJ           5.82423         4.04926         2.10794
LJ          -2.26844          1.9318        -0.46819
LJ          -1.21332        -1.07256        -0.61811
LJ         0.0434567         1.53928         1.53362
LJ         -0.727188         1.10297       -0.327875
LJ         -0.555823        0.646503        0.684704
LJ           1.07701         2.45217       -0.358498
LJ           2.90701         6.23176         5.83766
LJ           1.14205         1.82636          1.9755
LJ          -4.16286       -0.476784         6.29337
LJ          -1.20267         5.98644        -5.25194
LJ       -0.00983575        -2.15608        0.694182
LJ            1.9743            1.69       -0.165247
LJ         -0.274631        0.469208         1.91012
LJ          0.611971        0.970942          2.2884
LJ           -1.1214        -3.56062        0.739732
LJ         -0.852058        -2.01905         1.43444
LJ           1.22397         2.48603         5.07362
LJ          -4.72291        -2.00457         2.21431
LJ          0.297679        -1.04534          0.8113
LJ           1.98879        -1.68439       -0.139779
LJ         -0.286572         -2.9791         1.35131
LJ         -0.089041        -1.02996         1.90196
LJ          -2.21652        0.250541        0.794836
LJ          -1.31159      -0.0341389        0.431208
LJ           0.23832        -3.69794         2.05273
LJ          -3.26588         2.11709         3.08312
LJ          0.811132       -0.123795         2.27394
LJ          -1.08918        -1.20261         2.54217
LJ          -1.68746         2.57203        0.302637
LJ         -0.105807        -1.20593         3.03051
LJ          0.194023        -2.25928         2.22561
LJ          -1.40584        -5.04407         6.16955
LJ           6.12283        -5.48206        0.216932
LJ          -6.37099         2.73282        -4.47885
LJ          -1.81487        -0.72754         1.98108
LJ           0.88125         2.27115        0.998681
LJ           1.08996         3.23599        0.371543
LJ           2.25002        -2.84378      -0.0348138
LJ           5.21289         3.57828        0.322939
LJ          -5.15312         1.36461        -2.88728
LJ         -0.622544         5.35904        0.321651
LJ           5.65296         6.17474         2.72193
LJ           2.40214         1.57773          2.9715
LJ          -2.03373       -0.735553       -0.087067
LJ          0.156646         4.29352        -4.59774
LJ          -4.85888       -0.411697         4.04041
