108
#Comment!
LJ           3.38533        -0.51755         1.33005
LJ           2.50759         2.21895         -2.0721
LJ         0.0165791         -2.5644        0.584783
LJ          -2.27885        0.370616       -0.484021
LJ         -0.130619        0.292637         3.66994
LJ          0.313173      -0.0566092        -2.70364
LJ           1.31512        0.877671        -1.33258
LJ          0.767682        -1.42002        -2.13246
LJ           1.45965       -0.506514         2.75234
LJ          0.248732         -1.0169         2.24815
LJ          0.316918         1.92993         2.24981
LJ          0.811508         1.14214          1.8347
LJ          -1.93348        -1.39834       -0.764248
LJ           3.86465         1.26506       -0.192465
LJ          -1.94096        -1.46797        0.305016
LJ          -1.56599       -0.720588         1.15618
LJ          -2.34749        -1.48711        -3.27847
LJ           0.66249       -0.245881        0.538434
LJ          0.337773         3.95947         4.54467
LJ         -0.671864        -1.01644        -1.07712
LJ          0.705676       -0.378476         4.19472
LJ          0.906847         1.81163       -0.682512
LJ           3.12767        0.727574       -0.960575
LJ          -5.08852        0.443997        -3.74421
LJ           3.52454          5.9369         5.38841
LJ         -0.200076          1.2205       -0.721374
LJ          -2.80927        -2.21943        -2.68674
LJ           6.00546        -6.32756        -1.10351
LJ           2.22721        0.717373         1.26996
LJ         -0.985382        -1.03926        0.166269
LJ         -0.226504        -2.20701         1.92121
LJ            6.0518         4.42096        -3.55351
LJ         -0.180351        -4.59166       -0.146976
LJ           1.86125       0.0293362        -2.48184
LJ          0.124204        0.634713        0.970478
LJ           2.95677       -0.220983        -1.31201
LJ           1.32527        -0.84745      -0.0957114
LJ          0.029818         -1.7014        -1.41124
LJ         -0.372837       -0.244921        0.388396
LJ           2.13661        0.213561       -0.583152
LJ           1.52744         2.33243        0.176776
LJ         -0.531749       -0.132563         2.44679
LJ          -1.23964       -0.717848        -2.13995
LJ          -1.33059       -0.350075       -0.576365
LJ           2.59771        -1.04573        0.924319
LJ          -3.79896        -4.48398        -6.07278
LJ           2.52354       -0.533288         2.07363
LJ           2.68272      -0.0373062        0.639883
LJ          -2.05536       -0.269392        -1.35777
LJ         -0.964543        0.203272         1.20638
LJ           0.88116         1.36296          3.0595
LJ         -0.245635          1.6445        -2.34415
LJ           5.50076        -4.17511        -1.61168
LJ          0.214891         1.80915         1.00451
LJ          0.965038        -0.19907         1.69935
LJ           3.31453         1.08321         1.12449
LJ          0.854972      -0.0370843       -0.637362
LJ           1.09679        -1.36231        -1.11499
LJ          0.601804       -0.848294         3.30222
LJ           3.59864       -0.439117        0.144125
LJ           1.39299        0.991425        -0.25631
LJ         -0.446524         4.67643        -4.28636
LJ           1.67451        -1.45012         2.28106
LJ          -1.69079      -0.0594794        -2.94329
LJ           1.31709        0.570151        0.662394
LJ           0.35323        -0.54143        -1.53029
LJ           1.28671         -1.8201         3.30892
LJ           2.33958         1.01272        0.174451
LJ          -0.50977        -5.23579        -2.35567
LJ         -0.152351        0.619195         1.92921
LJ          -1.62022        0.632523         6.36489
LJ           2.67413         1.31419         2.14715
LJ        -0.0179092       -0.340274         1.41697
LJ           1.42981         1.63263         1.16765
LJ          -1.60972       0.0119387        0.504222
LJ           1.20109        0.556054         3.59768
LJ           0.42307         -1.1592        0.735254
LJ          0.388018        0.721148      -0.0227283
LJ          0.616192         1.73223         5.06342
LJ           1.48362          -2.617         1.42862
LJ           1.57162       -0.399624        -1.57454
LJ          0.248203        -0.95669       -0.518318
LJ           1.60223        0.601613          2.2371
LJ           1.52344         -1.2076         1.25021
LJ            1.5935          1.6991         2.27288
LJ          -1.06723        0.660982       -0.331797
LJ         -0.943954        -2.06798        0.804166
LJ           0.16306        0.548478        -1.82592
LJ          0.525055        0.378524         2.65321
LJ         -0.625485        -1.18715         1.18644
LJ         -0.540365          1.2085        0.368916
LJ          0.287826         3.43581         1.91869
LJ         -0.501262         1.21104         3.11307
LJ          -1.23088        -1.68453        -1.56345
LJ         -0.945502        -2.00183       -0.277236
LJ           1.22175          1.3305        -2.31196
LJ         -0.296914     -0.00417318       -0.613985
LJ         -0.170065          2.5453        0.340879
LJ           2.42181        -2.87642        0.964661
LJ           5.32906         1.24475        -5.61566
LJ           1.84193         5.16005       0.0389291
LJ          -1.08519         0.33288        -1.31191
LJ          0.909545         4.07566        0.558453
LJ          -2.88885        -1.21504        -4.53967
LJ           1.86027         2.39267        -1.05549
LJ         0.0893852        -3.91936        -1.20083
LJ          0.456987         -1.9989       -0.181896
LJ          -6.16462        -4.83797         1.27774
