108
#Comment!
LJ          -1.67073        -1.17325        -1.41994
LJ          -2.78813        -2.76078         -4.8768
LJ          -4.78738        -2.63168          -2.674
LJ          -2.74961        -4.91684         -2.7731
LJ          0.459382        -3.52202          -2.267
LJ          0.580425        -0.57093         -2.9294
LJ          0.762948         -1.3181        -1.27626
LJ            0.9144         -2.6545       -0.405307
LJ          0.414122        -2.21713        -2.28651
LJ           1.78645        0.144996       -0.501044
LJ           5.34368         4.24797         4.33411
LJ           1.09165        -1.24552         1.16214
LJ          -1.70495       -0.960657        -2.65617
LJ         -0.241409         1.77983        -2.64895
LJ          -2.68771        0.845226        0.147221
LJ          -1.31996        0.869126        -1.19588
LJ         -0.999827       -0.591533         -1.9819
LJ         0.0666743       0.0391022       -0.279677
LJ          -1.00451        0.120168        -2.78227
LJ         -0.432873        -1.43839        -1.77915
LJ           1.78977        -1.84031        -2.71318
LJ           1.09036        -1.09315         -2.1996
LJ          0.271088       -0.332615        -1.37912
LJ            6.4065        -4.42762        -5.23646
LJ           -1.9985         1.56127         -2.9114
LJ          0.598273         1.91444       -0.825784
LJ          -0.14465         2.16652         0.31081
LJ           4.43696         5.74321         4.49872
LJ         -0.978846         1.28144        -3.23412
LJ          -1.22831         1.53312        -2.19559
LJ          -4.42764         6.40571        -5.23532
LJ         -0.509263        0.892365        -2.13565
LJ         0.0506199        0.377679        -2.96495
LJ          0.575292         1.11618        -2.04635
LJ          -0.26182         1.73184        -1.49159
LJ           1.00574        0.383295        -2.64991
LJ          -1.94712        -3.06444       -0.255891
LJ          -1.54046        -1.17506        0.797969
LJ          -1.98758       -0.429496         1.35322
LJ         -0.122981        -3.11416         1.07373
LJ         -0.945831        -1.86048       -0.765318
LJ          0.121261        -2.07288        -1.12485
LJ          -1.00776        -2.86024        0.527431
LJ          0.338763       -0.735001        0.533462
LJ          0.810286        -2.90908        -1.53553
LJ           6.40566        -5.23674        -4.42946
LJ        -0.0451522        -1.06012       -0.435357
LJ           1.74004        -1.65929        -0.72476
LJ          -2.17668       -0.375552       -0.279579
LJ          -2.10604        0.730729        -2.00073
LJ         -0.699004       -0.303428        0.574515
LJ          -1.61139        -2.15659        0.217126
LJ         -0.936882       -0.173076       -0.878195
LJ          0.886534        0.902396       -0.200314
LJ         0.0710996        0.486096        0.758636
LJ           1.17931      0.00262039        0.417557
LJ           1.01733       -0.591548       -0.452157
LJ           1.10465        0.303139        -1.40476
LJ           2.05389        0.141079        -1.97908
LJ          0.819041         -1.5587       0.0217521
LJ          -3.37148         1.27752       -0.558181
LJ          -5.23575         6.40602        -4.42699
LJ          -1.86915         1.87812        -1.45291
LJ          -2.09304       -0.265879        -1.40323
LJ         -0.123379         1.15158      -0.0873487
LJ         -0.109859        0.647601        -1.13212
LJ          -0.94857        0.600207     -0.00379634
LJ         -0.830464         1.86751       -0.471307
LJ            3.7844         4.08804         1.20111
LJ           4.36588         4.36587         3.09006
LJ          -2.26504         3.69999         5.83317
LJ           3.69944        -2.26513         5.83294
LJ          -1.90232        -3.30744        0.780098
LJ           4.39902         4.37671         5.43616
LJ         -0.272842        0.835378         1.82347
LJ          0.555037         -0.1617         1.45359
LJ          -1.27592        -3.37667          1.7501
LJ         -0.626908        -1.74141        0.589537
LJ           -4.4289        -5.23609         6.40566
LJ          -1.36135        -2.28452         1.54057
LJ        -0.0132107        -2.35875       -0.116852
LJ           1.51677         -2.2138        0.857234
LJ         -0.201797        -2.16973         1.67263
LJ           0.42531         -2.1905         0.83887
LJ           -2.9433        -1.01794        0.942593
LJ          -1.19386       -0.937027        -0.17605
LJ          -2.20875        -1.88541         1.07627
LJ           -5.2364        -4.42707         6.40606
LJ         -0.764496       -0.151404         1.64021
LJ          -1.34354        -1.20338         1.91026
LJ         -0.981469        0.776611        0.951791
LJ         -0.110106        -1.08483         1.40582
LJ           3.25584        0.617666         3.59765
LJ           3.70099           5.831        -2.26552
LJ          -2.26545         5.83238         3.70006
LJ           4.44696         3.19007         4.44208
LJ          -1.83338        0.312524        0.538901
LJ          -2.00613         1.47922       -0.409893
LJ          -1.78713         1.87822         1.14308
LJ          -2.81926        0.237215         1.07848
LJ           1.28075         4.15134         4.08415
LJ           5.83861          3.6966        -2.26591
LJ           3.07391         4.34106         4.33892
LJ           5.83367        -2.26506         3.70008
LJ           3.98053         4.04064         4.00084
LJ           4.63394         4.45682       -0.238404
LJ         0.0572522         4.47275         4.52558
LJ           4.90903       -0.190225         4.57374
