108
#Comment!
LJ          0.230384        -1.53701       -0.153093
LJ            5.3962         1.97809        -6.28415
LJ          -1.88076         1.22472       -0.166376
LJ         0.0446334        -2.62405        -3.38848
LJ            1.1119        -2.07318       -0.768573
LJ         -0.227268         2.58915        -0.56065
LJ          0.977038         -1.6568        0.601035
LJ           1.91041        -1.71788         1.49479
LJ           1.67773        -2.30929        0.197504
LJ           1.58796        0.070895        -1.38612
LJ         -0.900939          1.4202      -0.0352975
LJ           1.23498        0.112637          1.4468
LJ       -0.00703281       -0.954501        -1.79551
LJ           1.99231       -0.836281        -1.60469
LJ         -0.964966         1.44432         2.17061
LJ        -0.0228826         4.13812         1.88114
LJ         -0.484661         1.07458        -1.92304
LJ         -0.263489       -0.614755        0.339218
LJ         -0.510539         1.72995         1.21972
LJ        -0.0882762       -0.703161       -0.714037
LJ           0.37339        -2.06205        -1.64755
LJ          0.826329       -0.681351        0.028007
LJ          -0.54054         1.66743        -2.89377
LJ           1.73275         6.03748        -3.43016
LJ           4.90187        -1.35695        -3.14792
LJ         -0.330248         3.66762       -0.752177
LJ          -1.52921         2.96525       -0.462463
LJ          -5.73309          3.1715        -2.16772
LJ           2.07563         2.46134         1.32266
LJ           4.19436           5.833        -4.56416
LJ          -1.25405        0.673197         3.00689
LJ           1.11516       -0.940657        -2.20675
LJ          0.574235        0.980239        -1.63512
LJ           0.82732        -1.09951        -1.07866
LJ          -0.33886        0.415483        0.745635
LJ         -0.340212        0.101422        -1.48772
LJ         -0.373041        -1.79917       -0.904831
LJ          -1.67311        0.657711        -1.99648
LJ          -1.16649         0.97709         1.18234
LJ           1.75484       -0.138529        0.556712
LJ         -0.252455        -1.55185        0.816912
LJ         0.0190853        -2.48614         1.78154
LJ          -1.69682        -1.26661         -0.8115
LJ         -0.599144       -0.566439         1.38235
LJ           0.72253        -1.41446         1.68611
LJ           5.80855        0.475607        0.103904
LJ          0.669582        -2.74234        0.940392
LJ           2.39135        -1.04715        0.485522
LJ          -1.21253       -0.479416       -0.351555
LJ          -1.47667         1.61509        -1.14266
LJ          0.168544        -0.54631         2.05295
LJ          -1.20395        0.604148        -1.06317
LJ         0.0628563        -2.74538       -0.201427
LJ         -0.263849         1.39097       -0.955618
LJ           1.49133         1.06249        0.696948
LJ           1.70901         0.24171       -0.413336
LJ           1.86306        -1.27094       -0.404475
LJ          0.664728        0.044352       -0.886217
LJ           1.47063        -1.94783        -2.04421
LJ           2.79676        0.039335         -2.2471
LJ          -1.42108        -0.57904        -1.48106
LJ          -3.80535         1.26128        -1.59484
LJ          -2.74884         1.00311        0.579016
LJ          -2.34209        -1.72655        -1.57091
LJ          0.349698         1.67181         2.01143
LJ         -0.087215        0.372528       -0.330155
LJ         -0.451091        0.324256         1.80336
LJ           1.05806         2.16102         1.46704
LJ           2.80756        -6.10563        -2.73174
LJ          0.437721        0.999204         1.16257
LJ          -3.55078         6.19605          5.3742
LJ          -6.06623         2.67224          4.9948
LJ          0.570079       -0.522686         1.05523
LJ         0.0169926          2.2542         0.50355
LJ          -2.74668         1.71308         2.33961
LJ          0.138733        0.375359            3.19
LJ         -0.995236        -2.34473         1.38141
LJ          -1.36322        -1.35874        0.845518
LJ           1.84791       -0.686541         6.30134
LJ           4.16985        -1.17939         2.54179
LJ          0.688997         0.30266        0.286182
LJ           2.39207       -0.432652        -0.65307
LJ         -0.747407        -1.40078         2.08639
LJ           1.12247        -0.62625         2.48142
LJ          -1.69791         2.37661         1.55798
LJ          -1.50772        0.318331         1.90032
LJ           1.34165         1.47985         2.25467
LJ           1.80512         3.41073       0.0580025
LJ         -0.500425       -0.728726         2.83932
LJ          -1.46838       -0.447517          2.7102
LJ          -1.61844         1.81212        0.628429
LJ           0.46395        0.440841         2.22308
LJ           1.16913        -2.32379         2.02242
LJ          -4.86735       -0.712156         4.74487
LJ           5.98114        -3.44484        -1.10736
LJ           -5.8859         4.18708         -2.1979
LJ           -1.2309      -0.0991096        0.614375
LJ           0.42764         1.28222      -0.0276573
LJ           1.01932         2.88393        0.564509
LJ           3.06612        -2.39431         -3.3946
LJ           4.38952         3.13104        -4.44998
LJ           -2.4322         1.10638        -1.20664
LJ          -1.51366        -5.63028        -5.20405
LJ           5.99218           2.933         2.64886
LJ           1.46413         1.16101       -0.864482
LJ          -2.11274        0.135844       -0.748608
LJ          -5.52512      -0.0759768       -0.951635
LJ            4.3135         -5.4513         1.34321
