108
#Comment!
LJ        -0.0441578        -1.92262      -0.0561544
LJ          -6.20676          3.8191        -4.25019
LJ         -0.758272         3.14148        -1.43812
LJ          0.814202        0.387389         -3.8914
LJ           1.41511        -1.85995       -0.931084
LJ          0.332942         1.94053       -0.900889
LJ           1.64716        -2.16328        0.158954
LJ           1.38317        -1.92694         1.33005
LJ           2.12092        -3.09842        0.125492
LJ            1.6817        0.505685       -0.729752
LJ          0.086911         1.72837        0.199874
LJ           1.48188       -0.114586         1.49102
LJ         -0.514998       -0.370927        -2.14195
LJ           1.58669        0.062259        -1.64683
LJ         -0.491722         1.22119         1.42754
LJ         -0.768191         3.26961         1.10049
LJ          -1.08247         1.16483        -1.83251
LJ         -0.235093       -0.827558        0.111409
LJ          0.388588         3.19438        0.987761
LJ         -0.178724       -0.558029         -1.0297
LJ           1.02762          -1.916         -2.1654
LJ          0.834339        -1.19227       -0.288482
LJ          -1.36272         1.26486        -3.10271
LJ          0.605112         5.45292        -5.91827
LJ          -5.52524        -4.18461        -1.49255
LJ         -0.162956         1.78214        -2.17922
LJ          -1.38076         2.09672        -1.76547
LJ           5.77855         2.20523       -0.453062
LJ           1.39144          3.2963        0.189845
LJ           2.65025        -6.33066        -2.44376
LJ          -1.64561        0.922456          1.9349
LJ          0.682068        0.543338        -2.27893
LJ         -0.491009        0.651529        -2.52646
LJ          0.811729       -0.864582        -1.62948
LJ         -0.167492        0.283112         0.70054
LJ         -0.086796        0.488611        -1.54995
LJ          -1.19615        -1.98634       -0.685023
LJ          -1.97142        0.740279        -1.08803
LJ          -1.01037         1.13701        0.372383
LJ           1.56748        -1.10377        0.543827
LJ         -0.677882        -1.36042        0.942197
LJ           -0.6174        -2.34619         1.37406
LJ          -2.19114         -1.1967        -0.50516
LJ          -1.09838       -0.553419         1.53872
LJ          0.394287        -2.64052         1.55499
LJ           6.31968         4.31497        0.966989
LJ          0.794428        -2.59972       -0.474097
LJ           2.34238        -1.89251        0.996886
LJ          -1.13522        -0.88854       -0.605986
LJ         -0.756874          1.8386       -0.961106
LJ         0.0708629        -0.59149         1.34319
LJ          -1.11933        0.850151       -0.603333
LJ          0.213238        -1.59122        -1.02574
LJ        -0.0952777        0.934084       -0.593539
LJ          0.775053        0.774392        0.482364
LJ           1.91266       -0.024515        0.317392
LJ           1.63814        -0.61025       -0.585789
LJ          0.624535        0.109681       -0.392923
LJ           1.91193        -1.01053        -1.53816
LJ           2.56812       -0.218594       -0.937732
LJ          -1.01747      -0.0498714        -1.26294
LJ          -4.87602         2.26979      -0.0347757
LJ          -1.90952         1.51677         1.01719
LJ           -2.5402        -1.00249        -1.64004
LJ         -0.800231         2.17946         2.09842
LJ         -0.660459       0.0367048       -0.278716
LJ         -0.652181        0.373609         1.85887
LJ          0.979594         2.29101        0.127731
LJ           2.59014        -6.43441        -4.87211
LJ          0.438783        0.283049         1.64325
LJ          -3.03899        -3.79925         5.42754
LJ          -3.89521         4.00928         6.24258
LJ          0.321406        -1.53325        0.751539
LJ            1.0008         1.34817       -0.517759
LJ           -1.4047      -0.0786439           2.639
LJ         -0.456546         1.25547         2.89766
LJ          -1.50102        -1.71157         1.63661
LJ          -1.44251        -1.76208        0.309871
LJ           1.60479        0.649897         5.82707
LJ           5.86742        -1.52618         2.41516
LJ          0.761715       -0.371509        0.584998
LJ           2.44002        -1.21268     -0.00798387
LJ          0.126063        -1.56111         1.94872
LJ          0.865735       -0.926277         2.10597
LJ          -3.11748         1.56372         1.90319
LJ          -1.30553        0.435534         1.02568
LJ           1.14185        -1.69039         2.93958
LJ          -0.60151         4.20609         1.50739
LJ          0.402917       -0.834991         2.98335
LJ         -0.604169       -0.816684         2.52464
LJ         -0.474351         2.18387        0.964334
LJ         0.0794614        0.284116          2.7415
LJ          0.125507        -1.96423         3.15343
LJ          -4.32793        -2.80625         5.70469
LJ           5.89751        -4.16534       -0.830347
LJ           6.15825         3.39093        -2.77072
LJ          -1.41797       -0.638304        0.421085
LJ          0.523073           1.872         1.69812
LJ           1.76582          3.6361          1.5016
LJ           2.54539        -2.01053        -1.45172
LJ           5.02478         3.31211        -2.61184
LJ          -3.99762        0.520071        -1.85736
LJ         -0.374828         6.17903        -3.21721
LJ           6.01226         4.24947         2.00591
LJ           2.09834         1.24792        0.036018
LJ          -1.78643      0.00462274        -0.29539
LJ          -3.32731        -3.64659         -2.6488
LJ           1.26775        -4.46894         -3.4336
