108
#Comment!
LJ           4.10795       -0.900751         1.65251
LJ         -0.689188         3.19494       -0.709025
LJ          0.482461        -1.98685          1.3673
LJ         -0.809524          1.7526         -1.8517
LJ          0.525119        0.910399         3.30319
LJ          0.138664        -2.18907        -1.19587
LJ         0.0226332        0.237359       -0.957397
LJ            1.1235        -1.68123        -1.46951
LJ           1.59482        -1.64248         2.73458
LJ          0.267248       -0.972688         1.80423
LJ          -0.10863         1.93854          3.3724
LJ          0.284225        0.862662         1.44976
LJ         -0.331402       -0.379075       -0.286516
LJ           2.15267         4.03562       -0.610113
LJ           0.23374        -2.71438        -0.19835
LJ         -0.760999        -1.45618         0.06254
LJ          -6.09859         -1.3307        -4.97301
LJ          0.574031         1.14833        0.367508
LJ         -0.046669         4.58264        -5.79447
LJ          0.380943       -0.618479        -1.47452
LJ          -1.25599        0.281394         4.49772
LJ            1.0689         1.53516        -1.87512
LJ           3.62399        0.479148        -0.51954
LJ          -3.47867        -1.54425        -1.89109
LJ           1.32686        -2.04075         5.53119
LJ          0.262629         1.97789        -1.31827
LJ         -0.649577       -0.361093        -1.35106
LJ       -0.00610892         6.10712        -1.52768
LJ           1.88838         2.23215         1.82693
LJ          0.281234        -1.75996        0.269912
LJ          0.897335        -1.67762         3.75634
LJ           4.38457         2.04573         5.61955
LJ          0.309966        -3.44581        -1.28926
LJ          0.991745       -0.293144        -2.35775
LJ         0.0486567         2.02463        0.892248
LJ            2.5744        0.667236       -0.871999
LJ           1.79973        -1.26997       -0.679393
LJ           1.31236        -3.36193        -1.80497
LJ          0.850461       0.0070696        0.552801
LJ           1.33786        0.513363        -1.71266
LJ          0.899941         1.89294       -0.488449
LJ         -0.872457       -0.920409         1.64466
LJ          0.100876        -2.86574        -2.17963
LJ         -0.184565        0.403549        0.643993
LJ           2.53231        -1.27472         2.96303
LJ          -6.40667         -4.6416         -4.4332
LJ            3.3017       -0.354307         2.15791
LJ           3.09157        -1.36971         1.75153
LJ          0.969628        -1.64896        -2.48343
LJ          -1.84009         1.36799         1.99365
LJ           1.29298        0.981774         2.12839
LJ        -0.0677054         2.20929         -2.9469
LJ           2.58468        -5.45221        -2.40164
LJ         -0.699672         1.82453         1.86315
LJ           2.40214       -0.453755         1.06374
LJ           2.80722       -0.379677         0.14629
LJ           1.82781      -0.0723355       -0.321087
LJ           1.15198        -2.29392       -0.608741
LJ          0.492895       -0.929788         3.02801
LJ           3.79071        -0.35529        0.418857
LJ           1.31074        0.812445       -0.622924
LJ          -3.86158         5.55372        -4.69401
LJ           1.99996       -0.650193         2.10746
LJ         -0.411851         2.77705        -1.92294
LJ           2.55804        0.790125        0.208188
LJ          0.813174       -0.283047       -0.391729
LJ          0.395401        -1.93705         2.82673
LJ           1.79511         1.65315        -1.19493
LJ          0.940941         3.46294         -2.7808
LJ           0.37767         1.54527         2.35723
LJ          0.519269         1.25839        -6.28394
LJ           2.09231         1.76359         2.73955
LJ           0.12023       -0.807501        0.687695
LJ           1.69765         1.49718     0.000213597
LJ         -0.971225       -0.517569        0.603236
LJ           1.25389       -0.184479         1.60313
LJ           1.61598       -0.856928         0.38773
LJ        -0.0286437          1.3325       -0.547563
LJ           1.53365       -0.953352         4.45421
LJ           1.44666        -1.51603         1.68967
LJ           1.64161        -0.37411        -1.29948
LJ          0.642267        -1.27168       -0.577356
LJ           1.81197        0.438834        0.916152
LJ           2.27111        -1.95595         1.37268
LJ          0.971656         1.75344         1.54891
LJ          -1.37768        0.595863        0.485912
LJ          -1.07429        -2.80349          1.3852
LJ          0.141705        0.934871        -1.79243
LJ          0.382736        0.245278          2.3144
LJ         -0.455167        -1.89641         2.01429
LJ       -0.00995309         2.67572       -0.197632
LJ          -1.01238         1.57947        0.275235
LJ         -0.497055         0.86989         3.53792
LJ        -0.0620719        -1.56816        -1.88773
LJ         -0.544618        -1.45289         -0.8899
LJ          0.934299         1.74356         -3.1395
LJ          -1.17579        0.564877       -0.499339
LJ          0.160921         2.59237         2.67034
LJ        -0.0688564        -5.24852         3.13719
LJ           5.72596          2.6664        -5.89622
LJ         -0.343647         4.46359         0.05124
LJ         -0.256892       -0.169275        -2.37134
LJ           1.18156         2.52817        -1.52968
LJ            -5.103       -0.285274        -3.73589
LJ            1.0898         3.07021       -0.619764
LJ         -0.700651        -3.64327        0.493568
LJ           1.40424        -1.81677        0.428614
LJ         -0.492421        -3.08891         2.76013
