108
#Comment!
LJ           3.49528       -0.529618         1.32973
LJ           2.44698         2.26513        -2.05379
LJ           0.11606        -2.51284        0.597594
LJ           -2.2586        0.427394       -0.554305
LJ         -0.160352        0.312921         3.66724
LJ          0.251132      -0.0709669        -2.70619
LJ            1.2894        0.875197        -1.31928
LJ          0.763052        -1.41778        -2.15929
LJ           1.42465       -0.444951         2.72318
LJ          0.227921       -0.994508         2.19325
LJ          0.285927         1.93574         2.24484
LJ          0.805441         1.10989         1.83023
LJ          -2.01821         -1.4152       -0.808976
LJ            3.8227         1.30473       -0.182871
LJ          -1.87001        -1.54006        0.335354
LJ          -1.58525       -0.778364         1.12583
LJ          -2.39374        -1.47648        -3.28226
LJ          0.699504       -0.178174        0.540252
LJ          0.330526         3.97291         4.59315
LJ         -0.642863       -0.934192        -1.02974
LJ          0.782044       -0.276193         4.17561
LJ          0.870467         1.82429        -0.69432
LJ           3.19511        0.779069       -0.946208
LJ          -5.07256        0.408534        -3.69347
LJ           3.48406         6.02821         5.39163
LJ          -0.16688          1.2585       -0.761878
LJ          -2.79621        -2.15505        -2.71093
LJ            5.8938         -6.3409        -1.10986
LJ            2.2225         0.74084          1.3032
LJ          -1.00939        -1.06004        0.115424
LJ         -0.279553        -2.18802         1.96906
LJ           6.01362         4.38541        -3.62536
LJ         -0.187592        -4.61474       -0.158238
LJ           1.82262       0.0768194        -2.53796
LJ           0.11694        0.654608         0.98584
LJ            2.9944       -0.263707        -1.35234
LJ           1.32337       -0.846027      -0.0685169
LJ        -0.0261557        -1.68525        -1.31088
LJ         -0.376921       -0.242325        0.388374
LJ           2.19208        0.280841       -0.674612
LJ           1.51396         2.32124        0.116677
LJ         -0.552831       -0.139053         2.44302
LJ          -1.32335       -0.727713        -2.22126
LJ          -1.25644       -0.312531       -0.523705
LJ           2.63402        -1.03621        0.953628
LJ          -3.84732        -4.48704         -6.0425
LJ           2.49134       -0.518266         2.06921
LJ           2.76809      -0.0882367        0.591963
LJ          -2.03073       -0.321758        -1.43368
LJ         -0.954033        0.210385          1.2689
LJ          0.874072         1.32388         3.02954
LJ         -0.220835         1.58761        -2.32267
LJ           5.44789        -4.19386        -1.62811
LJ          0.217986         1.79243         1.01189
LJ          0.938217       -0.198053         1.68356
LJ           3.30339         1.07497         1.08778
LJ          0.853072      -0.0428114       -0.659408
LJ           1.14785        -1.33473        -1.15206
LJ           0.61279        -0.80168         3.29439
LJ           3.64455       -0.457433        0.160871
LJ           1.40496        0.952728       -0.249187
LJ         -0.510161         4.69258        -4.29431
LJ           1.83066        -1.35905         2.29945
LJ          -1.66549      -0.0230272        -2.90661
LJ           1.42284        0.495822        0.617926
LJ          0.362826       -0.582335        -1.53547
LJ           1.19338        -1.81644         3.28087
LJ           2.31442        0.938724        0.182185
LJ         -0.484827        -5.32715        -2.35609
LJ         -0.161846        0.635747         1.96416
LJ          -1.58617        0.637554         6.36511
LJ           2.71326         1.34981         2.19404
LJ        -0.0830254       -0.354008         1.41773
LJ            1.4777         1.58116         1.16392
LJ          -1.50943       0.0235781        0.376912
LJ           1.19873         0.44788         3.63763
LJ          0.425889        -1.20417        0.772795
LJ           0.35616        0.733302       0.0411654
LJ          0.627549         1.70258         5.06837
LJ             1.442        -2.61871         1.46455
LJ           1.59877       -0.384378        -1.54099
LJ          0.253995       -0.959281       -0.511656
LJ           1.58674        0.561692         2.26648
LJ           1.57588        -1.20069         1.27367
LJ           1.58684         1.70083         2.24955
LJ          -1.07956        0.643426       -0.318116
LJ         -0.962804        -2.10693        0.842667
LJ          0.203342        0.546162          -1.873
LJ          0.510865        0.338173         2.71651
LJ         -0.638084         -1.2557         1.26222
LJ         -0.556615         1.23791        0.265343
LJ          0.271982         3.48023           1.847
LJ         -0.518165          1.1618          3.0552
LJ          -1.24932        -1.71533        -1.54584
LJ         -0.977889        -1.98695       -0.342488
LJ           1.12019         1.31074        -2.30201
LJ         -0.286168      -0.0428523       -0.675715
LJ         -0.203863         2.51661        0.408508
LJ           2.41367        -2.96299        0.994213
LJ           5.34364         1.26266        -5.61867
LJ           1.82302         5.17008       0.0635809
LJ          -1.05602         0.32254          -1.292
LJ          0.879611          4.0648        0.532999
LJ          -2.87365        -1.20776        -4.48287
LJ           1.83658         2.44195       -0.935221
LJ          0.108416        -3.89589        -1.12648
LJ          0.463959        -1.92905       -0.132442
LJ          -6.06203        -4.80848         1.30778
