108
#Comment!
LJ          -2.88425        -2.88425        -2.88425
LJ           -0.4679       -0.467889        -3.37928
LJ          -3.37913       -0.467925       -0.467928
LJ         -0.467914        -3.37937       -0.467872
LJ         -0.388472        -2.57176        -2.57175
LJ          0.800155       -0.824772        -3.39497
LJ        -0.0323233        -1.83072        -1.83067
LJ          0.800158        -3.39491       -0.824732
LJ          0.965126        -2.52387        -2.52389
LJ           1.56517        0.597188       -0.609915
LJ         0.0577362         5.07054         5.07054
LJ           1.56519        -0.60987        0.597184
LJ          -2.57159       -0.388499        -2.57165
LJ         -0.824819        0.800185        -3.39497
LJ          -3.39499        0.800116       -0.824858
LJ          -1.83131      -0.0332483        -1.83132
LJ         -0.677696        -0.67758        -2.37475
LJ         -0.257991       -0.257607        -1.28042
LJ           -1.5292       0.0059536        -2.89443
LJ        0.00596673        -1.52906        -2.89417
LJ           1.37611      -0.0167499        -2.65696
LJ           1.60139        -1.06256        -2.22972
LJ          0.391994       -0.714681        -2.08694
LJ           3.81054        -1.89206        -2.62879
LJ          -2.52392        0.965146        -2.52388
LJ          0.597167         1.56513       -0.609936
LJ         -0.609917         1.56508        0.597162
LJ           5.07054       0.0577363         5.07054
LJ        -0.0166752         1.37625         -2.6572
LJ          -1.06253         1.60123        -2.22968
LJ          -1.89211         3.81065        -2.62879
LJ         -0.714849        0.392006        -2.08746
LJ           0.26439        0.264357        -2.24857
LJ          0.993016        0.992951         -2.7716
LJ           -0.1172         1.91193        -1.64656
LJ           1.91192       -0.117287        -1.64645
LJ          -2.57153        -2.57155       -0.388515
LJ          -1.83115        -1.83125      -0.0329076
LJ          -3.39515       -0.824752        0.800237
LJ         -0.824714        -3.39491        0.800072
LJ         -0.677892        -2.37493       -0.677846
LJ        0.00602446        -2.89418        -1.52911
LJ          -1.52915        -2.89431      0.00599023
LJ         -0.257851        -1.28062       -0.257708
LJ           1.37611          -2.657      -0.0167148
LJ           3.81058        -2.62883        -1.89219
LJ          0.391966          -2.087         -0.7147
LJ           1.60152         -2.2297        -1.06251
LJ          -2.37452       -0.677418       -0.677425
LJ          -2.89434      0.00588754        -1.52912
LJ           -1.2804       -0.257636       -0.257898
LJ          -2.89425        -1.52902      0.00602633
LJ           -1.1752        -1.17544        -1.17528
LJ          0.361735        0.361748       -0.337635
LJ         -0.337781        0.361683        0.361696
LJ          0.361755       -0.337447        0.361717
LJ          0.544861        -1.06373        -1.06369
LJ          0.941879       0.0697126        -1.40561
LJ              1.71        -1.13323        -1.13308
LJ          0.941886        -1.40564       0.0697316
LJ          -2.65717         1.37623      -0.0166117
LJ          -2.62877          3.8106        -1.89208
LJ          -2.22976         1.60125        -1.06248
LJ          -2.08736        0.392025       -0.714847
LJ           -1.0638        0.546075         -1.0638
LJ         0.0698086        0.941919        -1.40551
LJ          -1.40559        0.941916       0.0697939
LJ           -1.1326         1.70961         -1.1327
LJ           2.16753         2.16752         1.36481
LJ           1.91949         1.91958      -0.0724479
LJ          0.497995         2.20928        -3.64069
LJ            2.2092        0.497929        -3.64063
LJ          -2.52396        -2.52392        0.965102
LJ           5.07054         5.07054       0.0577362
LJ           -0.6099        0.597175         1.56507
LJ          0.597206       -0.609884         1.56517
LJ        -0.0167592        -2.65722         1.37628
LJ         -0.714725        -2.08731        0.391977
LJ          -1.89217        -2.62886         3.81065
LJ          -1.06247        -2.22952         1.60137
LJ           0.26438        -2.24871        0.264282
LJ           1.91192        -1.64653       -0.117109
LJ         -0.117122        -1.64651         1.91195
LJ          0.992862        -2.77156        0.992909
LJ          -2.65701      -0.0167319         1.37607
LJ          -2.08705        -0.71477        0.392052
LJ           -2.2298        -1.06255          1.6013
LJ          -2.62876        -1.89205         3.81053
LJ          -1.06353        -1.06364        0.545605
LJ          -1.13285         -1.1329         1.70971
LJ          -1.40563       0.0697553        0.941894
LJ         0.0698139        -1.40557        0.941952
LJ           2.16746         1.36479         2.16747
LJ           2.20927        -3.64069         0.49789
LJ           0.49792        -3.64074         2.20928
LJ           1.91948      -0.0725575         1.91953
LJ          -2.24852        0.264378        0.264382
LJ          -1.64655         1.91198       -0.117263
LJ          -2.77164        0.992994        0.993095
LJ          -1.64653        -0.11731         1.91194
LJ           1.36483         2.16756         2.16755
LJ          -3.64054         2.20923         0.49791
LJ        -0.0725069         1.91955         1.91948
LJ          -3.64055        0.497921         2.20927
LJ           5.74104         5.74104         5.74104
LJ           1.12818         1.12807        -1.36628
LJ          -1.36629         1.12804         1.12807
LJ           1.12831         -1.3662         1.12822
