108
#Comment!
LJ            2.1397       -0.657316          1.2267
LJ           2.33416        -1.74742           1.354
LJ          -1.52394       -0.792194         2.18967
LJ          -3.31346         2.09382         1.63268
LJ           2.93232        -1.41298        0.482603
LJ           1.62847          1.0332       -0.958411
LJ           2.70599         0.54319         1.17955
LJ           2.52481        0.425096        -1.20299
LJ           1.51329        -1.30329        0.470669
LJ            2.3353        -1.71701       -0.844232
LJ           -2.0377          3.1707         0.73524
LJ           1.34408         1.10961         2.53039
LJ         -0.520879        -1.60782        0.218502
LJ           2.89015       -0.328012       -0.369944
LJ          -0.31296        0.999474          2.9562
LJ        -0.0549501        0.702295         1.54776
LJ          0.686412        -2.00632        -2.46909
LJ          0.497874         1.00526        0.285072
LJ         -0.869931         1.66576         2.36547
LJ         -0.390541       -0.633377        -1.05345
LJ           1.46771        -3.17705        0.782098
LJ           1.21829        0.364013      -0.0930376
LJ           2.08116       -0.795389        -2.22849
LJ           5.84051         4.12467         3.42504
LJ          -4.73559        -3.95396         5.35976
LJ          -2.05457         3.53097       -0.809747
LJ          -3.31711         6.07248       -0.674084
LJ         -0.629575         -5.9334         3.42808
LJ          0.660456         2.49923         1.97588
LJ          -2.15359        0.244709         1.06295
LJ          -1.11204       0.0959744         1.49501
LJ           -2.5114        -4.39884         4.36925
LJ         -0.131504        -1.64473        -1.76984
LJ           1.05364        -1.22087        -1.33925
LJ          -1.19283         2.38412        0.394943
LJ          0.180095        -1.48338       -0.604612
LJ         -0.533871        -2.44326       -0.945067
LJ         0.0159314       -0.677532        -2.89999
LJ          -1.66821        0.519411         2.49717
LJ           2.28582         0.87055       -0.203983
LJ           1.67584         1.19495        0.633546
LJ          0.716943        -2.37179        0.712664
LJ          -1.71913       -0.181291       -0.665704
LJ          -1.47431        -1.09099        0.104198
LJ           1.81402        0.207452         1.82908
LJ           1.52226         -4.0309         3.46001
LJ           1.02736        -2.10472       -0.496233
LJ           2.06011      -0.0922954        0.386133
LJ           -1.3244        0.352008        0.416465
LJ          -1.55463         1.23002         1.63278
LJ         -0.973064        0.246062         3.39176
LJ          -1.33275        0.790043       -0.833901
LJ          -1.35543        -2.30381        0.514364
LJ          -1.31018         2.68612        -1.45103
LJ           1.20121         1.23294         1.51184
LJ           2.07506         1.82014         1.89017
LJ            1.0659       -0.482054        0.392315
LJ          0.123927      -0.0956802        -1.79378
LJ           1.92894        -2.20449        0.351024
LJ           3.46377        0.537812       -0.115012
LJ         -0.261241         1.63594       -0.787413
LJ          -6.38273         2.80501        -3.31326
LJ         -0.941852        -1.59186         1.34188
LJ          -1.12561       -0.263093        -1.81153
LJ         -0.214582         1.87749        0.278601
LJ           0.13029          1.3681        -1.73937
LJ           1.11595       -0.598326         2.26053
LJ           1.25783          2.3445        0.744919
LJ          -4.85863         5.53228        -6.37877
LJ         -0.753003         1.84553         1.24354
LJ          -4.75471        -1.97725         6.05632
LJ           2.80768       -0.454046         2.00355
LJ           1.07128         0.34603         1.01559
LJ          0.231481         1.68304         1.15578
LJ          -2.53988           1.415         1.96387
LJ           0.14443        0.228844         3.89749
LJ         -0.692768       -0.491849        0.223897
LJ         -0.465657          0.4437       -0.374342
LJ          0.962901         6.26873         5.55403
LJ          0.302181        -1.16346        0.622947
LJ          0.527141        0.682515       -0.972162
LJ          0.624684       -0.510003       -0.626396
LJ         -0.299804        -0.49878         1.85353
LJ         0.0829877       -0.141644        0.929944
LJ          0.187688         1.49534         2.17681
LJ           -1.7306         1.41816        0.594856
LJ          0.884945        -0.63649         4.11169
LJ           1.78889         2.33187        -0.78598
LJ          0.450404        0.217637         2.58923
LJ         -0.563549       -0.559876         2.88128
LJ           -1.6403         2.47402         1.41295
LJ         -0.032201         2.06471         3.04869
LJ          0.744384        -1.53251         1.79846
LJ           2.25678         6.33562       -0.629129
LJ          -4.37753         3.63118         3.14409
LJ         -0.330237        -4.08677       0.0752543
LJ         -0.511873        0.899657        0.614199
LJ          0.873512          1.7381       -0.348219
LJ           1.98028       -0.729691       -0.678996
LJ           3.93936        -0.63001        -5.29229
LJ           2.13939         2.05614       0.0593745
LJ          -1.41134         1.72351       -0.383134
LJ           3.87729        0.505099         1.47457
LJ          -3.94537       -0.315463         4.96725
LJ           1.13652      -0.0651193        -1.52516
LJ          0.430651        -2.40148        -1.31163
LJ          -1.98472        0.809866         6.13917
LJ         -0.570366         3.92668         -5.5493
