108
#Comment!
LJ          -0.56481        -1.88274      -0.0649242
LJ          -5.67707         4.68764        -2.53136
LJ           1.13629         3.17497        -2.71207
LJ          0.909731         2.00916        -2.99517
LJ           1.18991        -1.45848       -0.755699
LJ          0.455226         2.30453      -0.0625127
LJ           1.32642        -1.75521        0.368871
LJ          0.735161        -2.82843         1.02469
LJ           1.58101        -2.61448       -0.197607
LJ           1.74478        0.242329       -0.494296
LJ          0.870891         1.54692        0.416289
LJ           1.26646        -0.48067         1.70885
LJ          -1.14012       -0.754479        -2.08895
LJ          0.663122          1.4534        -1.40531
LJ        -0.0535036         1.68646        0.912618
LJ         -0.688538         3.57552         1.11506
LJ          -1.42194         1.19546        -1.41356
LJ        -0.0627154       -0.388761        0.641551
LJ          0.155529         3.35633        0.336155
LJ         -0.389798       -0.818546        -0.94734
LJ          0.867478       -0.989441        -1.75338
LJ          0.391282        -1.08419       -0.184239
LJ         -0.843914        0.878833        -2.46792
LJ          0.686232         4.62389         5.02462
LJ          -3.83793        -5.83974        -0.64564
LJ         -0.472724         1.64457        -1.70483
LJ         0.0105686         2.35606        -2.60901
LJ           4.93689          1.8288        0.622309
LJ          0.632123         3.79324       -0.504436
LJ           2.12913         5.88662        -1.88096
LJ          -1.80719        0.715621         1.46734
LJ          0.237484          1.0623        -2.37882
LJ         -0.347026        0.494788        -3.64127
LJ           1.18048        0.189438        -1.62387
LJ        -0.0757318        0.766251          0.2681
LJ         -0.143959        0.448106        -1.38443
LJ          -1.41958        -2.25548       -0.788532
LJ          -2.98624        0.112474       -0.667929
LJ         -0.912591         1.30005       0.0678523
LJ           1.03666        -1.68115         1.62403
LJ         -0.720856        -1.19749        0.937375
LJ         -0.419957        -2.77802        0.588523
LJ          -1.84924        -1.54424      -0.0917895
LJ         -0.981018       -0.281677         1.50229
LJ         -0.112046         -3.3822         1.47358
LJ          -6.05169        -6.25514        0.549782
LJ            0.3848        -2.28569       -0.168853
LJ           1.74652        -2.25523         1.18352
LJ         -0.979621       -0.938013       0.0344465
LJ         -0.889651         2.10667       -0.718381
LJ          0.106476       -0.228553         1.60902
LJ          -1.72501         0.72287       -0.461812
LJ          0.263101        -1.71233        -1.20975
LJ         -0.110017         1.25525       -0.666247
LJ           1.12188        0.150236        0.576272
LJ           2.19275       -0.294573        0.885424
LJ           1.82316        -0.75855      -0.0360717
LJ          0.345541       -0.154022       -0.535246
LJ           2.41144      -0.0576348        -1.55743
LJ           3.26275        0.156349        -0.65264
LJ          -1.16894      -0.0371733        -1.30326
LJ          -5.86143         3.08009        0.954463
LJ          -2.09669         1.46395        0.266801
LJ          -1.47694         -1.0738         -1.0449
LJ         -0.537442         1.75791         1.87129
LJ         -0.712304       0.0776916       -0.340707
LJ          -0.71948        0.805435         1.22896
LJ           1.65531         2.75979        0.267467
LJ           2.73846         6.37562        -5.88413
LJ          0.516148        0.743741         1.16603
LJ          -3.48903        -2.00733          5.7505
LJ           -2.5231         4.85835        -5.88158
LJ          0.182051        -1.84494        0.868598
LJ          0.983259         1.10041       -0.501468
LJ           -1.2689         1.07641         2.29175
LJ          0.198654        0.672167         2.26468
LJ          -1.03751        -2.92932         1.58635
LJ          -1.27324        -2.06412         0.72817
LJ           1.43727         1.49184         5.50151
LJ          -5.99577        -1.74547         2.32479
LJ          0.843224       -0.880786        0.787178
LJ           2.22589        -1.68363        -0.63306
LJ          -0.16833        -2.39459         1.68481
LJ          0.165394        -1.27174         1.95048
LJ          -2.69798        0.976284        0.977227
LJ          -1.36873        0.462031        0.484429
LJ           1.01699        -2.76742         2.14902
LJ          -2.01043         3.45148         2.50934
LJ           1.06189       -0.503799           3.498
LJ          -1.00936        -1.24481         2.12401
LJ         -0.833782         2.52735        0.582206
LJ          0.279937       -0.967503         2.87221
LJ          0.136772        -2.22513         2.71483
LJ          -3.20543        -4.06393         6.02469
LJ           5.76632        -4.75732       -0.454597
LJ           6.25734         2.95648        -3.58456
LJ          -1.70249       -0.526157        0.648359
LJ          0.478487         2.65004        0.973142
LJ           1.92037         3.74976        0.882452
LJ           2.93869        -2.69064       -0.798263
LJ           5.08941         3.46113        -1.24736
LJ          -4.56808        0.906458        -2.35351
LJ         -0.489178         5.85578        -1.60865
LJ            5.8151         5.11399          2.4093
LJ           1.99409        0.711016        0.940624
LJ          -1.80048       -0.262497       -0.467687
LJ          -1.88377        -5.86876        -3.69385
LJ          -1.38238        -2.65437        -5.95906
