108
#Comment!
LJ           2.58257        0.158162         1.48741
LJ           2.21188        -2.78123        -1.80108
LJ         -0.347996        -1.34146        0.616436
LJ          -2.63694        0.491821       -0.215628
LJ           1.56772        -1.45723         3.01324
LJ           2.27989         1.27273        -1.28529
LJ             2.502         1.83466        0.762346
LJ           1.65071        0.443989        -2.06601
LJ           1.10953       -0.397008         1.33489
LJ           1.05486        -1.98148        0.517527
LJ          -1.65882         2.26484         2.70224
LJ           1.63586         1.34332         2.41991
LJ          -1.57973        -1.03052       -0.320757
LJ           2.70843       -0.953147       -0.441021
LJ          -1.22182      -0.0917885         2.27919
LJ         -0.334509        0.556047         2.08078
LJ        -0.0931627        -2.99035        -1.85745
LJ         -0.627468        0.921224        0.244088
LJ          0.946802         2.31608         2.40907
LJ         -0.260232      -0.0643308        -1.35779
LJ          0.771335          -2.528         2.08791
LJ          0.995315         1.33576        -1.10871
LJ           2.36253        -1.59084         -1.5643
LJ          -6.04896         2.42733         6.25154
LJ           5.83426        0.718813          5.2257
LJ           -1.7789         2.02439       -0.390158
LJ          -3.03917        -5.33245        -1.26198
LJ         -0.338942        -5.94493        -0.46322
LJ           2.57273         2.33971         2.33957
LJ          -2.97613        0.479847         1.26147
LJ         -0.428368       -0.679898         1.68345
LJ          -4.65536        -6.41692        0.577874
LJ          0.671234        -1.87376        -1.18469
LJ            1.7982       -0.497077        -1.38292
LJ          -1.83809         1.56851         1.04529
LJ           1.33526        -1.45285       -0.240218
LJ         0.0211591        -1.81052         1.68186
LJ           1.42161        -1.95847        -2.16341
LJ          -1.83834       -0.296389         1.31274
LJ           1.39001         1.05646       -0.215002
LJ           1.22045         1.40366         0.81878
LJ          0.536579         -1.0555         2.14498
LJ          -1.13125       -0.787169        -1.99956
LJ           -1.9899       -0.262509        0.219984
LJ           1.48215        0.559619         1.77258
LJ          -1.04062        -4.28714         5.14021
LJ           1.99796        -1.01046        0.526336
LJ           1.81721        0.330812        0.691467
LJ          -1.46218       -0.132144        -1.25505
LJ         -0.882709         0.24628         1.26032
LJ         -0.174152         1.60088          2.8249
LJ          -0.90179         1.83464       -0.889647
LJ           -4.3415        -3.24707       -0.623602
LJ         -0.355777         3.01501       -0.860141
LJ          0.649653          1.5731          1.7446
LJ           2.90532        0.278316         2.62882
LJ          0.450754        0.508535      -0.0964965
LJ          0.552957        -0.76663        -1.74678
LJ           1.38715        -1.49689         1.68445
LJ           3.02684        0.721482         0.48948
LJ          0.240379         1.55974        0.426608
LJ           3.18011         3.72652        -3.80265
LJ          -0.43557        -2.67742         2.45446
LJ          -2.02236        0.119925         -2.1654
LJ         -0.677589         2.14009       0.0938788
LJ         -0.189259      -0.0475159        -2.48244
LJ           2.38458       -0.778193         1.77233
LJ           2.47314         1.29933         1.66451
LJ          -3.46001       -0.195369        -4.21551
LJ         -0.506027         1.32263          1.2234
LJ          -3.55729       0.0715923         6.42543
LJ           3.48507       -0.533869         1.62394
LJ          0.577448        0.560042          1.1169
LJ          0.845942         2.45078        0.878211
LJ          -1.89692        0.575015         1.78218
LJ            1.7157      -0.0606153         3.27608
LJ         0.0625689       -0.881262       -0.372468
LJ        -0.0884485         1.15289       -0.774652
LJ          0.141811         3.74881         4.61082
LJ          0.725932       -0.785809        0.408102
LJ          0.540153        0.555355        -1.76533
LJ          0.745639      -0.0957684       -0.918212
LJ           1.47683        -0.51248         2.37572
LJ         -0.130821       -0.207147        0.466834
LJ           1.73001         2.32342         1.67374
LJ          -1.72008        0.643516         0.52797
LJ          -1.05705        -1.83716         1.38382
LJ         -0.688879        0.948269        -1.55416
LJ          0.592424        0.126706         2.41953
LJ         -0.539273       -0.991557         2.74675
LJ          -1.27088         1.40744         2.15142
LJ          0.981076         1.69185         3.31681
LJ          0.680976       -0.846586         3.22533
LJ         -0.247358        -3.19805        -2.89781
LJ          -3.31145       -0.700055        0.412636
LJ           2.80851         -2.5041       -0.886936
LJ         -0.753702      -0.0335169       -0.410296
LJ           1.08314         2.13752      -0.0332938
LJ           1.40914       -0.317325       -0.147591
LJ            4.5651        0.244982        -5.42253
LJ           1.81047         2.67264        0.415498
LJ          -1.41064         1.00801       -0.529482
LJ           2.95654         3.98687         0.75104
LJ          -3.09897        -1.51046         6.26481
LJ           2.64565       -0.163104        -1.97232
LJ           1.09336        -2.77944        -1.47594
LJ           6.04352         6.13911        -3.86311
LJ          0.915776         6.39718        -0.51937
