108
#Comment!
LJ          -2.90363        -2.90363        -2.90363
LJ          -1.22047        -1.22047        -3.29149
LJ          -3.29149        -1.22047        -1.22047
LJ          -1.22047        -3.29149        -1.22047
LJ          -1.39148        -2.30514        -2.30514
LJ          -1.16321        -2.17431        -3.79256
LJ         -0.197159          -1.563          -1.563
LJ          -1.16321        -3.79256        -2.17431
LJ           1.03454        -1.61908        -1.61908
LJ           2.07287       -0.487824         -1.7751
LJ           4.32247         5.26895         5.26895
LJ           2.07287         -1.7751       -0.487824
LJ          -2.30514        -1.39148        -2.30514
LJ          -2.17431        -1.16321        -3.79256
LJ          -3.79256        -1.16321        -2.17431
LJ            -1.563       -0.197158          -1.563
LJ         -0.663897       -0.663898        -2.32168
LJ          -0.32892        -0.32892        -1.44546
LJ          -1.66292         0.12737        -2.57595
LJ          0.127369        -1.66292        -2.57595
LJ           1.26531        0.442373        -3.40345
LJ           1.41132       -0.316368        -2.64276
LJ          0.520945       -0.737396        -2.04362
LJ            3.2683        0.341371        -2.31602
LJ          -1.61908         1.03454        -1.61908
LJ         -0.487824         2.07287         -1.7751
LJ           -1.7751         2.07287       -0.487823
LJ           5.26895         4.32247         5.26895
LJ          0.442373         1.26531        -3.40345
LJ          -0.31637         1.41132        -2.64276
LJ          0.341371          3.2683        -2.31602
LJ         -0.737395        0.520945        -2.04362
LJ         -0.200217       -0.200217        -3.08694
LJ          0.520165        0.520165        -2.49114
LJ          0.799154         2.04077        -1.79798
LJ           2.04077        0.799154        -1.79797
LJ          -2.30514        -2.30514        -1.39148
LJ            -1.563          -1.563       -0.197159
LJ          -3.79256        -2.17431        -1.16321
LJ          -2.17431        -3.79256        -1.16321
LJ         -0.663898        -2.32168       -0.663899
LJ          0.127369        -2.57595        -1.66292
LJ          -1.66292        -2.57595        0.127369
LJ         -0.328921        -1.44546       -0.328921
LJ           1.26531        -3.40345        0.442373
LJ            3.2683        -2.31602        0.341371
LJ          0.520945        -2.04362       -0.737396
LJ           1.41132        -2.64276       -0.316367
LJ          -2.32168       -0.663897       -0.663897
LJ          -2.57595         0.12737        -1.66292
LJ          -1.44546       -0.328919       -0.328919
LJ          -2.57595        -1.66292         0.12737
LJ          -0.44561       -0.445611        -0.44561
LJ          0.282208        0.282208       -0.654386
LJ         -0.654385        0.282208        0.282208
LJ          0.282207       -0.654387        0.282208
LJ          0.447815       -0.863333       -0.863332
LJ          0.896944       0.0628025         -1.5526
LJ          0.990756     -0.00622791      -0.0062283
LJ          0.896945         -1.5526       0.0628017
LJ          -3.40345         1.26531        0.442373
LJ          -2.31602          3.2683        0.341371
LJ          -2.64276         1.41132        -0.31637
LJ          -2.04362        0.520945       -0.737395
LJ         -0.863332        0.447815       -0.863332
LJ         0.0628027        0.896944         -1.5526
LJ           -1.5526        0.896944       0.0628028
LJ       -0.00622833        0.990755     -0.00622871
LJ            1.1106          1.1106       0.0665869
LJ           1.14077         1.14077        -1.08209
LJ           1.71948         2.62705        -1.86181
LJ           2.62705         1.71948        -1.86181
LJ          -1.61908        -1.61908         1.03454
LJ           5.26895         5.26895         4.32247
LJ           -1.7751       -0.487824         2.07287
LJ         -0.487824         -1.7751         2.07287
LJ          0.442373        -3.40345         1.26531
LJ         -0.737395        -2.04362        0.520945
LJ          0.341371        -2.31602          3.2683
LJ         -0.316369        -2.64276         1.41132
LJ         -0.200217        -3.08694       -0.200217
LJ           2.04077        -1.79798        0.799153
LJ          0.799154        -1.79798         2.04077
LJ          0.520165        -2.49114        0.520165
LJ          -3.40345        0.442373         1.26531
LJ          -2.04362       -0.737396        0.520945
LJ          -2.64276       -0.316369         1.41132
LJ          -2.31602        0.341371         3.26831
LJ         -0.863332       -0.863332        0.447815
LJ       -0.00622878     -0.00622784        0.990756
LJ           -1.5526       0.0628028        0.896944
LJ         0.0628021         -1.5526        0.896946
LJ            1.1106        0.066589          1.1106
LJ           2.62705        -1.86181         1.71948
LJ           1.71948        -1.86181         2.62705
LJ           1.14077        -1.08209         1.14077
LJ          -3.08694       -0.200217       -0.200217
LJ          -1.79798         2.04077        0.799153
LJ          -2.49114        0.520165        0.520165
LJ          -1.79797        0.799153         2.04077
LJ         0.0665858         1.11059          1.1106
LJ          -1.86181         2.62705         1.71948
LJ          -1.08209         1.14077         1.14077
LJ          -1.86181         1.71948         2.62705
LJ           3.34572         3.34572         3.34572
LJ           1.94462         1.94462        -0.79174
LJ          -0.79174         1.94462         1.94462
LJ           1.94462       -0.791741         1.94462
