108
#Comment!
LJ           2.82981       -0.256842         1.75102
LJ           1.78035        -2.54085        0.893731
LJ         -0.637518         -1.0397         1.59701
LJ          -3.44783         1.91034        0.922377
LJ            2.3084        -1.59415         1.30788
LJ           1.10724         1.68697        -1.46369
LJ           3.03546         1.23518        0.704645
LJ           1.94199        0.335295        -1.34211
LJ           1.28842        -1.02889         1.20589
LJ           1.90916        -2.43425        -1.28389
LJ          -2.59918         2.48432        0.971158
LJ            1.2028         1.75677         3.09861
LJ         -0.893256        -1.55402        0.322916
LJ           2.72275       -0.496103        0.166526
LJ         -0.201895        0.537208           3.021
LJ         -0.356007         1.11678          1.6391
LJ          0.493612        -2.07511        -2.19915
LJ          0.309199        0.907393        0.421749
LJ         -0.550807          1.5284         2.62502
LJ          -0.45371       -0.226728        -1.18537
LJ          0.581336        -2.85159         1.64931
LJ           1.21988        0.449275       -0.447988
LJ           2.13609        -1.24615        -1.94006
LJ           6.15135         3.61431         4.27697
LJ          -5.50392        -2.60749         5.26285
LJ          -1.94249         2.97114       -0.799383
LJ           -3.2343        -6.39694       -0.856535
LJ         -0.188484        -5.43838         2.05897
LJ           1.73291         2.40269         2.37494
LJ          -2.98435      -0.0234575         1.07967
LJ         -0.235962        0.028753         1.90685
LJ           -3.1632         -5.0097          3.2294
LJ          0.139742        -1.11872        -1.82448
LJ           1.20538          -1.683        -1.24986
LJ          -1.44628         2.45754        0.953044
LJ          0.261859        -1.34365       -0.769794
LJ         -0.394372        -2.54034       -0.264083
LJ         0.0465959       -0.724693         -2.8919
LJ          -1.25431        0.246784         2.76739
LJ           2.27462        0.630895       -0.341679
LJ            1.6125         1.05631        0.434298
LJ          0.916674        -2.03812        0.785274
LJ          -1.44968       -0.393381         -1.0393
LJ          -1.94416       -0.774937      0.00532589
LJ           1.68834        0.774973         1.46393
LJ          0.754829        -4.11846         3.99911
LJ           1.35995        -1.96292       -0.254362
LJ           1.84054      -0.0487171        0.745245
LJ          -2.08738        0.822001       -0.587336
LJ          -1.51487        0.355442         1.46935
LJ          -1.26364        0.953686         3.62932
LJ          -1.10747        0.596419        -1.03109
LJ          -2.18191        -2.63933       0.0245546
LJ         -0.887326          2.3779        -1.17761
LJ          0.900816         1.34571         2.14044
LJ           2.22072         1.19723         2.59642
LJ          0.787036       -0.290582      -0.0132657
LJ          0.517343       0.0694687        -1.98078
LJ            2.2845        -1.48562        0.109634
LJ           3.66948        0.380492       0.0737948
LJ         -0.255686         1.53294       -0.918199
LJ           5.52806         3.08461         -3.4608
LJ         -0.133951        -1.92729         1.17047
LJ         -0.832566        0.150844        -2.14444
LJ         -0.132396         1.97574        0.218199
LJ        -0.0921166        0.781926        -2.35089
LJ           1.77675       -0.417445         1.87886
LJ           1.66728         1.84487         1.31672
LJ          -4.74482         3.65579        -5.53613
LJ         -0.581092         2.45841         1.85714
LJ          -4.51752        -1.38839         6.42877
LJ           3.47557       -0.960967         2.40983
LJ          0.866441       0.0613917         1.00152
LJ          0.515699          1.6435         1.09865
LJ          -2.66386        0.980472         1.43392
LJ           1.00743        0.697064         2.96913
LJ         -0.843141       -0.467365      -0.0994763
LJ         -0.231342        0.502359       -0.422365
LJ          0.715135         5.51247         5.27648
LJ          0.369636        -1.15447        0.453711
LJ          0.486971        0.905762        -1.24582
LJ          0.657298       -0.144296        -1.00731
LJ          0.322566       -0.690786         1.39685
LJ         -0.265055       0.0263795        0.611449
LJ          0.506359         2.38837         2.55443
LJ          -1.89534         1.28114        0.494619
LJ        -0.0511546       -0.803984         4.15124
LJ        -0.0133585         2.39323        -1.77529
LJ          0.921542        0.198554         2.02772
LJ          0.195633       -0.476869          2.7118
LJ          -1.32188         1.47796         1.85484
LJ         0.0103107         1.51821         3.76317
LJ          0.856295        -1.62385         2.17579
LJ           1.49482        -5.67575        -1.40228
LJ          -3.90037         2.58182         1.76131
LJ           0.78151        -3.13813        0.328864
LJ         -0.954836        0.890597        0.547327
LJ           1.10566         1.60754       -0.396425
LJ           1.73927       -0.613779       -0.294707
LJ           4.12772       -0.366176        -5.33242
LJ           2.33708         2.03193        0.292441
LJ          -1.20032         1.73644       -0.211138
LJ            3.8931         2.04024        0.821651
LJ          -3.51871       -0.594759         5.15344
LJ           1.40833       -0.539132         -1.7132
LJ          0.490322        -2.55554        -1.02697
LJ          -3.15292         2.57484        -6.08372
LJ          0.128176         3.22001        -3.31007
