108
#Comment!
LJ           1.54957         -1.0553         0.98954
LJ           3.29976        -1.60789         2.68829
LJ          -1.95637        0.127052         1.43265
LJ          -1.17787          4.3734        0.972929
LJ           2.73909        -1.60009       -0.465994
LJ            2.3264         1.77079          -1.721
LJ           1.36615       -0.163907         1.71202
LJ           2.43799        0.775839       -0.279726
LJ            2.1995         -1.9382        0.374412
LJ          0.952493        -1.41102        -1.80441
LJ         -0.823431         2.86881        0.877969
LJ           1.79788         1.84495         1.62473
LJ          -0.92054        -3.04187        0.306047
LJ           2.18746       -0.422724       -0.491752
LJ          -1.86396        0.448877         2.66127
LJ          0.788906         2.02881         2.16422
LJ          0.682255       -0.300465        -2.27435
LJ          0.131534        0.437328        0.474382
LJ         -0.517359          1.7032         2.24664
LJ         -0.867343        -0.72213       -0.824974
LJ          0.705022         -3.0873       -0.498666
LJ            1.1334       0.0274593       -0.276431
LJ           1.37328        0.470474        -2.44209
LJ           4.83337         5.41902        0.977498
LJ          -1.67993         5.39325         5.80085
LJ          -1.85448         2.80389        0.539361
LJ          -3.47478         4.72346       -0.141279
LJ          -2.16305         5.56185        -5.84097
LJ            1.2109         1.61682         3.18512
LJ          -5.18865         2.03155         2.87343
LJ         -0.801531        0.132309         1.10494
LJ         -0.734267        -2.71847        -5.36524
LJ          -0.31988       -0.612195         -1.8771
LJ          0.162351        -1.22881       -0.671464
LJ          -1.26719         1.90893        0.613806
LJ         -0.221271        -2.24639       -0.113467
LJ           -1.3897        -2.06638       -0.465159
LJ          0.468081        0.993056        -2.13386
LJ          -1.54984         1.12183         1.62416
LJ           1.50886         1.09411        0.395832
LJ           1.98834       0.0207236        0.675626
LJ           1.51129        -3.00181        0.389771
LJ          -1.51348        -1.09166      -0.0517883
LJ          -1.18162       -0.846757         1.03103
LJ          0.462408        -0.41169         2.27924
LJ           3.57951        -3.58976         1.75186
LJ           1.04771        -2.06942       0.0499895
LJ           3.30028      -0.0213637      -0.0593278
LJ         -0.956137      -0.0567237      0.00826476
LJ          -2.38573         1.93062        0.945233
LJ          -1.68074       -0.621101         2.54729
LJ          -1.54521        0.696579       -0.481408
LJ         -0.877399        -3.45104         1.46366
LJ          -1.20834         1.82472       -0.747255
LJ           0.62572         1.42952         1.14026
LJ           2.61741         1.56496        0.588902
LJ           1.27127        -1.14535       -0.377157
LJ         0.0912563       0.0116726       -0.830496
LJ           1.37387        -2.08097        -1.05114
LJ           3.33837        -0.96691        -1.30014
LJ         -0.548247        0.890154        -1.63056
LJ          -3.51694          2.0184        -2.89226
LJ          -1.96213      -0.0487854       0.0812934
LJ           -1.6512      -0.0134818        -1.36305
LJ         -0.245091         2.13517       -0.358969
LJ          0.158098         1.80482        -1.41671
LJ        -0.0536576        -0.11455         3.25464
LJ          0.990422         1.89794      -0.0050515
LJ          -6.05598        -4.38615         3.79831
LJ         -0.508313         1.19268        0.821119
LJ          -4.92204         -1.4981         5.21999
LJ           1.54574       -0.494053         2.78308
LJ          0.939195       -0.169532        0.735849
LJ          0.177563         2.39494        0.732562
LJ          -1.38805          2.1623         2.01511
LJ          0.491279         1.18549         3.75091
LJ          0.737689        -1.79978         1.11347
LJ         0.0115311       -0.665446        0.131047
LJ           1.58756        -4.52576         6.28261
LJ           2.12522        -1.98104         1.52106
LJ          0.515077        0.870496        -0.43926
LJ          0.992624       -0.509211        -1.13236
LJ         -0.147475       -0.918616         1.15548
LJ         0.0818223        0.700857         1.76564
LJ         -0.936863         1.27206         3.22873
LJ          -1.63444        0.710091        0.687924
LJ          0.204542         1.08124         2.76761
LJ            1.7018         2.95418        -2.32024
LJ         -0.747497        0.317287         2.48001
LJ          -0.52141        -1.31447         2.35005
LJ          -2.76962         2.80461         1.47937
LJ          0.200488         2.14504         3.07627
LJ           1.19463        -1.15343         2.05752
LJ           4.53428          3.8476         1.63349
LJ          -5.53961          6.3639        -6.17347
LJ          -3.24789        -6.29657        -1.12543
LJ          -0.50291        0.881529       -0.426359
LJ           1.96393         1.72966       -0.739605
LJ           2.23125        0.452176        -1.42851
LJ           3.39902        -1.36963          -5.162
LJ           3.49587         2.97297         3.49157
LJ          -2.21307         2.11627       -0.405746
LJ           6.30078        -1.75826         3.77833
LJ            -5.147         0.30513         4.53238
LJ           1.20981        0.700361        -1.28721
LJ           0.17993        -2.18103        -1.11822
LJ           1.30437        -4.08405         3.80897
LJ          -2.49342         6.11289         1.13578
