108
#Comment!
LJ        0.00801712        -1.75063        0.140408
LJ           6.00713         2.80891        -5.38586
LJ          -1.58176         1.96844      0.00547292
LJ          0.384323        -1.29061         -3.8082
LJ          0.843353        -1.93762         -0.7136
LJ          0.220484         1.81315        -1.33295
LJ           1.26772        -1.77842        0.492165
LJ           1.64005        -1.71105         1.93036
LJ           2.27285        -2.47538        0.324595
LJ           1.73254        0.382289        -1.44246
LJ         -0.112608         2.33998        -0.32275
LJ           1.48653        0.224813         1.24362
LJ         -0.121283       -0.667233         -1.8905
LJ            1.8381       -0.783812        -1.58649
LJ           -1.0129         1.14933         1.30796
LJ         -0.707698         3.95953         1.68646
LJ         -0.804336         0.74769        -1.90648
LJ         -0.311568       -0.799662        0.489238
LJ        -0.0215486         2.27975        0.945235
LJ        -0.0174104       -0.779482        -0.66703
LJ          0.695837        -2.15235           -1.88
LJ          0.802992       -0.902813      -0.0874329
LJ         -0.960903          1.5009        -3.04771
LJ          0.912282         6.03524          -4.297
LJ            5.9614         -2.6271        -2.38287
LJ        -0.0784895         2.85029         -1.1568
LJ          -2.00041         2.63207       -0.801069
LJ          -6.38181         2.59738        -1.35929
LJ           1.97752         3.14753        0.676319
LJ           3.44978        -6.44962        -3.40838
LJ          -1.37569         0.77424         2.54271
LJ          0.980163        -0.24123        -1.93232
LJ          0.266982        0.848584        -1.83829
LJ          0.754202          -1.147        -1.35554
LJ         -0.463999         0.16953        0.942738
LJ         -0.198372        0.220312        -1.16849
LJ          -1.06023        -1.60953       -0.798296
LJ          -2.07649        0.488305         -1.9347
LJ          -1.05322         1.17444        0.189774
LJ           1.75105       -0.570261        0.452607
LJ           -0.5285        -1.81119         1.08295
LJ         -0.397529        -2.58156         1.90789
LJ           -2.3283        -1.20287       -0.603882
LJ          -1.16086       -0.777801         1.18863
LJ          0.407228        -1.66764          1.7753
LJ           6.02807         2.19482        0.521643
LJ          0.502226        -2.72016       0.0329071
LJ           2.44816        -1.36106        0.476525
LJ          -1.31923       -0.485031       -0.481613
LJ          -1.04718         2.18292        -1.14187
LJ        -0.0969033       -0.572777         1.52431
LJ          -1.18665        0.440601        -0.68388
LJ         -0.148116        -2.30957       -0.810246
LJ         -0.374679         1.18982       -0.570194
LJ           1.19821         1.20732        0.628992
LJ           1.89459       0.0557023       -0.312303
LJ            1.9112        -1.11662       -0.535321
LJ          0.814681       -0.061399       -0.845269
LJ           2.02455        -1.87532        -2.32614
LJ           2.87256       0.0912917        -1.43249
LJ           -1.0203       -0.250056         -1.6151
LJ          -4.03678         1.54207       -0.903919
LJ           -2.0247         1.61795        0.893447
LJ          -2.69898        -1.01306         -1.6103
LJ          0.182567         1.46476         2.59171
LJ         -0.309092        0.111844      -0.0965078
LJ         -0.378673        0.274262         2.17512
LJ           1.05687         2.45333        0.776114
LJ           2.47111        -6.32316        -3.85663
LJ          0.455126         0.63936         1.40361
LJ          -3.31531         -5.4022         5.39784
LJ          -5.07416         3.28132         5.55808
LJ          0.887969       -0.956584         1.08865
LJ           0.92379          1.9047       -0.249201
LJ          -2.72447        0.859728         2.29452
LJ         -0.144952        0.579289         3.14316
LJ          -1.58951        -2.25675         1.40856
LJ           -1.3456        -1.37262        0.230534
LJ           1.73974      -0.0785882         6.09068
LJ           4.95045        -1.33814         2.48902
LJ          0.690799       0.0392745         0.45367
LJ           2.81629       -0.507127       -0.442261
LJ         -0.579692        -1.42639         2.22886
LJ           1.05685       -0.587865         2.00008
LJ          -2.57723         1.91345         1.86642
LJ          -1.56029        0.171149         1.66574
LJ           1.97274        0.164506         2.90541
LJ            1.0417         4.07478        0.513405
LJ        0.00122185       -0.518246         2.87006
LJ          -1.15246       -0.223052         2.58502
LJ          -1.07243         2.11598        0.983376
LJ          0.804687        0.434923         2.61735
LJ          0.524975        -2.76865         2.52151
LJ          -4.62556        -1.66027         5.18217
LJ           6.02168        -3.79138       -0.994736
LJ          -6.22739         3.97206        -2.51869
LJ          -1.34532       0.0352844        0.479108
LJ         0.0552364         1.27695        0.665636
LJ          0.812146          3.2897         1.64491
LJ           2.97299        -2.29783        -2.63016
LJ           4.60886         3.20416        -3.61257
LJ          -3.01881        0.310395        -1.32687
LJ         -0.596905        -6.32385        -4.49708
LJ           6.00323         3.56523         2.38963
LJ           1.94486         1.29965       -0.888947
LJ          -2.16791       -0.181958        -0.99924
LJ           -4.5636        -1.72258        -1.73148
LJ             3.118        -5.31742       -0.937492
