108
#Comment!
LJ          -2.15157        -1.67111       -0.240865
LJ          -4.45872        -4.59674        -6.31945
LJ          -5.28699        -4.61556         -4.0136
LJ          -4.98429        -5.55809        -4.44884
LJ           1.64288        -2.82455        -1.06851
LJ         -0.655151         0.61004        -2.61148
LJ          0.761836        -1.83525        -1.04555
LJ          0.725083        -2.60884       -0.215531
LJ          0.195945         -1.4368         -1.8258
LJ           1.82174        0.153338       0.0690669
LJ           4.42368          3.0854         3.35633
LJ           1.60162         -1.3308         1.56886
LJ          -1.72403        -1.14476        -2.35261
LJ        -0.0237742         2.46168        -1.89788
LJ          -2.04957         0.71796        0.122647
LJ         -0.932437           1.764       -0.661218
LJ          -1.31137        0.151864        -1.48944
LJ          0.629966         0.22545       -0.027469
LJ          -1.92904         1.27929         -2.8673
LJ         -0.939639        -1.08125        -1.44861
LJ           0.96485        -1.60887        -2.54254
LJ           1.03767       -0.922372        -1.71473
LJ         0.0252171       -0.575164        -1.26327
LJ            4.7655        -2.58865          5.9611
LJ         -0.810787         1.90204         -6.0327
LJ          0.876171         1.81872        -1.98497
LJ          0.441703          2.0532       -0.750788
LJ           4.75069        -2.89647         4.40163
LJ         -0.541633         1.72387        -2.68141
LJ          -1.08129         2.21691        -1.61276
LJ          -2.58808         4.57647         6.02449
LJ         -0.321763        0.458284        -1.53336
LJ          0.125199         1.06307        -3.27566
LJ           0.49552        0.834511         -2.2409
LJ        -0.0807996         1.47919        -1.53197
LJ          0.110995        -0.22743        -2.22382
LJ         -0.885816        -2.07895        -1.10265
LJ          -2.09034       -0.709254         1.59574
LJ          -2.18648        0.432708         1.51649
LJ            0.5817        -2.40079        0.785296
LJ          -1.17584         -1.3407       -0.256674
LJ         0.0492332        -2.46646        -1.47431
LJ           -1.0317         -2.0707         1.01453
LJ         -0.251424        -0.73874        0.121462
LJ          0.777019        -3.68629       -0.538282
LJ           5.97967         4.93347        -2.58297
LJ         -0.172453        -1.37105       -0.646315
LJ           2.04059       -0.758061       -0.470663
LJ          -1.39031        0.736034       -0.594901
LJ           -1.2688         1.14577        -1.78435
LJ         0.0544553       0.0656638         1.29405
LJ          -1.81445        -1.36853        0.728893
LJ         -0.578671      -0.0789857       -0.619715
LJ          0.965126         0.86231       -0.781892
LJ           1.19171        0.535202         1.10722
LJ           1.08856       -0.734067        0.783155
LJ          0.794684       -0.663049       -0.568071
LJ          0.840993        0.102741        -1.48645
LJ            1.9187       -0.120013        -1.70431
LJ          0.748111        -1.47557         0.11587
LJ          -2.19728        -1.03851        -1.35856
LJ           5.51409         5.18893        -6.01906
LJ          -2.46957        0.948477        -1.42092
LJ           -1.7633        -0.48362       -0.607504
LJ           1.14706         1.33466        0.382057
LJ         -0.227287         1.13799       -0.504387
LJ         -0.498618        0.335451        0.435829
LJ          -1.16972         1.27856        0.287449
LJ           3.46985         5.24194          1.9323
LJ           4.15312         4.17997         3.60823
LJ          -3.70634         3.30954         5.34461
LJ           3.06942        -3.79282         5.39534
LJ          -1.18842        -2.31983       -0.069314
LJ           3.22612         2.67368         3.43588
LJ         -0.716805        0.977221         1.31007
LJ          0.553079        -0.64063         2.25203
LJ          -1.20171        -3.08019         1.20265
LJ          -0.61986       -0.887731          1.3015
LJ          -2.28172         6.06796         5.09236
LJ          -2.24881        -2.09276         1.22816
LJ         -0.259272        -1.82432        0.292933
LJ           1.80603        -1.69615        0.446758
LJ         -0.239566        -2.13912          1.9815
LJ          0.249251        -1.45846         1.24766
LJ          -2.32499       -0.275167        0.683294
LJ           -1.2721       -0.457515        0.402151
LJ          -2.34748         -3.2144         1.19418
LJ           6.00381        -2.50904         4.77978
LJ         -0.477423       -0.224728         2.17385
LJ          -1.22025        -1.56677         1.87712
LJ           0.13721         1.41306        0.832292
LJ        -0.0217884       -0.920626         3.04649
LJ          0.803317        -1.62782         2.07997
LJ            3.1842         5.28544        -3.84214
LJ          -3.75955         5.30832         3.26547
LJ            5.7973         2.57201         6.19436
LJ          -1.20042       -0.108279         1.44162
LJ          -1.98693         1.79188       -0.294097
LJ         -0.219341          2.5153       0.0212215
LJ          -2.40558        -2.50323        0.284748
LJ           2.58818         5.43774         4.78023
LJ           5.45735         3.41792        -3.53023
LJ           3.30131         4.32489         4.42532
LJ           5.18714        -3.85625         3.45623
LJ           3.12813         3.68369         3.59853
LJ           -4.8186        -4.89188        -1.90442
LJ          -4.43207        -5.05774        -5.30024
LJ          -2.74748        -4.02561        -4.43221
