108
#Comment!
LJ           -2.5031        -2.42794        -2.48023
LJ          -1.97473        -1.95547        -4.71103
LJ          -4.66853         -1.8794         -1.9112
LJ          -1.95097          -4.737        -1.96517
LJ         -0.139909        -3.00953        -2.37302
LJ           1.06436       -0.621114        -3.08367
LJ          0.612996        -1.07573        -1.16965
LJ           1.15413        -2.98074       -0.628545
LJ          0.855222        -2.18876        -2.31187
LJ           1.85183        0.531264       -0.481635
LJ           5.71813         4.90607         4.89076
LJ           1.56136       -0.835911        0.665985
LJ          -1.89417        -1.08229        -2.39007
LJ          -0.26093         1.37725        -2.81426
LJ          -2.65781        0.841872       -0.661074
LJ          -1.23928        0.724326        -1.16586
LJ         -0.777222       -0.629333        -2.59633
LJ         0.0450447        0.139184       -0.496913
LJ          -1.45205        0.375502        -2.68194
LJ        -0.0173278        -1.63492        -2.04341
LJ           2.03126        -1.41936        -3.00193
LJ           1.15636        -1.11146        -2.07618
LJ         -0.226205       -0.674315        -1.63023
LJ           6.39011         -3.9625        -5.13797
LJ           -2.1304         1.68323        -2.51212
LJ          0.675603         1.66952       -0.791852
LJ         -0.676481         1.99129        0.741318
LJ            4.9415         5.75806         4.94263
LJ          -1.29647           1.684        -3.25222
LJ          -1.13976         1.36982        -2.07361
LJ          -3.96288         6.39068         -5.1381
LJ         -0.561897        0.339193        -2.19312
LJ          0.322217        0.178141        -3.02114
LJ          0.412304        0.699999        -2.10044
LJ        -0.0400716         1.82858        -1.85752
LJ           1.30358         0.22621        -2.49921
LJ           -2.0103        -2.75721       -0.469351
LJ          -1.20954        -1.18747         0.72531
LJ          -2.84746       -0.836772        0.795519
LJ         -0.318498        -3.01933         1.30249
LJ         -0.929919        -2.72367       -0.747424
LJ          0.496011        -2.18857        -1.13517
LJ          -1.36773        -2.76342        0.386814
LJ          0.267748        -0.47406        0.421382
LJ           1.85306        -3.10542        -1.44658
LJ            6.3903        -5.13831        -3.96324
LJ         -0.359913        -1.56249       -0.860276
LJ           1.50547        -1.96073       -0.811291
LJ          -2.94573       -0.470333       -0.312778
LJ          -2.37273        0.606416          -1.714
LJ         -0.818138      -0.0745448        0.166919
LJ          -2.19981        -1.66391        0.259271
LJ         -0.799924       -0.586494       -0.755929
LJ          0.860696         0.78071       -0.143967
LJ        -0.0730811        0.516331        0.696827
LJ           1.02551        0.106656          0.8255
LJ           1.03245       -0.372253       -0.299256
LJ          0.856119        0.116104        -1.29882
LJ           1.63146       -0.776072        -1.12121
LJ          0.572024        -1.50082       -0.251511
LJ          -3.36446         2.05812        -1.20022
LJ          -5.13793         6.39025        -3.96264
LJ          -2.06167         1.62138        -1.19996
LJ          -1.91798       0.0585091       -0.853948
LJ         -0.229237         1.19317      -0.0702077
LJ         -0.145796        0.978354        -1.24812
LJ          -1.46836        0.965794       0.0630963
LJ         -0.866304         1.72798       -0.946449
LJ           3.44984         3.44896         2.57754
LJ           4.36399         4.36382         2.22137
LJ          -1.67389         3.41665        -6.39375
LJ           3.41612        -1.67381        -6.39405
LJ          -2.19712        -2.44022          1.2104
LJ            4.9031         4.91963         5.74236
LJ         -0.291867        0.892481         1.71185
LJ          0.743498       -0.810177         1.64228
LJ          -1.42779        -3.09747         1.76085
LJ         -0.522877        -2.14803        0.224219
LJ          -3.96326        -5.13841         6.39078
LJ          -1.08521        -2.09227         1.36518
LJ          0.196828        -3.07012      -0.0368666
LJ             1.602        -2.05968        0.365224
LJ          0.202324        -2.10974         1.68826
LJ           0.49521        -2.17528        0.689785
LJ          -3.10544        -1.32298         2.03455
LJ          -1.85704       -0.914856       -0.447389
LJ          -2.08471        -1.20931         1.50268
LJ          -5.13777        -3.96242         6.38988
LJ          -0.35783       -0.196624         1.33713
LJ         -0.977553        -1.03205         1.76774
LJ          -1.41783        0.210269        0.963079
LJ         -0.161734        -1.21384         1.01574
LJ           3.44053         2.58531         3.44128
LJ           3.41744        -6.39546        -1.67418
LJ          -1.67421        -6.39448         3.41675
LJ           4.36932         2.21185         4.36861
LJ          -2.05252       0.0178771         0.21837
LJ          -2.26744         1.60994      -0.0440379
LJ          -1.79724         1.24144         1.01538
LJ          -2.51307        0.224632         1.24614
LJ           2.57902         3.44748         3.44899
LJ           -6.3901         3.41413        -1.67465
LJ           2.22106         4.36488         4.36523
LJ          -6.39305        -1.67407         3.41651
LJ           3.86765         3.78843         3.83422
LJ           3.59009         3.55792      -0.0591209
LJ         -0.088727         3.60021            3.62
LJ           3.61819      -0.0208528         3.52182
