108
#Comment!
LJ           4.18158       -0.944769         1.45731
LJ          -1.16418         3.16156        -1.05864
LJ          0.465623        -2.08431         1.46188
LJ         -0.773662         1.99636        -1.75849
LJ          0.518708        0.749827         3.20238
LJ         0.0677744        -2.33835       -0.957194
LJ          0.244596        0.253206        -1.07368
LJ           1.50844        -1.58285        -1.43074
LJ           1.56057        -2.04363         2.71282
LJ          0.180734        -1.11952         2.14863
LJ        -0.0727719         1.65644         3.51104
LJ          0.389431        0.988629         1.49349
LJ         -0.403936       -0.646696       -0.356133
LJ           2.14156         4.48311       -0.935555
LJ          0.423645        -3.02707       -0.097555
LJ         -0.667029        -1.57261        0.257994
LJ          -6.37727        -1.40029        -5.19484
LJ          0.626224         1.35853         0.40131
LJ        -0.0824822         4.63662        -5.55478
LJ          0.631664       -0.650142         -1.2973
LJ          -1.35371        0.365601         4.23013
LJ          0.822127         1.55646        -2.20857
LJ           3.79086        0.366458       -0.652732
LJ          -3.27384        -1.72705        -1.81359
LJ           1.13215        -1.52037         5.45791
LJ          0.224591         2.13246         -1.4566
LJ         -0.739734       -0.259877        -1.54395
LJ         -0.561239         6.05725        -1.56733
LJ           2.10647         2.42156         1.84903
LJ          0.313518        -1.87068        0.395473
LJ           1.30682        -1.76975         3.91528
LJ           4.33231          1.7636         5.32948
LJ          0.426188        -3.71594        -1.42472
LJ          0.890441        -0.38584        -2.38863
LJ         -0.189911         2.00363        0.814297
LJ           2.58191          0.6918       -0.818234
LJ           1.68437        -1.40393       -0.241958
LJ           1.43386        -3.51352        -2.18982
LJ          0.929569        0.258849        0.503573
LJ            1.1275        0.574374        -1.73703
LJ          0.917108         1.86751       -0.477322
LJ         -0.969021        -1.06075         1.67339
LJ          0.405282         -2.5779        -2.01854
LJ         -0.275113        0.257834        0.532734
LJ           2.46399        -1.13389         3.16416
LJ           6.27897        -4.65523        -4.28116
LJ           3.47407       -0.324019         2.21743
LJ           2.92503        -1.33745         1.94947
LJ           1.18986        -1.39523        -2.64137
LJ          -1.87972         1.49178         1.86274
LJ           1.44063        0.914837         2.07152
LJ       -0.00430994         2.42989        -2.76086
LJ           2.30329        -5.57885        -2.46759
LJ          -0.46803           1.637         1.85204
LJ           2.44319       -0.585459         1.16809
LJ           2.65475       -0.552614        -0.11235
LJ           1.77389        0.147679       -0.419598
LJ           1.19996        -2.48014       -0.691281
LJ          0.555929       -0.655032         3.23894
LJ           4.09032      -0.0699787        0.617739
LJ           1.02655        0.913837       -0.716628
LJ          -4.17649         5.63501        -4.73101
LJ            2.0053       -0.659605         2.31771
LJ         -0.156951         3.08682        -1.87352
LJ           2.69258        0.515183        0.248895
LJ          0.880643       -0.447406       -0.293693
LJ          0.472357        -1.80089         2.80559
LJ           1.72542         1.81286        -1.18496
LJ           1.01644         3.00657        -2.79036
LJ          0.427668         1.52215         2.40769
LJ          0.713648         1.35934        -6.22179
LJ           2.05357         1.51135         2.75008
LJ          0.391573       -0.656545        0.553116
LJ           1.80362         1.57418        0.464232
LJ         -0.889541       -0.586176        0.690757
LJ          0.746212        -0.34471         1.49083
LJ           1.65301       -0.515466        0.450131
LJ         0.0222966         1.24337       -0.571973
LJ           1.82859       -0.975973         4.78447
LJ           1.35652        -1.17796         1.66634
LJ            1.7239       -0.531767         -1.5513
LJ          0.596924         -1.4692       -0.649964
LJ           1.93749        0.469395         1.08038
LJ           2.23596         -2.2265         1.61584
LJ          0.986511         2.06179         1.38543
LJ          -1.39234        0.341837        0.676863
LJ           -1.0697        -2.90017         1.41887
LJ        -0.0603726         1.14467        -1.75512
LJ          0.418619        0.108157         2.40283
LJ          -0.50585         -2.0068         2.01369
LJ        -0.0887006         2.82411       0.0202341
LJ         -0.998519          1.3881        0.541136
LJ          -0.76343         0.79184         3.47665
LJ            0.1512         -1.3689        -2.19956
LJ         -0.714494        -1.34064        -1.18737
LJ           1.03641         1.83715        -3.18457
LJ         -0.568772        0.393188       -0.578416
LJ          0.292648         2.69196         2.30163
LJ         -0.341802        -5.38432         3.32651
LJ           5.66047         2.85955        -5.97974
LJ         -0.531293         4.49009    -0.000285899
LJ         -0.276347       -0.128402        -2.52332
LJ            1.1344         2.63134        -1.85803
LJ          -5.55026       -0.274896        -3.55371
LJ          0.844374          2.9168       -0.692798
LJ          -1.00229        -3.45471        0.501871
LJ           1.34117        -1.93704        0.628871
LJ          0.103894        -2.71837         2.67863
