108
#Comment!
LJ           1.52724        -1.07741         0.92215
LJ           3.29163        -1.60945         2.70313
LJ           -1.9262       0.0620819         1.40582
LJ          -1.16098         4.45408        0.920502
LJ           2.65258        -1.59459       -0.443761
LJ            2.3541         1.79626        -1.72819
LJ           1.40307       -0.169751         1.73352
LJ           2.46664        0.795692        -0.18784
LJ           2.20144        -1.96172        0.437345
LJ          0.926094        -1.41306          -1.869
LJ         -0.778606         2.85933        0.801941
LJ           1.80506         1.80894         1.52236
LJ         -0.915542        -3.06509        0.263818
LJ           2.21759       -0.411621       -0.474947
LJ          -1.84616        0.463023         2.60618
LJ          0.761484         2.04018          2.2047
LJ          0.696986       -0.275288        -2.29848
LJ           0.17063         0.45018        0.514957
LJ          -0.53889         1.64523         2.20583
LJ         -0.843016       -0.720103       -0.835034
LJ          0.720263        -2.99115       -0.517262
LJ            1.0976       0.0196701       -0.345233
LJ           1.39063        0.494397        -2.43052
LJ            4.7957          5.4285        0.922027
LJ          -1.59411         5.31129         5.83769
LJ          -1.83338         2.83387        0.565059
LJ           -3.4746         4.69345       -0.128109
LJ          -2.21081         5.53222        -5.79013
LJ           1.27236         1.62499          3.1821
LJ          -5.23597         2.07647         2.91814
LJ          -0.74755       0.0991044         1.14811
LJ         -0.694592        -2.68131        -5.29502
LJ         -0.338227       -0.635456        -1.86735
LJ          0.185952         -1.2348       -0.752082
LJ          -1.27636         1.90687        0.648416
LJ         -0.234954        -2.28279       -0.105202
LJ          -1.38099        -2.10489       -0.458252
LJ          0.403886         1.01179        -2.10767
LJ          -1.53573         1.12449         1.60016
LJ           1.49498         1.03927        0.389718
LJ           1.99865      -0.0089494        0.633815
LJ           1.49779        -2.96809        0.393122
LJ          -1.51289        -1.07942      -0.0313154
LJ          -1.19824       -0.791573         1.04117
LJ          0.441369       -0.379327         2.32011
LJ           3.62135        -3.57192         1.71085
LJ          0.976708        -2.03705       0.0389895
LJ           3.30596      -0.0577056       -0.101048
LJ         -0.900922      -0.0466132       0.0227236
LJ          -2.42617         1.89355        0.980642
LJ          -1.66278       -0.594272         2.49123
LJ           -1.5851        0.783776       -0.491648
LJ         -0.872529        -3.48424         1.44334
LJ          -1.22464         1.84725       -0.764754
LJ          0.621737         1.39827         1.16308
LJ           2.55986         1.52287        0.540383
LJ           1.30081         -1.0721       -0.305572
LJ          0.118267      -0.0699651       -0.788841
LJ           1.30929        -2.07426        -1.10127
LJ           3.34483       -0.946794        -1.34012
LJ         -0.499335        0.861571        -1.61573
LJ          -3.45253         2.00077        -2.88215
LJ           -2.0108         -0.1006        0.036487
LJ          -1.68366      -0.0799723        -1.43609
LJ         -0.248783         2.10946       -0.347891
LJ          0.140049         1.72391         -1.3724
LJ        -0.0786284      -0.0891798         3.28121
LJ          0.947173         1.92415     -0.00490982
LJ          -6.10265        -4.40794         3.72177
LJ          -0.54402         1.16935        0.784497
LJ          -4.91095        -1.39948         5.21687
LJ           1.57347       -0.485808         2.73556
LJ          0.948514       -0.142547        0.718721
LJ          0.179901         2.40767        0.725578
LJ          -1.37953         2.13683         2.00921
LJ          0.452689         1.23596         3.82886
LJ          0.694752        -1.80495         1.16537
LJ        0.00747735       -0.599176        0.135263
LJ           1.60044        -4.47793         6.29782
LJ           2.16922         -2.0154         1.57662
LJ          0.547423        0.886045       -0.351525
LJ          0.958376       -0.523553        -1.17896
LJ         -0.199343        -0.90757         1.24868
LJ         0.0245335        0.717844         1.80889
LJ         -0.932573         1.24352         3.24518
LJ          -1.63481        0.719708        0.653573
LJ          0.209411         1.08811          2.7798
LJ           1.72862         2.97208        -2.33351
LJ         -0.805886         0.39389         2.43684
LJ         -0.530797        -1.31208         2.25661
LJ          -2.76267         2.76714         1.55366
LJ          0.279131         2.18891         3.12527
LJ           1.23757        -1.12636         2.09528
LJ           4.59855         3.80868         1.68709
LJ          -5.56459         6.42524        -6.09343
LJ          -3.31253        -6.34665        -1.15042
LJ         -0.478164        0.874406       -0.377195
LJ           1.96195         1.72499       -0.729402
LJ           2.24347        0.477081        -1.44276
LJ           3.38678        -1.38598        -5.15872
LJ           3.50507          2.9741         3.55411
LJ          -2.19137         2.14514       -0.416852
LJ           6.35995        -1.80584         3.82405
LJ          -5.17316        0.316777         4.52179
LJ            1.1669        0.704481        -1.27365
LJ          0.213733        -2.24829        -1.11316
LJ           1.37752        -4.19037         3.75269
LJ          -2.53517         6.16204        0.996667
