108
#Comment!
LJ           3.94855       -0.812009         1.18607
LJ          -1.54487         3.00435        -1.66277
LJ          0.525457        -1.85138         1.60076
LJ         -0.627349          2.4442        -1.62658
LJ          0.566374        0.579694         3.41133
LJ         0.0161092         -2.5913       -0.782129
LJ          0.436659        0.107738        -1.17025
LJ            1.7323        -1.56297        -1.09368
LJ           1.48161        -2.20771         2.49072
LJ          0.162409       -0.911992         1.86219
LJ          0.106603         1.47513         3.43707
LJ          0.467338        0.909485         1.10209
LJ        -0.0687318       -0.798054       -0.616348
LJ           2.09989         5.07825        -1.39356
LJ           0.60668        -3.18523       0.0470052
LJ         -0.585973        -1.92452        0.134343
LJ           6.16352        -1.49223        -5.49693
LJ           0.75638         1.54685        0.305132
LJ         -0.132287         4.71098        -5.21795
LJ          0.623522        -1.01317        -1.37248
LJ          -1.68691          0.3186         4.12555
LJ          0.814937         1.54256        -2.11582
LJ            3.5855        0.169179       -0.552375
LJ          -2.97958        -1.98082        -1.70297
LJ          0.825078       -0.820768         5.27491
LJ          0.198202         1.83353        -1.21425
LJ         -0.831059       0.0586867        -1.72865
LJ            -1.336         5.97754        -1.61619
LJ           2.14623         2.39505         1.85427
LJ          0.499573        -2.29349        0.509208
LJ            1.7206        -1.60188         4.24023
LJ           4.26134          1.3705         4.92649
LJ          0.781947        -3.75028        -1.54734
LJ          0.937639       -0.326787        -2.25351
LJ         -0.118586         2.08913        0.902942
LJ           2.68611        0.741593       -0.840417
LJ           1.45802        -1.27968        0.367694
LJ           1.29845        -3.60731        -2.51816
LJ          0.905398         0.46862        0.168152
LJ           1.28894        0.675691        -1.96934
LJ          0.944442         2.40478       -0.486152
LJ         -0.918022         -1.2612         1.75507
LJ          0.721401        -1.99188        -1.64671
LJ         -0.296746        0.374763        0.511494
LJ           2.32475        -1.10563         3.32709
LJ            5.9418        -4.67405        -4.06843
LJ           3.49025       -0.495434         2.08878
LJ           2.95634        -1.60211         2.34381
LJ           1.58354        -1.14342         -2.6873
LJ          -1.63061         1.60824          1.5548
LJ           1.22651        0.705142         2.00151
LJ          0.143207         2.49257        -2.32088
LJ           1.90405        -5.74759        -2.55728
LJ         -0.246809         1.39278         1.80473
LJ           2.55458       -0.607386         1.27302
LJ           2.23361       -0.886851       -0.361749
LJ           1.83714        0.246751       -0.252428
LJ           1.12579         -2.5729       -0.707146
LJ           0.76122       -0.460343         3.34407
LJ           4.24189        0.233775        0.884054
LJ          0.804209         1.04952       -0.695764
LJ          -4.61751         5.74896        -4.78277
LJ           1.54793       -0.325435         2.58653
LJ        -0.0230969         3.64436        -1.75205
LJ           2.78194       0.0526288        0.303747
LJ          0.976096       -0.456514       -0.486233
LJ           1.16528        -1.41014         3.12336
LJ            1.3715         1.65779        -1.28426
LJ           1.06858         3.04599        -3.07948
LJ          0.804581         1.58464         2.49747
LJ          0.985686         1.49965         -6.1352
LJ           1.89283         1.29328         2.65617
LJ           0.48579        -1.19364         0.43544
LJ           1.53098         1.20879         1.11721
LJ         -0.497959       -0.701265        0.896658
LJ          0.498495        -0.28227         1.15864
LJ           1.43716       -0.259106        0.748623
LJ         -0.149081         1.39408       -0.240573
LJ           2.23026        -1.10081         5.03162
LJ           1.33028        -1.02764         1.51503
LJ           1.84912       -0.206146        -1.71884
LJ          0.661084        -1.67485       -0.530334
LJ           2.11805        0.394128         1.30833
LJ           2.41531        -2.22212         1.63978
LJ          0.885115         1.91672         1.34767
LJ          -1.53578        0.152493        0.918431
LJ          -1.03475        -2.85987         1.56533
LJ         -0.346576         1.08529        -1.78955
LJ          0.465695         0.11901         2.32356
LJ         -0.344519        -2.10573         2.29419
LJ         0.0918739         2.73396       0.0346533
LJ         -0.771243         1.27771        0.847059
LJ         -0.690897         0.73378          2.9037
LJ          0.146889        -1.21661         -2.3612
LJ         -0.272252        -1.54144         -1.3902
LJ           1.10571         1.69227        -3.79351
LJ         -0.616944        0.244566       -0.484235
LJ          0.303868         2.70433         1.81735
LJ         -0.723579         -5.5702         3.58984
LJ           5.56546         3.12722        -6.10067
LJ         -0.778992         4.43581       -0.111216
LJ         -0.172839      -0.0365173        -2.54151
LJ           1.06123         2.63695        -1.70361
LJ          -6.18043        -0.26649        -3.30664
LJ          0.447204          3.2039       -0.841727
LJ          -1.26911        -3.20461        0.327986
LJ           1.42916        -2.15644         1.08215
LJ          0.502768        -2.75247         2.26753
