108
#Comment!
LJ           3.76685       -0.699366        0.550931
LJ          -2.74985         2.71348        -5.09324
LJ           1.19405        -2.02621         2.56571
LJ          -1.78229         2.61777        0.156532
LJ         -0.643644       -0.271724          2.0987
LJ           1.33091        -2.87688        -0.53264
LJ          0.666051      -0.0896156        -1.07949
LJ            2.9498         -2.6068       -0.472772
LJ           1.96495       -0.992014         1.78154
LJ         -0.935979        -2.83243         2.78432
LJ          0.499885         1.20498         3.19552
LJ          0.511395        0.474209      -0.0575855
LJ          0.539516        -1.42605        0.419354
LJ           2.56656        -4.15824        -4.28692
LJ           2.13643        -2.97553        -1.33302
LJ          0.469441        -2.42146        0.782996
LJ           3.22734        -2.10877         5.23153
LJ            1.2328         1.39314      -0.0174043
LJ         -0.404258         5.20581        -2.67967
LJ           2.21157        -1.89057       -0.372866
LJ          -2.36001          0.4552         2.06985
LJ           1.84663         3.48805        -1.79133
LJ           2.27748        -0.14348        0.442593
LJ         -0.205631        -3.35166       -0.625803
LJ          0.727857         2.02236         1.80926
LJ         -0.195587         2.38411       -0.957509
LJ          -1.16809         1.02301       -0.937152
LJ           6.26659         5.26163        -1.89246
LJ           3.69122         1.37336          1.9534
LJ           1.45952        -2.68722         1.28246
LJ           1.20325       -0.777077         5.42106
LJ            4.8747       -0.811914         1.93415
LJ           1.42193        -2.11432         -1.2259
LJ          0.382442       -0.748342        -1.80757
LJ          0.288235          1.7016      -0.0738674
LJ           2.96736       -0.123718       -0.613027
LJ           2.52165        -1.78259        0.878281
LJ          0.231953        -1.72186         -1.1658
LJ          0.911256       -0.444268       0.0179298
LJ           1.48056        0.312568       -0.497352
LJ           2.18821         1.81368       -0.433277
LJ         -0.413886        -2.10505         1.83439
LJ          0.973066        -1.53354        -0.56778
LJ         -0.147366       -0.299679        0.235261
LJ           1.67535         1.26434         3.45495
LJ           3.49346        -4.80705        -2.60997
LJ           3.21353         0.27407         1.80096
LJ           2.06259        -1.08962         3.16555
LJ           2.59413        -1.14545        -1.10652
LJ         -0.367706         1.98427        0.692332
LJ            2.3091          1.0127         1.27047
LJ         0.0164821         4.21707        -2.19868
LJ          -1.70212         6.07407        -3.39344
LJ         0.0584257        0.298855         1.35578
LJ            2.0809        -2.10966         1.84987
LJ           3.11206        -1.16473       -0.269271
LJ           2.33755        0.799913         -0.1483
LJ           3.91371        -1.97301         -1.2244
LJ             1.125       -0.837966         3.29584
LJ           3.72632        0.337409        0.750049
LJ           0.61164        0.868174         -1.3366
LJ           5.20288        -6.38701        -5.14921
LJ           0.15628        -1.25362         2.38683
LJ         -0.843867         4.84342        -1.74059
LJ           1.52048         1.62601         1.06119
LJ           1.67926        -1.16111        0.698997
LJ           1.37083        -3.21231         2.74728
LJ          0.828932         2.06772        -1.03624
LJ          0.810777         2.25905        -2.23559
LJ           2.27553         1.42595         2.46372
LJ           2.17956         1.14619        -4.71537
LJ         -0.176229        0.195218         2.86016
LJ           1.02932         -1.6549         1.38042
LJ           1.47635         0.55487        0.560878
LJ         -0.300666       -0.932527         1.34042
LJ          0.940901       -0.664284         1.28002
LJ           2.09508     -0.00262325         1.45201
LJ         -0.999516         1.79513       -0.319359
LJ           3.63271       -0.794071         4.71038
LJ          0.768673        -0.20891         2.23376
LJ           2.07121       -0.759269       -0.315255
LJ           1.37629        -2.18308        0.296638
LJ           1.74481        0.524652         2.41915
LJ           3.23276       -0.977502         1.54746
LJ          0.751267         2.43727        0.747173
LJ          -1.02771       -0.309733        0.779145
LJ          -0.84269        -1.14275        0.236697
LJ         -0.364831          1.2536        -1.59714
LJ           1.05517        0.680982         1.57298
LJ          0.489136        -2.85997          2.3613
LJ          0.810611         3.07067       -0.231925
LJ          0.454586         1.21084         1.01783
LJ        -0.0409809         1.12216         2.23642
LJ         0.0837765        -0.90572       -0.682825
LJ          0.455583        -2.38188       -0.262789
LJ           1.91117        0.937187         5.07634
LJ         -0.281981        0.339259       -0.856598
LJ         -0.483843         2.84966      -0.0376882
LJ          -3.39083         6.07391         5.42147
LJ           4.90195           5.005         5.98229
LJ          -1.37684         3.16621       -0.868589
LJ         -0.409144       -0.136475        -1.93108
LJ          0.857821         3.06848        -1.44513
LJ           2.43917        -0.13791        -1.52399
LJ         -0.482787         3.67403        -1.03018
LJ            -1.603        -1.44253         2.08281
LJ           4.38163        -3.81988       -0.445593
LJ           2.20788        -2.96408         0.43456
