108
#Comment!
LJ          -1.84112        -2.25795        0.145299
LJ           -4.8807        -6.26444         2.48299
LJ           4.95088         4.96389        -3.95592
LJ           4.67431         6.11668        -3.37891
LJ           2.40857        -1.97349        -1.02176
LJ         -0.258789         1.46358        -1.77949
LJ          0.936823        -2.06584       -0.388988
LJ          0.690924        -3.14128       0.0863411
LJ          0.536033        -3.02795       -0.925462
LJ           1.68988         1.15209       -0.364544
LJ           2.86928         2.26892         2.21479
LJ           1.13185        -1.69419         2.25349
LJ          -1.08768       -0.981065        -1.48858
LJ          0.551619         3.21638            -1.9
LJ         -0.646929         1.34314         0.23911
LJ         -0.794632         2.19278        -1.14966
LJ          -1.90543        0.729526        -1.56859
LJ          0.517503       -0.284823      -0.0478144
LJ          -1.35121         2.17414       -0.101459
LJ         -0.469059       -0.201375        -1.06596
LJ           1.33252        0.254795        -1.30332
LJ            1.2522        -1.26241        -1.13786
LJ          0.465578       -0.581046        -2.03498
LJ           2.58363        0.683302         1.94384
LJ          -1.00608         3.86955         2.52286
LJ          0.338114         2.90222        -2.95847
LJ            1.6288         2.58505        -1.28116
LJ           2.27968          1.7022         3.11283
LJ         -0.652702          2.4795        -2.32416
LJ         -0.476455         3.08926        -1.50584
LJ          0.609043         1.87139         3.41298
LJ          0.225086        0.477591        -1.48509
LJ          0.738707          2.1141        -2.06833
LJ           1.08835        0.494669        -2.38053
LJ            -0.109         1.41857       -0.754765
LJ          -1.03411        0.271318        -1.87807
LJ          -1.34062        -2.01908       -0.712111
LJ          -2.46956       -0.347222          1.1864
LJ          -1.59772         1.02847         1.05483
LJ          0.473971        -2.63378          1.1241
LJ          -1.25327        -1.16149       -0.166063
LJ         -0.701741        -2.76351       -0.334594
LJ           -2.1288        -1.39117        0.611509
LJ         -0.623075       -0.366899         0.18292
LJ        -0.0653123        -3.41238         0.76935
LJ          -6.33763       -0.136489        -0.99483
LJ         -0.356612         -1.8548       -0.528957
LJ           1.75717        -2.84972       0.0757538
LJ          -1.60366        0.331405       -0.594733
LJ          -1.17844         1.17402       -0.947504
LJ        -0.0875322       -0.470108           1.144
LJ          -2.55261        0.129278        -1.00022
LJ          0.284323        -1.07958        -1.06245
LJ            1.0265          1.4003        -1.29491
LJ          0.955842       0.0508239        0.848135
LJ          0.836455       -0.918398         1.52036
LJ           1.10789        -1.07326        0.301121
LJ          0.661639        0.681523       -0.579498
LJ           1.48115      -0.0197833       -0.237449
LJ           1.37876        -1.95143        0.879427
LJ           -2.0908       -0.526605        -1.77656
LJ           4.32728         4.95676         2.95348
LJ          -1.70162         1.20636       0.0807049
LJ          -2.22817       -0.807719        -0.52753
LJ          0.343325         1.23459        0.226193
LJ         -0.331294        0.512903       -0.172389
LJ         -0.613729        0.513367        0.939126
LJ          0.498205         2.39039       -0.939206
LJ           3.13072         6.03008         4.23984
LJ           2.61093         2.65831         3.21567
LJ          -4.87388         1.45745        -6.33423
LJ           0.09701        -5.22756        -5.76068
LJ         -0.324071        -2.15246        0.517293
LJ           3.03308         1.73425         1.31436
LJ         -0.557589         0.80911         1.95924
LJ           0.69879        0.136719         1.92772
LJ          -1.19218        -2.92756        0.776584
LJ          -1.00734        -1.31018         1.08721
LJ           0.69763         3.95319         4.28841
LJ          -2.88034         -2.2095         1.96174
LJ         0.0704523        -1.21252        0.207916
LJ           1.90366          -1.813       -0.109013
LJ         -0.739406        -2.31768         1.52103
LJ         0.0797943        -1.55957         1.28913
LJ          -2.45829        0.431572        0.530008
LJ          -1.67769       -0.259903        0.439701
LJ         0.0244806        -3.35989         1.87404
LJ          -4.82437        0.266426         3.72784
LJ         -0.188721       -0.653502         2.18782
LJ         -0.677337        -1.55333         2.23569
LJ          -2.61943         1.56936        0.916306
LJ          0.703589        -1.68763         3.33828
LJ          0.186374        -2.26557         2.26443
LJ          0.808391         6.39341        -5.98677
LJ          -5.59221        -6.40916         1.25477
LJ          -5.90637          2.3458         -5.5224
LJ          -1.42767       0.0208043         1.46083
LJ         -0.466758         2.66966       -0.122952
LJ          0.957013         2.11032        0.424528
LJ           1.42629        -3.56726       -0.525827
LJ           5.19702         4.24119         3.12139
LJ          -5.96733         2.04681        -3.72344
LJ          0.823258         4.87257         2.85179
LJ            5.4578        -5.52443          3.0365
LJ           2.21555         2.90787         4.48052
LJ          -2.90208       -0.610915        0.295894
LJ           3.48796        0.612658        -4.93949
LJ           3.35415         2.81843        0.548379
