108
#Comment!
LJ            -2.742        -2.67683         -2.7196
LJ          -1.81105        -1.79297        -4.67138
LJ          -4.63901         -1.7283        -1.75785
LJ          -1.78926        -4.69428        -1.80152
LJ         -0.263487        -2.85309        -2.30087
LJ           1.13367       -0.738957        -3.11958
LJ          0.510213        -1.07899        -1.15226
LJ           1.09914        -2.93206       -0.654144
LJ           1.14822        -2.13704        -2.17828
LJ            1.8535        0.462361       -0.507144
LJ           5.93292         4.93041         4.92206
LJ           1.65957       -0.787678         0.55176
LJ          -1.97431        -1.08079        -2.31916
LJ         -0.439109         1.26196        -2.78943
LJ          -2.74636        0.797286       -0.690992
LJ          -1.28085        0.693428        -1.18855
LJ          -0.72114       -0.661471        -2.78781
LJ            0.1213        0.186952       -0.592433
LJ          -1.61532        0.495137        -2.66753
LJ          0.114793        -1.64062        -2.21041
LJ           1.92838        -1.30595        -2.93553
LJ           1.19368        -1.06233        -2.04829
LJ         -0.377118       -0.745598          -1.767
LJ            6.2489        -3.86703         -4.9827
LJ          -2.09849         1.61978        -2.43531
LJ          0.559772         1.75216       -0.830709
LJ         -0.697322         1.96155        0.607234
LJ           4.95577         5.93899         4.95619
LJ          -1.26639         1.82052        -3.09804
LJ           -1.1491         1.39131        -1.94885
LJ          -3.86739         6.24945        -4.98281
LJ         -0.580802        0.265583        -2.05291
LJ          0.163209        0.045169        -2.98221
LJ          0.470493        0.757692        -2.04493
LJ        -0.0149205         1.75396        -1.91578
LJ           1.36351        0.124384        -2.27476
LJ          -2.03732        -2.64532       -0.559714
LJ          -1.23002        -1.14844        0.655204
LJ          -2.91926       -0.855089        0.709469
LJ         -0.498177        -2.83907         1.10524
LJ         -0.864698        -2.82763       -0.829858
LJ          0.455383        -2.24865        -1.32025
LJ             -1.48        -2.66321        0.359074
LJ          0.174011       -0.453139        0.347296
LJ           2.02018        -3.02747        -1.44811
LJ           6.24908        -4.98301        -3.86773
LJ         -0.403718        -1.88735       -0.761551
LJ           1.40644        -1.96007       -0.905524
LJ          -2.95451       -0.482048       -0.473858
LJ          -2.45426        0.649925        -1.77573
LJ         -0.785012       0.0368562       0.0905623
LJ          -2.31151         -1.6498        0.426576
LJ         -0.789156       -0.614477       -0.789618
LJ          0.900902        0.883585      -0.0492284
LJ         0.0443357        0.670955        0.700969
LJ           0.98887        0.130177        0.921144
LJ           1.03408       -0.339941       -0.309073
LJ          0.982124      0.00533134        -1.30435
LJ           1.64609       -0.998499       -0.957046
LJ          0.760252        -1.44259       -0.150461
LJ          -3.17349         2.11113        -1.28415
LJ          -4.98266         6.24906        -3.86717
LJ          -2.02097         1.48063        -1.10267
LJ          -2.10183      -0.0470674       -0.826474
LJ         -0.225393         1.18724       -0.270277
LJ          -0.12302        0.924285        -1.23423
LJ          -1.26542        0.959446      -0.0317271
LJ         -0.827062          1.7489       -0.981788
LJ            3.3437         3.34548         2.56697
LJ           4.26146         4.26131         2.07112
LJ          -1.55535         3.36011        -6.25406
LJ            3.3596        -1.55529        -6.25433
LJ          -2.18351        -2.30014         1.31455
LJ           4.93118         4.93996         5.94088
LJ         -0.398737        0.683867         1.76387
LJ          0.584617       -0.910024         1.71593
LJ          -1.40214        -3.06338         1.96531
LJ         -0.476716        -2.14076        0.187202
LJ          -3.86775         -4.9831         6.24953
LJ          -1.06085        -2.06263         1.46389
LJ          0.158518        -2.98168      -0.0323169
LJ           1.61499        -2.08326         0.19807
LJ          0.171556        -2.03111         1.67892
LJ          0.452698        -2.09137        0.605888
LJ          -2.96911         -1.3585         2.10233
LJ          -1.93827        -1.03745       -0.429208
LJ          -2.02065        -1.07719         1.39956
LJ          -4.98252        -3.86698          6.2487
LJ         -0.342687       -0.271759         1.21736
LJ         -0.880956        -1.05684         1.75316
LJ          -1.29915       0.0400636         1.07188
LJ         -0.150955        -1.32345        0.938982
LJ           3.34052         2.56954         3.34053
LJ           3.36087        -6.25567        -1.55563
LJ          -1.55566        -6.25477         3.36022
LJ           4.26417         2.06402         4.26369
LJ          -2.35344      0.00389458        0.180932
LJ          -2.23199         1.66074       0.0112783
LJ          -2.05314         1.11998        0.957004
LJ          -2.34792        0.128746         1.26143
LJ           2.56738         3.34517         3.34328
LJ          -6.25068         3.35774        -1.55607
LJ           2.07112         4.26194         4.26231
LJ          -6.25335        -1.55552         3.35995
LJ           4.39826         4.35663         4.38073
LJ           3.43271         3.40306        -0.15637
LJ         -0.183949          3.4413          3.4595
LJ           3.45839         -0.1213         3.36969
