108
#Comment!
LJ           1.19488        -1.26812        0.886863
LJ           3.14486         -1.5576         2.86244
LJ           -2.3267        0.231313         1.03223
LJ         -0.949667         5.44349        0.171602
LJ           1.82185        -1.72547       0.0539876
LJ           2.12739          1.6179        -1.63614
LJ           1.58554       -0.174551          1.4334
LJ           2.52826        0.346834        0.361743
LJ           2.27817         -1.5964         1.11858
LJ         -0.097471        -1.19435        -1.96989
LJ         -0.982855         2.86576       0.0831055
LJ           1.83248         1.75408         1.28723
LJ         -0.757874        -3.23829       -0.243758
LJ           2.19768       -0.377507        -1.13101
LJ          -2.46844        0.954179         2.53432
LJ          0.447225         1.60488         1.98103
LJ          0.652034      -0.0524185        -2.70486
LJ         0.0037582       0.0144182        0.632331
LJ         -0.597402         1.57231         1.76377
LJ         -0.674153       -0.682449       -0.595078
LJ           1.02291        -2.40836       -0.854279
LJ           1.51311       0.0622761       -0.442598
LJ           1.41192          1.1254        -2.24997
LJ           4.26725         5.52736        0.164405
LJ         -0.469138         4.19166        -6.45203
LJ          -1.98756         2.82188        0.826967
LJ          -3.43405         4.30761       0.0620151
LJ          -2.80363          5.0895        -5.19966
LJ           1.28458          1.4673         2.52695
LJ          -5.89606         2.69457         3.54898
LJ          -1.25181        0.124283         1.12266
LJ         -0.136242        -2.15938        -4.30669
LJ        -0.0882365       -0.148768        -1.52832
LJ          0.134913        -1.38635       -0.870994
LJ         -0.977312         1.68128        0.559631
LJ        -0.0269011         -2.5572       -0.494622
LJ          -1.23087        -2.20466        -0.37675
LJ          0.254195         1.05318        -2.07469
LJ          -1.50657         1.01108          1.6907
LJ           1.63583        0.804791          0.6511
LJ           2.03365       -0.625313        0.345874
LJ           1.05188        -2.39993         1.01061
LJ          -1.37525        -1.23377        0.066261
LJ         -0.950591       -0.896701         1.00336
LJ          0.389329       -0.481879         2.50525
LJ           4.15909        -3.27006         1.14082
LJ          0.648243        -1.89234     -0.00143633
LJ           2.96091       -0.398233       -0.375633
LJ          -0.90217        -0.13707        0.150734
LJ          -2.40761         1.49252         0.91835
LJ           -1.0296       -0.488722         2.12994
LJ          -1.49757         1.31684       -0.547918
LJ         -0.764677        -3.76966        0.896289
LJ          -0.71543         1.90967        -0.54173
LJ          0.871838         1.46033        0.777151
LJ           2.22125         1.41411       0.0337275
LJ            1.0321       -0.903414       -0.175647
LJ          0.237464       -0.299016       -0.408547
LJ           1.34165        -1.44061        -1.24905
LJ           3.09152       -0.721436        -1.80693
LJ          -1.13951        0.379468       -0.976597
LJ           -2.5365         1.74865        -2.72194
LJ           -1.9757       0.0250089       -0.403475
LJ          -1.12815       -0.870241         -1.5591
LJ        0.00297669         1.85853        0.232744
LJ         -0.155303        0.887142        -1.01114
LJ         -0.417664        0.462854         3.49569
LJ          0.898835         2.39687      -0.0105469
LJ           6.16945        -4.70534          2.6516
LJ        -0.0740608        0.947817         1.06722
LJ          -4.74543       0.0645367         5.15543
LJ           1.79913        0.462377          2.5338
LJ          0.974624        -0.11533        0.471016
LJ         -0.165335         2.59364         1.63629
LJ          -1.41945         2.29043         1.60505
LJ         -0.246787         1.63785         4.03523
LJ          0.279012        -1.56919         1.17356
LJ        -0.0767444        -1.02019        0.195259
LJ           1.77974        -3.80672        -6.41915
LJ           2.24082        -2.15543         2.12826
LJ          0.530527        0.860701      -0.0260443
LJ            1.1465       -0.421579        -1.40836
LJ           0.60256       -0.548309         1.37945
LJ          0.760733        0.579211         1.55451
LJ         -0.793871         1.75669          2.8065
LJ          -1.72558        0.782113        0.397891
LJ           0.30306         1.21051         3.22343
LJ           2.22493         2.81792        -2.29854
LJ        -0.0683644        0.700052         2.20281
LJ         -0.876637        -1.68237         1.84384
LJ          -2.56565         2.05745         2.16126
LJ          0.865456          2.0413         3.65038
LJ           1.35437        -1.37123         2.17578
LJ           5.49289         3.29041         2.42995
LJ          -5.91336        -5.64283        -4.97301
LJ          -4.14571         5.88262        -1.39832
LJ          -0.72668        0.847365        -0.05893
LJ           1.47618         1.50098       -0.653221
LJ           2.08007         0.70001        -1.15461
LJ           3.21351        -1.61502        -5.11098
LJ           3.62945          2.9868         4.41365
LJ          -1.94307         2.23202       -0.295795
LJ          -5.71926        -2.46134         4.47717
LJ          -5.56937        0.391091         4.36575
LJ          0.919764        0.609356        -1.21986
LJ          -0.43782        -2.07398        -1.46097
LJ           2.40278        -5.67256          2.9635
LJ          -3.18994        -6.15094        -1.04604
