108
#Comment!
LJ          -2.58255        -2.58255        -2.58255
LJ          -1.60999        -1.60999        -3.14464
LJ          -3.14464        -1.60999        -1.60999
LJ          -1.60999        -3.14464        -1.60999
LJ          -1.13587        -2.69152        -2.69152
LJ          -1.59818        -2.85006        -3.64611
LJ         -0.402649        -1.51697        -1.51697
LJ          -1.59818        -3.64611        -2.85006
LJ          0.514316        -1.90991        -1.90991
LJ           2.17726       -0.734533        -2.46125
LJ            3.3818        -6.00317        -6.00317
LJ           2.17726        -2.46125       -0.734533
LJ          -2.69152        -1.13587        -2.69152
LJ          -2.85006        -1.59818        -3.64611
LJ          -3.64611        -1.59818        -2.85006
LJ          -1.51697       -0.402648        -1.51697
LJ         -0.710816       -0.710816        -2.16808
LJ         0.0246244       0.0246244        -1.34332
LJ           -1.2351       -0.161794        -3.01996
LJ         -0.161794         -1.2351        -3.01996
LJ           1.73326        0.359404        -3.68352
LJ            1.4558        0.669416        -2.73775
LJ          0.416813       -0.834616        -1.93435
LJ           2.47488        0.620743        -2.74717
LJ          -1.90991        0.514316        -1.90991
LJ         -0.734533         2.17726        -2.46125
LJ          -2.46125         2.17726       -0.734533
LJ          -6.00317          3.3818        -6.00317
LJ          0.359404         1.73326        -3.68352
LJ          0.669416          1.4558        -2.73775
LJ          0.620743         2.47488        -2.74717
LJ         -0.834616        0.416813        -1.93435
LJ         -0.221186       -0.221186        -3.26147
LJ          0.242438        0.242438        -2.31248
LJ          0.758307         2.12331       -0.742357
LJ           2.12331        0.758306       -0.742357
LJ          -2.69152        -2.69152        -1.13587
LJ          -1.51697        -1.51697       -0.402648
LJ          -3.64611        -2.85006        -1.59818
LJ          -2.85006        -3.64611        -1.59818
LJ         -0.710816        -2.16808       -0.710816
LJ         -0.161794        -3.01996         -1.2351
LJ           -1.2351        -3.01996       -0.161794
LJ         0.0246244        -1.34332       0.0246244
LJ           1.73326        -3.68352        0.359404
LJ           2.47488        -2.74717        0.620743
LJ          0.416813        -1.93435       -0.834616
LJ            1.4558        -2.73775        0.669416
LJ          -2.16808       -0.710816       -0.710816
LJ          -3.01996       -0.161794         -1.2351
LJ          -1.34332       0.0246243       0.0246244
LJ          -3.01996         -1.2351       -0.161794
LJ         -0.662191       -0.662191       -0.662191
LJ          0.387344        0.387344       -0.428441
LJ         -0.428441        0.387344        0.387344
LJ          0.387344       -0.428441        0.387344
LJ          0.554289       -0.858261       -0.858261
LJ           1.20532      -0.0511912        -1.63701
LJ           1.32416       0.0118244       0.0118244
LJ           1.20532        -1.63701      -0.0511912
LJ          -3.68352         1.73326        0.359404
LJ          -2.74717         2.47488        0.620743
LJ          -2.73775          1.4558        0.669416
LJ          -1.93435        0.416813       -0.834616
LJ         -0.858261        0.554289       -0.858261
LJ        -0.0511912         1.20532        -1.63701
LJ          -1.63701         1.20532      -0.0511912
LJ         0.0118244         1.32416       0.0118244
LJ           1.15242         1.15242       -0.285243
LJ           1.03697         1.03697        -1.56228
LJ           1.89792         2.78026        -1.20623
LJ           2.78026         1.89792        -1.20623
LJ          -1.90991        -1.90991        0.514316
LJ          -6.00317        -6.00317          3.3818
LJ          -2.46125       -0.734533         2.17726
LJ         -0.734533        -2.46125         2.17726
LJ          0.359404        -3.68352         1.73326
LJ         -0.834616        -1.93435        0.416813
LJ          0.620743        -2.74717         2.47488
LJ          0.669416        -2.73775          1.4558
LJ         -0.221185        -3.26147       -0.221186
LJ           2.12331       -0.742357        0.758306
LJ          0.758307       -0.742357         2.12331
LJ          0.242438        -2.31248        0.242438
LJ          -3.68352        0.359404         1.73326
LJ          -1.93435       -0.834616        0.416813
LJ          -2.73775        0.669416          1.4558
LJ          -2.74717        0.620743         2.47488
LJ         -0.858261       -0.858261         0.55429
LJ         0.0118244       0.0118244         1.32416
LJ          -1.63701      -0.0511912         1.20532
LJ        -0.0511912        -1.63701         1.20532
LJ           1.15242       -0.285243         1.15242
LJ           2.78026        -1.20623         1.89792
LJ           1.89792        -1.20623         2.78026
LJ           1.03697        -1.56228         1.03697
LJ          -3.26147       -0.221186       -0.221186
LJ         -0.742357         2.12331        0.758306
LJ          -2.31248        0.242438        0.242438
LJ         -0.742357        0.758306         2.12331
LJ         -0.285243         1.15242         1.15242
LJ          -1.20623         2.78026         1.89792
LJ          -1.56228         1.03697         1.03697
LJ          -1.20623         1.89792         2.78026
LJ           2.17597         2.17597         2.17597
LJ           2.02714         2.02714       -0.335996
LJ         -0.335996         2.02714         2.02714
LJ           2.02714       -0.335996         2.02714
