108
#Comment!
LJ           4.00829       -0.347574         1.52174
LJ          0.396867          3.6785         -1.5768
LJ          0.647452        -1.80149         1.37829
LJ         -0.634949        0.765954        -1.81428
LJ          0.823125          1.0573         3.01638
LJ          0.192296        -2.06261        -1.71438
LJ          0.640889        0.752376        -1.68607
LJ          0.524617       -0.854699        -2.06974
LJ           1.28203        -1.22241         2.90569
LJ          0.742917       -0.597107          1.7641
LJ        -0.0373771          2.2095         2.81365
LJ          0.335085         0.45023         1.58865
LJ         -0.954831       -0.849019       -0.356901
LJ           2.65902         2.68368        0.134633
LJ         -0.697692        -2.65971      -0.0629084
LJ          -1.15799        -1.66192        0.341841
LJ          -4.86738        -0.92212        -4.07366
LJ           1.00459        0.864758        0.333761
LJ         0.0823605         4.38414         6.27207
LJ         -0.183347       -0.646073        -1.25706
LJ         -0.702023       0.0968136         5.22525
LJ           1.19905         1.63954        -1.36443
LJ           3.77069        0.776664       -0.631343
LJ          -4.20154       -0.873224        -2.18469
LJ           2.06528        -3.70294         5.50229
LJ        -0.0676388         1.74145        -1.33587
LJ          -1.68595       -0.794377        -1.32397
LJ           1.99362         6.25332        -1.37184
LJ           1.99124          1.8152          1.6368
LJ         0.0331175        -1.85492        0.151722
LJ         -0.681764        -1.91789         2.98342
LJ           4.71221          3.0469        -6.15183
LJ         -0.068537        -4.35737        -0.56533
LJ           1.55612       0.0675711        -2.10128
LJ         0.0717522         1.18365        0.551585
LJ           2.01797        0.151387        -1.21816
LJ           1.86693        -1.34904       -0.695367
LJ          0.875615        -2.89077       -0.604033
LJ          0.623441      -0.0550574        0.688725
LJ           1.82771         1.08784        -1.94888
LJ          0.899306         1.74769       -0.171838
LJ         -0.600165      -0.0793157         1.97065
LJ         -0.846293        -2.74477        -2.80053
LJ         -0.314074        0.296524        0.263387
LJ            3.4457        -1.13495           2.238
LJ          -5.53833        -4.59067         -4.9805
LJ            2.5956       -0.710382         1.60131
LJ           3.20728         -1.5054         1.06102
LJ        -0.0209631         -1.5721        -2.72134
LJ          -1.07166        0.821222         2.09897
LJ           1.40956         1.01176         2.03288
LJ          -0.25306          1.7645        -2.40299
LJ           3.58123        -4.98731        -2.15669
LJ       -0.00669551         1.83401         1.61716
LJ           1.68434       -0.337873         1.22283
LJ           3.39787     -0.00719765        0.444647
LJ           1.38705       -0.232573      -0.0289366
LJ          0.697077        -1.73903       -0.816494
LJ         0.0664461        -1.07806         2.97537
LJ           4.26414        -1.01429        0.636051
LJ           1.30185        0.742674       -0.691934
LJ          -2.72782         5.26138        -4.56103
LJ           2.18905       -0.497905         2.63664
LJ          -1.42186         2.12201        -2.26799
LJ           2.59765        0.597131      -0.0543009
LJ          0.565301       0.0383101       -0.770609
LJ          0.319598        -2.22638         2.44164
LJ           2.55796         1.16795         -1.1645
LJ          0.424237         4.41353          -2.286
LJ        -0.0751075         1.11188         2.35327
LJ         -0.198181        0.877963         6.38376
LJ           1.47593         1.89255         2.94512
LJ         -0.419446         -0.9926         1.17923
LJ           1.51471         2.19078        0.728096
LJ          -1.26052       -0.078131         0.84685
LJ           1.31094      0.00957164         2.36557
LJ          0.990735        -1.03211        0.665168
LJ          0.141276         1.01756       -0.641482
LJ          0.577638       -0.178333          4.0733
LJ           1.62249        -1.74366         1.91431
LJ           1.24707       -0.556828        -1.13649
LJ          0.284701       -0.712072      -0.0584482
LJ           1.77353        0.781761         1.01764
LJ           1.98052        -1.39603        0.933073
LJ          0.833502         1.49759         1.17185
LJ          -1.17114         0.94176        0.609357
LJ         -0.731677        -2.42118        0.928721
LJ          0.231032        0.811419        -2.88808
LJ          0.274978      -0.0117765         2.48244
LJ          -0.34892        -1.57757         2.03836
LJ         -0.225575         2.06765       -0.192508
LJ         -0.749383         3.31089        0.473498
LJ         -0.103646         0.32028          3.5084
LJ         -0.700189        -1.41805        -1.87675
LJ         -0.519119        -1.78033       -0.883155
LJ           1.09514         1.56606        -2.44463
LJ          -0.74813        0.306535       -0.669723
LJ         -0.169553         3.20802         2.53192
LJ          0.896359        -4.70316         2.43625
LJ           5.82118         1.98398        -5.70743
LJ           0.44099         3.98177        0.267683
LJ         -0.328432       -0.256784        -2.32144
LJ           1.30543         3.42792        -1.06685
LJ           -3.7121       -0.490712        -4.47044
LJ           1.00663         2.95605        0.113399
LJ           0.44271        -3.08213          1.0653
LJ           1.03494        -2.24267        0.295671
LJ          -2.46515         -3.7715         2.35246
