108
#Comment!
LJ          -1.86825        -1.86825        -1.86825
LJ          -1.51961        -1.51961         -2.9852
LJ           -2.9852        -1.51961        -1.51961
LJ          -1.51961         -2.9852        -1.51961
LJ           -1.7691        -2.57887        -2.57887
LJ           1.00499         -2.9925        -3.93705
LJ         -0.889981         -2.1207         -2.1207
LJ           1.00499        -3.93705         -2.9925
LJ          0.227558        -3.07546        -3.07546
LJ           1.98839        -1.29119         -3.0671
LJ          0.609408        -1.64362        -1.64362
LJ           1.98839         -3.0671        -1.29119
LJ          -2.57887         -1.7691        -2.57887
LJ           -2.9925         1.00499        -3.93705
LJ          -3.93705         1.00499         -2.9925
LJ           -2.1207       -0.889981         -2.1207
LJ          -1.16924        -1.16924        -2.10756
LJ         0.0870016       0.0870016        -2.01932
LJ         -0.894721       -0.188153        -1.61123
LJ         -0.188153       -0.894721        -1.61123
LJ           1.90292        -2.07595        -3.92603
LJ           1.47944         0.70737        -2.56049
LJ           1.04436       -0.183325        -2.11971
LJ           2.85944        -2.07764        -2.98047
LJ          -3.07546        0.227558        -3.07546
LJ          -1.29119         1.98839         -3.0671
LJ           -3.0671         1.98839        -1.29119
LJ          -1.64362        0.609408        -1.64362
LJ          -2.07595         1.90292        -3.92603
LJ           0.70737         1.47944        -2.56049
LJ          -2.07764         2.85944        -2.98047
LJ         -0.183325         1.04436        -2.11971
LJ          0.426438        0.426438        -2.91446
LJ           0.77722         0.77722        -1.88701
LJ          0.451571         1.87285        -1.52959
LJ           1.87285        0.451571        -1.52959
LJ          -2.57887        -2.57887         -1.7691
LJ           -2.1207         -2.1207       -0.889981
LJ          -3.93705         -2.9925         1.00499
LJ           -2.9925        -3.93705         1.00499
LJ          -1.16924        -2.10756        -1.16924
LJ         -0.188153        -1.61123       -0.894721
LJ         -0.894721        -1.61123       -0.188153
LJ         0.0870016        -2.01932       0.0870016
LJ           1.90292        -3.92603        -2.07595
LJ           2.85944        -2.98047        -2.07764
LJ           1.04436        -2.11971       -0.183325
LJ           1.47944        -2.56049         0.70737
LJ          -2.10756        -1.16924        -1.16924
LJ          -1.61123       -0.188153       -0.894721
LJ          -2.01932       0.0870016       0.0870016
LJ          -1.61123       -0.894721       -0.188153
LJ         -0.981564       -0.981564       -0.981564
LJ         -0.103018       -0.103018        -1.02996
LJ          -1.02996       -0.103018       -0.103018
LJ         -0.103018        -1.02996       -0.103018
LJ          0.531487       -0.886695       -0.886695
LJ           1.07764       0.0411896        -1.15167
LJ          0.565822       -0.174661       -0.174661
LJ           1.07764        -1.15167       0.0411896
LJ          -3.92603         1.90292        -2.07595
LJ          -2.98047         2.85944        -2.07764
LJ          -2.56049         1.47944         0.70737
LJ          -2.11971         1.04436       -0.183325
LJ         -0.886695        0.531487       -0.886695
LJ         0.0411896         1.07764        -1.15167
LJ          -1.15167         1.07764       0.0411896
LJ         -0.174661        0.565822       -0.174661
LJ           1.01884         1.01884       -0.906565
LJ           1.47628         1.47628        -1.77167
LJ            1.9074          2.8552         1.00076
LJ            2.8552          1.9074         1.00076
LJ          -3.07546        -3.07546        0.227558
LJ          -1.64362        -1.64362        0.609408
LJ           -3.0671        -1.29119         1.98839
LJ          -1.29119         -3.0671         1.98839
LJ          -2.07595        -3.92603         1.90292
LJ         -0.183325        -2.11971         1.04436
LJ          -2.07764        -2.98047         2.85944
LJ           0.70737        -2.56049         1.47944
LJ          0.426438        -2.91446        0.426438
LJ           1.87285        -1.52959        0.451571
LJ          0.451571        -1.52959         1.87285
LJ           0.77722        -1.88701         0.77722
LJ          -3.92603        -2.07595         1.90292
LJ          -2.11971       -0.183325         1.04436
LJ          -2.56049         0.70737         1.47944
LJ          -2.98047        -2.07764         2.85944
LJ         -0.886695       -0.886695        0.531487
LJ         -0.174661       -0.174661        0.565822
LJ          -1.15167       0.0411896         1.07764
LJ         0.0411896        -1.15167         1.07764
LJ           1.01884       -0.906565         1.01884
LJ            2.8552         1.00076          1.9074
LJ            1.9074         1.00076          2.8552
LJ           1.47628        -1.77167         1.47628
LJ          -2.91446        0.426438        0.426438
LJ          -1.52959         1.87285        0.451571
LJ          -1.88701         0.77722         0.77722
LJ          -1.52959        0.451571         1.87285
LJ         -0.906565         1.01884         1.01884
LJ           1.00076          2.8552          1.9074
LJ          -1.77167         1.47628         1.47628
LJ           1.00076          1.9074          2.8552
LJ          0.572859        0.572859        0.572859
LJ           1.99417         1.99417        0.224188
LJ          0.224188         1.99417         1.99417
LJ           1.99417        0.224188         1.99417
