108
#Comment!
LJ           3.60148        -1.60928         1.44488
LJ          -3.03088         2.62815        -6.21508
LJ           1.63954        -2.11454         2.43381
LJ          -1.28243         2.64574        0.759454
LJ          -1.01735        0.528023         2.18192
LJ           1.24675        -2.52619       -0.354963
LJ           1.01188       -0.418503       -0.843134
LJ           3.17706        -2.17777       -0.131751
LJ            1.9394        -1.00158         1.88955
LJ          -1.79281        -3.32199         3.13749
LJ           1.13214        0.648981         3.78448
LJ          0.613282        0.639902       -0.107743
LJ          0.389793        -1.19043        0.373033
LJ            2.9199        -2.97281        -5.11258
LJ           2.31767        -1.98609       -0.823093
LJ          0.590217        -3.23922        0.830292
LJ           2.18158        -2.20537         4.39161
LJ           1.42241           1.361       -0.298489
LJ         -0.616031         5.47216        -1.83676
LJ           2.29648        -2.02895        0.497482
LJ          -2.23932        0.307262         0.57235
LJ           1.86871         3.33309        -1.83057
LJ           2.45816        0.226433        0.596875
LJ           1.10253        -3.85724       -0.651197
LJ          0.528096         2.35968         1.18175
LJ        -0.0528889         2.40983        -1.38967
LJ          -1.12806       -0.229704        -1.00405
LJ           4.42468         5.00771        -1.99001
LJ           3.11178         2.02382         2.51802
LJ           1.40677        -3.27188         1.85107
LJ          0.710046        -1.42568         5.55937
LJ           5.01204        -1.27967        0.704168
LJ           1.43776        -1.36535        -1.44925
LJ          0.690582        -0.65878        -1.97784
LJ         0.0406642         1.72851       -0.439433
LJ           3.24421       0.0611747       -0.167279
LJ           2.48306       -0.953269        0.834349
LJ        -0.0667532        -3.76594       -0.609072
LJ          0.911972       -0.280961        0.431403
LJ           1.62592        0.356706        -0.24173
LJ           2.55431         2.59262       -0.241346
LJ        -0.0932728        -1.33681         2.17146
LJ           1.12388        -1.49348       -0.304048
LJ       7.32854e-06       -0.438888       -0.257114
LJ           2.38626          1.3749         3.05203
LJ           2.50665        -4.79839        -2.16905
LJ           3.35613        0.489622         1.58231
LJ           2.24521        -1.28684         2.86659
LJ           2.08415       -0.676398       -0.986532
LJ         -0.760478         1.80389        0.221886
LJ           3.15633         1.42066        0.978356
LJ          0.279555         4.59908        -1.01233
LJ          -2.73426         5.22332        -3.57148
LJ        -0.0890687       -0.259794        0.997375
LJ           2.23772        -1.87661         1.61939
LJ           3.05204          -1.013       -0.256888
LJ           2.42515         1.00529       -0.615682
LJ           4.08749       -0.567359       -0.449381
LJ         -0.296654       -0.534451         3.25878
LJ           3.57019       -0.308839         0.72569
LJ          0.882627        0.893271         -1.1557
LJ           4.11374        -6.13999        -5.30521
LJ           0.96622        -1.17979          2.4097
LJ         -0.806426          4.5012        -1.36378
LJ           2.00885         1.44279        0.590846
LJ           1.30075        -1.44735         0.94072
LJ           1.55996        -3.48401         3.11672
LJ          0.925737          2.1757        -1.06269
LJ          0.593251          1.7162        -2.25846
LJ           2.17102         1.05793         1.85663
LJ           2.39032        0.670691        -4.24298
LJ          0.159684         0.24093         2.61429
LJ          0.757632        -2.30879          1.9132
LJ           1.46831        0.581578        0.845882
LJ         -0.809762        -1.32555         1.15777
LJ           0.80351       -0.493026         1.46678
LJ            2.2507       0.0379105         1.62636
LJ          -1.08572        0.813988       -0.413078
LJ           3.62599       -0.590115         4.17279
LJ           1.33842        0.154318          2.2272
LJ           1.84477       -0.804106       0.0355844
LJ           1.41604        -2.56246         0.81756
LJ           2.46229        0.392842         3.37726
LJ            2.9445       -0.725262         1.97714
LJ           1.26227         2.62052        -0.17271
LJ          -1.19599      0.00673027        0.842806
LJ         -0.465386         -1.5003       -0.186055
LJ        -0.0770389         1.35272        -1.49384
LJ           1.10807         1.38078         1.90837
LJ          0.368862        -3.20459         2.75573
LJ          0.199223         2.85815       -0.190163
LJ          0.680233         1.43544        0.660976
LJ          0.536023        0.535132         1.37035
LJ           -0.3868       -0.883518        -1.09614
LJ          0.272441        -2.27172      -0.0249835
LJ           2.29316         1.35321         4.07835
LJ        -0.0156549        0.280879        -1.10211
LJ         -0.627855          3.6364        0.592548
LJ          -4.31599         5.62847         6.05773
LJ           4.67876         5.68769         5.72588
LJ          -1.12108         2.83946       -0.336591
LJ         -0.913032        0.558441        -2.05209
LJ          0.544264         3.22135        -1.15752
LJ           1.66362        0.249575        -1.52176
LJ         -0.619893         3.61912       -0.752772
LJ          -1.11686       -0.542828         2.08404
LJ          -6.16296        -4.62649        -1.84334
LJ           2.60397        -3.16573       -0.357805
