108
#Comment!
LJ           4.18631       -0.945054         1.49941
LJ          -1.08343         3.17596       -0.981255
LJ          0.499497        -2.06398         1.44333
LJ         -0.790191         1.94901        -1.77492
LJ          0.498934        0.829052         3.18563
LJ          0.106233        -2.28385       -0.964701
LJ          0.271203        0.287925        -1.03864
LJ           1.46187        -1.62933        -1.42146
LJ           1.55733        -1.97315         2.78317
LJ          0.183717        -1.10581         2.09456
LJ        -0.0661581         1.68908          3.4914
LJ          0.352129        0.982304         1.54534
LJ         -0.430834       -0.604646       -0.320951
LJ            2.1459         4.39614       -0.870321
LJ          0.390581        -2.96416       -0.138633
LJ         -0.667836        -1.54296        0.235261
LJ          -6.32188        -1.38677        -5.15104
LJ          0.615899         1.28861        0.405532
LJ        -0.0753303         4.62587        -5.60277
LJ          0.575368       -0.648178        -1.32416
LJ          -1.31015        0.367288          4.2521
LJ          0.874447         1.53289        -2.18805
LJ           3.77794        0.394132        -0.64051
LJ           -3.3151        -1.69059        -1.82916
LJ           1.16713        -1.63051         5.48214
LJ          0.204293         2.13042        -1.47611
LJ         -0.738009       -0.332874        -1.53138
LJ         -0.450281         6.06764         -1.5597
LJ           2.07184         2.39272         1.84807
LJ          0.307827        -1.83619        0.382978
LJ           1.24628        -1.77166         3.84293
LJ           4.34254         1.81987         5.38722
LJ          0.390695         -3.6719        -1.41169
LJ          0.910809       -0.358732         -2.3619
LJ         -0.158874         2.02568        0.825549
LJ           2.57324        0.677091       -0.810154
LJ           1.72178        -1.40443       -0.362077
LJ           1.42848        -3.49149        -2.12176
LJ          0.919443        0.231437        0.535645
LJ           1.17586         0.58069        -1.75598
LJ          0.925999          1.8961       -0.492166
LJ         -0.971576         -1.0177         1.64324
LJ          0.334899          -2.661        -2.05638
LJ         -0.206887        0.268719        0.576229
LJ           2.47085        -1.15807         3.12754
LJ           6.32715        -4.65252        -4.31156
LJ           3.44747        -0.33087         2.21152
LJ           2.89128        -1.26214         1.89404
LJ           1.12582        -1.45329         -2.5891
LJ          -1.88628         1.46677         1.89323
LJ           1.46098        0.947274         2.11524
LJ        -0.0434912         2.41631        -2.78361
LJ            2.3598        -5.55385        -2.45451
LJ           -0.5194         1.67787         1.86816
LJ            2.4514       -0.607278         1.18441
LJ           2.67148       -0.525325      -0.0641317
LJ           1.81879       0.0884745       -0.400003
LJ           1.19409        -2.45507       -0.697429
LJ          0.537184       -0.706917         3.21905
LJ           4.04494       -0.124337        0.577733
LJ           1.01476        0.876856        -0.73671
LJ           -4.1135         5.61875        -4.72361
LJ           2.06481       -0.699543         2.24832
LJ          -0.18288         2.96416        -1.90272
LJ           2.65015        0.579264        0.259557
LJ           0.83589       -0.401702       -0.347407
LJ          0.435021        -1.86702          2.8174
LJ           1.74899         1.80643        -1.19508
LJ           1.01299         3.11676        -2.79626
LJ           0.39622         1.50685         2.39534
LJ          0.674786         1.33919        -6.23416
LJ           2.05293         1.54734         2.73505
LJ          0.349864       -0.639665        0.571901
LJ           1.79982         1.58701        0.374282
LJ          -0.94684       -0.540862        0.680999
LJ          0.860312       -0.350462         1.53871
LJ            1.6969       -0.591924        0.430876
LJ         0.0309765         1.24452       -0.628702
LJ           1.77845       -0.958324         4.72374
LJ           1.34222        -1.22329         1.67009
LJ           1.73764       -0.491336        -1.52233
LJ          0.577352        -1.43406       -0.675805
LJ            1.8919        0.468539           1.004
LJ           2.25315        -2.19356         1.56745
LJ            1.0051         2.02829         1.41897
LJ          -1.37402        0.336025        0.642176
LJ          -1.07768        -2.91014         1.38179
LJ       -0.00267979         1.10334         -1.7036
LJ          0.408734        0.148005         2.39785
LJ          -0.51478        -1.97473         2.01592
LJ        -0.0877425         2.81347      -0.0142424
LJ          -1.02419         1.42777        0.490621
LJ           -0.7495        0.786095          3.5307
LJ           0.15024        -1.39026        -2.15438
LJ         -0.718226        -1.31179        -1.15658
LJ           1.01892         1.79163        -3.13457
LJ         -0.699362        0.433924       -0.573341
LJ          0.271826         2.66172         2.38017
LJ         -0.287219        -5.35746         3.28875
LJ           5.67383          2.8211        -5.96274
LJ         -0.493988         4.49005       0.0123191
LJ         -0.307732       -0.136536        -2.48917
LJ           1.13976         2.59929        -1.78636
LJ          -5.46049       -0.276528        -3.58962
LJ          0.906314         2.91687       -0.666106
LJ         -0.951088         -3.4812        0.526087
LJ           1.32135        -1.91262        0.577527
LJ        0.00309775        -2.76761         2.71174
