108
#Comment!
LJ          0.398486        -1.23494       -0.296943
LJ           4.50892        0.774172         5.21821
LJ          -1.99089        0.715708      -0.0401453
LJ          -0.32494        -4.38401         -2.2853
LJ           1.30678        -2.04914       -0.614941
LJ          0.903521         2.35861       -0.506613
LJ           1.54531       -0.943985         1.42562
LJ           2.60395        -1.85966         1.01529
LJ           1.11971        -1.79336         0.39966
LJ            1.2071       -0.321089        -1.80166
LJ         -0.814059         2.25296       -0.208775
LJ           1.73326          1.4028         1.97173
LJ         -0.139578        -1.59076        -2.36663
LJ           2.25654         -1.1402        -1.39875
LJ          -1.64758        0.956522         3.10328
LJ            1.1378         3.77689         1.88438
LJ         -0.048076         1.55106        -1.73267
LJ         -0.375808       -0.378373        0.643321
LJ         -0.863007         1.80372         1.43615
LJ         -0.241495        -1.00619        -1.24936
LJ          0.354631        -2.28032        -1.50645
LJ           1.16615       -0.219431        0.609113
LJ         -0.345558         2.25106        -2.68453
LJ           2.53395         5.83074        -2.27511
LJ           3.15421        0.528315        -4.28104
LJ          -1.24421          3.5939        0.385906
LJ          -2.15965         2.64066        0.381538
LJ          -4.69026         3.62902        -3.30863
LJ           1.56223         1.89609        0.984463
LJ           5.12973         4.86684        -6.27033
LJ          -1.28246        0.091592         2.67404
LJ          0.822556        -1.17881        -2.31925
LJ          0.065076        0.216723        -1.21663
LJ          0.784449        -1.14273        -1.19989
LJ         -0.973783         1.17192         0.13476
LJ       -0.00232655       -0.440109        -2.14971
LJ         -0.556444          -2.162       -0.405309
LJ          -1.02828         1.34497        -2.07441
LJ          -1.51161        0.727377         1.05743
LJ           2.36541        0.448528            1.02
LJ          0.548513        -1.02222        0.797391
LJ          0.561477         -2.0361         1.52753
LJ          -1.95688        -1.51679        0.130889
LJ         -0.797865       0.0336217         1.55266
LJ          0.652026       -0.979585         2.01017
LJ           5.67893        -2.12126       -0.668752
LJ          0.992298        -2.86656         1.15428
LJ           2.15993       -0.583123         0.40957
LJ         -0.621313        -1.03149       -0.251517
LJ           -1.7766         1.77139       -0.268436
LJ         -0.208463       -0.224013         2.57042
LJ          -1.46254        0.608075        -1.01096
LJ           0.08549        -2.46212        0.258632
LJ         -0.543609         1.25054       -0.837305
LJ          0.937031        0.672251          1.4154
LJ           1.33643        0.823276       0.0601099
LJ           1.55079       -0.987161        -0.39955
LJ          0.883894        -0.16653       -0.720502
LJ           1.37301        -1.98333        -2.00427
LJ           1.94393       -0.956939        -2.61731
LJ         -0.940138      -0.0408548        -1.74737
LJ          -2.94961         1.20145        -2.15794
LJ          -3.00516          0.1755        0.185752
LJ          -1.62074        -1.91643       -0.760442
LJ          0.291413         1.76652         1.20802
LJ          -0.64795        0.083387       -0.434363
LJ         -0.886321        0.975967         2.17141
LJ          0.577114         2.57942        0.589261
LJ           3.97452        -5.61527       -0.894336
LJ         -0.234788         0.86799         1.09118
LJ          -3.90981         4.16039         5.34081
LJ           5.25193         1.71489         4.00771
LJ          0.194165        -0.17317          1.4861
LJ          -0.40535         2.86939         0.93967
LJ          -1.35279         2.85553         1.28558
LJ           1.00791        0.466371         3.17862
LJ         -0.543486        -2.58916         1.16719
LJ         -0.709076        -1.71294        0.542157
LJ           2.01349        -1.61892         -6.3027
LJ           2.79942       -0.930621          2.5004
LJ          0.328227         0.44163        0.186082
LJ           2.25939       0.0249678       -0.528455
LJ         -0.297737        -1.21443         1.41395
LJ           1.38378       -0.130969          2.0639
LJ        -0.0667864         2.60766         2.18254
LJ          -1.90745       -0.180583         1.69179
LJ          0.704668         1.71933         2.15083
LJ           2.86097         2.17219       -0.537976
LJ         -0.295833        -0.63535         3.62885
LJ          -1.05722       -0.893195         1.95441
LJ          -1.88919         1.73503        0.880712
LJ          0.299435        0.731415         2.36774
LJ           1.64041        -1.98901         1.42282
LJ          -5.24213        0.751954         4.07055
LJ           5.90173        -2.85325        -1.27046
LJ          -5.40046         4.91109        -1.79354
LJ           -1.3395       0.0205237        0.378526
LJ          0.160294         1.61484       0.0850705
LJ           1.69665         1.67649       -0.496168
LJ           2.96053        -2.31086        -4.30049
LJ           4.08315         3.03136        -5.77164
LJ          -2.04123         1.43274        -1.39048
LJ          -2.91166        -4.57069        -6.28706
LJ           5.99738         1.92711         3.25115
LJ          0.680049         1.28146       -0.993443
LJ          -1.84843       -0.706812        -1.72942
LJ            5.7774          2.4004        0.339169
LJ           6.14574        -5.65155         4.83739
