108
#Comment!
LJ          -2.89718         -2.8369         -2.8762
LJ          -1.70168        -1.68426        -4.64272
LJ          -4.61734        -1.62729        -1.65531
LJ          -1.68079        -4.66308        -1.69176
LJ          -0.31843        -2.69916        -2.21687
LJ          0.993184       -0.677112        -3.13362
LJ          0.403692        -1.08016        -1.12579
LJ           1.03053        -2.95035       -0.646406
LJ           1.34891        -2.11128        -2.06101
LJ           1.80417        0.374493       -0.539688
LJ           6.04023         4.96088         4.95655
LJ           1.65497       -0.770114        0.439752
LJ          -1.99663        -1.05934        -2.26501
LJ         -0.502873         1.05125         -2.7509
LJ          -2.85137         0.75096        -0.63107
LJ          -1.24397        0.610705        -1.14034
LJ         -0.712771       -0.682117        -2.92984
LJ          0.171666       0.0881926       -0.581574
LJ          -1.69183        0.621746         -2.5972
LJ          0.242913        -1.65198        -2.29412
LJ            1.9793        -1.34563        -2.81717
LJ            1.2075       -0.988974        -2.02244
LJ         -0.422746       -0.787695        -1.82773
LJ           6.15543        -3.81086         -4.8724
LJ          -2.11728         1.53405         -2.3244
LJ          0.443062         1.75248       -0.879323
LJ         -0.717388         1.86939        0.474975
LJ           4.97861         6.02241          4.9786
LJ          -1.27318         1.92075         -2.9959
LJ          -1.11652         1.39571        -1.93546
LJ           -3.8112         6.15596        -4.87248
LJ          -0.60839        0.290699        -1.98483
LJ         0.0717473      -0.0277662        -2.87694
LJ          0.544708        0.757766        -2.13051
LJ        -0.0142108         1.74768        -1.90843
LJ           1.41171       0.0105006        -2.22201
LJ          -2.06773        -2.54289       -0.667237
LJ          -1.22838        -1.11625        0.568626
LJ          -2.96165       -0.766649        0.667321
LJ         -0.562104        -2.77817        0.931229
LJ         -0.832455        -2.91959       -0.830248
LJ          0.415605        -2.29996        -1.45749
LJ          -1.57207        -2.59263        0.462725
LJ           0.13089       -0.489654        0.229961
LJ           2.08302        -2.93406         -1.4292
LJ            6.1556        -4.87268        -3.81151
LJ         -0.385504        -1.91984       -0.847515
LJ           1.33684        -2.01629       -0.994724
LJ          -3.08213       -0.589497       -0.607234
LJ           -2.4269        0.695305        -1.80203
LJ         -0.713121       0.0890229        0.104582
LJ          -2.28077        -1.69871        0.513603
LJ         -0.791574       -0.647077       -0.794352
LJ          0.855651        0.889922     -0.00853398
LJ         0.0984592        0.709213        0.699567
LJ          0.949478        0.112811        0.937226
LJ           1.08995       -0.313514       -0.262368
LJ           1.00805      -0.0938934          -1.272
LJ           1.66652        -0.94681       -0.867685
LJ          0.900439        -1.30132       -0.184437
LJ          -3.00251         2.10942        -1.33241
LJ          -4.87235          6.1556          -3.811
LJ          -1.92953          1.4368        -1.09012
LJ          -2.07809       -0.091483       -0.924424
LJ         -0.225274         1.25298       -0.276325
LJ         -0.183021        0.872246        -1.31666
LJ          -1.20884         0.99846       -0.127643
LJ         -0.873427         1.79793        -0.96795
LJ           3.29848         3.30276          2.5343
LJ           4.17705         4.17691         1.98076
LJ           -1.4763          3.3224         -6.1609
LJ           3.32191        -1.47625        -6.16115
LJ          -2.11521        -2.18652          1.3974
LJ           4.96322         4.96747         6.03716
LJ         -0.484813        0.538343         1.75979
LJ          0.430916       -0.970884         1.69178
LJ          -1.37265        -2.99003         2.04624
LJ         -0.511153        -2.05531        0.279363
LJ          -3.81154        -4.87275         6.15603
LJ          -1.10312        -1.99486           1.477
LJ          0.116079        -2.89652      -0.0512498
LJ           1.56667        -2.08183       0.0655062
LJ         0.0997957        -1.98354         1.69091
LJ          0.575869        -2.22825        0.632068
LJ          -2.83804        -1.37772         2.09854
LJ          -1.95586        -1.10275       -0.369336
LJ          -1.98003       -0.999674         1.31957
LJ          -4.87222        -3.81082         6.15525
LJ         -0.247774       -0.343995         1.20872
LJ         -0.830846        -1.02291         1.73693
LJ          -1.27969      -0.0534277         1.10733
LJ         -0.246336        -1.33002        0.897707
LJ           3.29973         2.53264           3.299
LJ           3.32314        -6.16246        -1.47658
LJ           -1.4766        -6.16161         3.32251
LJ            4.1787          1.9751         4.17835
LJ          -2.42038       0.0463453        0.183624
LJ           -2.2021         1.66525      0.00113957
LJ          -2.18063          1.0115        0.883163
LJ          -2.32172       0.0117776         1.38639
LJ            2.5338         3.30331         3.29819
LJ          -6.15769         3.32013          -1.477
LJ           1.98081         4.17737         4.17773
LJ           -6.1602        -1.47647         3.32223
LJ           4.75631         4.73944         4.74919
LJ           3.32776         3.29981       -0.220503
LJ         -0.246767         3.33534         3.35247
LJ           3.35184       -0.187505         3.26829
