108
#Comment!
LJ           2.71606        0.580397         1.67154
LJ           2.50708        -3.47253        -1.06608
LJ         -0.719195        -1.08478        0.601253
LJ          -2.45099        0.755731       -0.302075
LJ           1.49609        -1.95535         2.44825
LJ           2.00607         1.70565        -1.58825
LJ           2.44372         1.36781        0.631555
LJ           1.51603        0.275606        -1.56261
LJ           1.00067       -0.371391         1.03099
LJ          0.879636        -3.40965        0.537074
LJ          -2.24838         1.97765         2.05321
LJ           1.58972         1.58212         2.91919
LJ          -1.03574          -1.178       -0.472475
LJ           2.52755        -1.25089       -0.432758
LJ         -0.838312       0.0848074         2.82771
LJ        -0.0491115        0.753645         2.22932
LJ          0.198375        -2.66875        -1.66564
LJ         -0.428561         1.00734        0.547927
LJ          0.633513         2.12094          2.7249
LJ         -0.580226          0.2162        -1.34656
LJ          0.821126        -2.71612          1.8602
LJ           1.11983         1.12197        -1.11557
LJ           2.20181        -1.66252        -1.34832
LJ          -6.28459         2.81532         5.61005
LJ           6.33716       -0.367198         5.22672
LJ          -2.28871         1.74023        0.132137
LJ          -3.10125        -5.68267        -1.13647
LJ          0.221762        -5.22628       0.0962855
LJ           2.54467         2.26064         2.62068
LJ          -3.20983        0.237624         1.31932
LJ         -0.457985       -0.118883         1.80252
LJ           -4.1739        -5.96217         1.44296
LJ        -0.0150887        -1.27149        -1.69842
LJ            1.5786        -0.81758        -1.03552
LJ          -1.59163         2.24902        0.949178
LJ          0.817993        -1.37512       -0.675314
LJ          0.336065        -2.04075         0.85632
LJ          0.574875        -1.39235        -2.60172
LJ          -2.04983       -0.132016         2.09075
LJ           1.60458        0.841663      -0.0730463
LJ           1.35284         1.40224        0.941316
LJ          0.510506        -1.15954         1.60338
LJ         -0.989239         -0.9766        -1.52486
LJ          -1.87493       -0.324417         0.13291
LJ           1.58031        0.378065         1.48707
LJ         -0.459582        -4.23779         4.77739
LJ           1.81704        -1.25036        0.316584
LJ           2.54351        0.191091        0.527944
LJ          -1.76124     -0.00278285       -0.914299
LJ          -1.18367        0.433613         1.21286
LJ         -0.473742         1.84621         2.93585
LJ         -0.587743         1.34809        -1.11912
LJ          -3.66679        -3.06855       -0.416173
LJ          -0.49293         2.42066        -1.05829
LJ           0.84187         1.41742         1.94726
LJ           1.92471        0.194706         2.43644
LJ          0.684936        0.297109        0.214245
LJ          0.530615        -0.28545        -2.04308
LJ           1.67751        -1.53801         1.45817
LJ            3.5582        0.414895         0.74236
LJ          0.523907         1.49219       0.0430644
LJ           3.94221         3.51983        -3.69281
LJ         -0.201852        -2.03848         2.12621
LJ          -1.32302       0.0669499        -2.06896
LJ         -0.914935         2.02583     -0.00515395
LJ         -0.358933         0.42354        -2.80334
LJ           2.33419       -0.449562         1.37507
LJ           2.32696         1.76119         1.64323
LJ           -3.9418        0.997248        -4.58654
LJ         -0.424408         2.25109         1.38683
LJ            -3.873       -0.409597         6.43948
LJ           3.43381       -0.521803         1.60283
LJ          0.426206        0.696515         1.24264
LJ          0.601301         2.26304         1.02413
LJ          -2.39425        0.915742         2.00256
LJ           1.31377      -0.0475095         3.41171
LJ       -0.00327409       -0.447385       -0.291489
LJ           0.13017        0.650417       -0.696869
LJ          0.326784         4.32832         4.83411
LJ          0.530029        -1.16095        0.495485
LJ          0.259742        0.690838        -1.81961
LJ          0.793232      -0.0981738       -0.836796
LJ           1.52609       -0.869093         2.19802
LJ         -0.182895        -0.13192        0.793868
LJ           1.51116         2.46061         2.07748
LJ           -1.9622        0.801088        0.680147
LJ         -0.836061        -1.07104         2.17863
LJ         -0.763045         1.11116         -2.0935
LJ          0.772094       -0.153542         2.10961
LJ         0.0589979       -0.538619         2.78634
LJ          -1.09914         1.35578         2.07722
LJ          0.360963         1.02805         3.10929
LJ           0.92433        -1.24023         3.11672
LJ          0.303111        -4.15215        -2.54866
LJ          -3.75695        0.785269        0.442494
LJ           2.34608        -2.28937       -0.548264
LJ         -0.862062        0.154483        -0.33362
LJ            1.2627         2.11927       -0.780129
LJ           1.57708       -0.180752      -0.0999654
LJ           4.42151       0.0463408        -5.39192
LJ           1.90072         2.37089        0.695337
LJ          -1.48731         1.14413        -0.43627
LJ           3.07768         3.52073         0.57491
LJ          -3.21886        -1.21083          5.8879
LJ           2.10032       -0.480339        -1.90545
LJ           1.25433        -2.27303        -1.19925
LJ          -5.60891         5.04852        -4.62706
LJ          0.581512         5.16017        -1.18708
