108
#Comment!
LJ           3.07317        0.358258         1.68107
LJ           2.53661        -3.25239       0.0534671
LJ         -0.903104        -0.77963         1.11041
LJ          -3.09467        0.873112        0.096638
LJ           1.68801         -1.9966         1.90146
LJ          0.808803         1.74513        -1.49889
LJ           3.00597         1.51886         0.63148
LJ           1.56558        0.329799        -1.59139
LJ           1.24991       -0.618564         0.69094
LJ           1.10185        -3.49287       -0.661526
LJ          -2.52081         2.11234         1.33006
LJ           1.34835         1.51707         3.38538
LJ          -1.34491        -1.28168         0.18951
LJ           2.76256       -0.715795       0.0316893
LJ         -0.247903        0.366844         3.03391
LJ         0.0778668        0.932053         1.29354
LJ          0.282943        -2.09816        -1.72276
LJ          0.255664         1.31307         0.37839
LJ          0.210342         1.83604         2.84625
LJ         -0.397537       -0.094404        -1.40496
LJ          0.558631        -2.73573          1.9615
LJ           1.08981        0.816172       -0.403596
LJ           2.36294        -1.65199        -1.87192
LJ           6.36665         3.26291         4.86264
LJ           -5.9955        -1.62858         5.23693
LJ          -2.25101         2.37862       -0.242187
LJ          -3.17609        -6.08396       -0.981052
LJ          0.121725        -5.07712         1.12243
LJ           1.87752         2.01319         2.48294
LJ          -2.97835          0.2572        0.893222
LJ         -0.344706     -0.00476295         1.98166
LJ          -3.60865        -5.42915         2.44466
LJ          0.113065       -0.985751        -1.64199
LJ           1.57931        -1.49265        -1.11221
LJ          -1.45408          2.2062         1.14602
LJ          0.294871        -1.08247       -0.561701
LJ          0.401412        -2.32164        0.313998
LJ         -0.128572       -0.500949         -2.8469
LJ          -1.29743        0.252961         2.53512
LJ           2.32571        0.610751         -0.2234
LJ           1.55659         1.08614        0.425442
LJ          0.773649        -1.83896         1.17078
LJ          -1.14387       -0.593372       -0.957094
LJ          -1.60272       -0.338117      -0.0504182
LJ           1.89171        0.602244         1.49277
LJ          0.220097        -4.17453         4.34759
LJ           1.23743        -1.49777       0.0559967
LJ           2.10725       0.0448792        0.660075
LJ          -1.98869        0.520582        -0.78005
LJ           -1.1804        0.148598         1.24689
LJ         -0.855535         1.41894         2.96839
LJ         -0.903019        0.987551       -0.996477
LJ          -2.86228        -2.85379       -0.173658
LJ          -0.63315         1.94855        -1.00931
LJ            1.1524         1.39023          2.3764
LJ           2.10101        0.851199         2.59407
LJ          0.601194       -0.151985      -0.0791427
LJ          0.823728       0.0400911         -2.4189
LJ           2.08724        -1.46812         0.94303
LJ             3.611        0.444819        0.554298
LJ            0.3345         1.63775         -0.6864
LJ           4.83032         3.27662        -3.56292
LJ         -0.349755        -2.05942          1.5786
LJ          -1.11798       -0.169088        -2.43334
LJ         -0.520116         2.03737        0.209277
LJ         -0.109117        0.473952        -2.53773
LJ           1.99027       -0.507929          1.7453
LJ           1.71724         1.74095         1.33074
LJ          -4.50097         2.38338        -5.04199
LJ         -0.699545         2.00908         2.17188
LJ           -4.3136       -0.978962        -6.37515
LJ           3.38239       -0.978598         2.16781
LJ          0.969433        0.327715        0.807172
LJ          0.708195         2.07637         1.35875
LJ          -2.41925         1.06229          1.3341
LJ           0.95023        0.459673         3.22479
LJ         -0.463141       -0.512686       -0.180386
LJ        -0.0752303        0.610837       -0.513535
LJ          0.544215         4.99303         5.08344
LJ         0.0843556       -0.964461        0.601375
LJ          0.340886        0.835629        -1.57286
LJ          0.601671       -0.162311        -1.16042
LJ          0.850576       -0.481782         1.55713
LJ        -0.0949824       0.0317864        0.848419
LJ          0.904412         2.57643         2.27448
LJ          -1.82056        0.488366        0.562755
LJ          -0.66771       -0.583751         3.44899
LJ         -0.436091         2.04772        -2.14591
LJ          0.542454        0.462403         2.26541
LJ            0.3557       -0.704889         2.65369
LJ          -1.24488         1.22693         1.84337
LJ        -0.0066172         1.23679         4.02013
LJ          0.723257        -1.67203         2.21643
LJ          0.969374         -5.0338        -1.92886
LJ          -3.75063          2.0458         1.03512
LJ           1.45727        -2.72793        0.143029
LJ         -0.807839        0.647258        0.247239
LJ            1.1752         2.09802       -0.280599
LJ           1.59594       -0.391503       -0.323482
LJ           4.25681       -0.184762        -5.35887
LJ           2.06703         2.17074        0.262719
LJ          -1.49292         1.38039       -0.157902
LJ           3.13692         2.66085         0.52737
LJ          -3.29459       -0.840199         5.36952
LJ           1.70895       -0.584957        -2.34256
LJ          0.706829        -2.13267       -0.737447
LJ          -4.12326         3.76744         -5.5177
LJ          0.484684         3.42654        -2.02933
