108
#Comment!
LJ           -1.1725        -2.51075        0.230536
LJ          -4.99556         6.02883         1.12329
LJ           3.58179         4.33905        -3.41603
LJ            4.2722         5.38459        -3.62713
LJ           1.53846        -1.70412        -1.50167
LJ          -0.26237         1.55709        -1.13203
LJ          0.863454        -1.77697        0.262085
LJ          0.714371        -3.44324        0.292471
LJ           1.09464        -2.50268       -0.615104
LJ           1.47965        0.790293       -0.298619
LJ           2.58764         2.25545         1.58105
LJ            1.1567        -1.96253         2.36063
LJ          -1.26457       -0.917629        -1.24957
LJ          0.943447         2.75662        -1.80193
LJ          -1.00357         1.89846        0.363471
LJ         -0.194587         2.45417       -0.496262
LJ          -1.86866         1.19602        -1.41025
LJ         -0.512148       -0.522711       -0.107705
LJ          -1.28994         2.91777        0.176286
LJ         -0.191531       -0.341339        -1.12706
LJ          0.893697        0.379836        -1.19525
LJ          0.254784        -1.24562       -0.665999
LJ           0.73448       -0.907458        -2.16732
LJ           1.09994         2.18175         1.61762
LJ          -1.27849         4.02908         1.38965
LJ         -0.184678         2.52363         -2.8922
LJ           2.15976         2.78164        -1.89628
LJ           2.81853         1.20828         2.76362
LJ         -0.414792         2.54324        -1.69838
LJ          0.776478         3.82629       -0.675152
LJ          0.256719         1.84835         2.21742
LJ           0.26034        0.766229        -2.05586
LJ          0.270489         1.80772        -2.10355
LJ           1.78133         0.89294        -1.94358
LJ          0.354865         1.34371       -0.192157
LJ         -0.845825        0.847901        -1.61427
LJ           -1.2024        -2.30486         -1.1639
LJ          -2.87074       -0.395959         1.29224
LJ          -1.56775         0.84001         0.78921
LJ          0.733572        -2.07847         1.24505
LJ         -0.846835        -1.54969       -0.052534
LJ         -0.575103        -3.28031       -0.149123
LJ          -1.66582       -0.998056        0.618539
LJ         -0.784473       -0.526175        0.920782
LJ         -0.119662        -3.93557        0.805537
LJ          -6.15367        -1.66757        -0.56438
LJ         -0.126194        -2.30305       -0.662236
LJ           1.43165        -2.57939        0.499939
LJ          -1.21501        0.100263       -0.942621
LJ          -1.27367         1.92122        -0.61447
LJ          0.206296       -0.240146         1.19317
LJ          -2.59317       0.0323546       -0.694339
LJ         -0.407131        -1.58686        -1.38875
LJ          0.941928         1.34573         -1.2973
LJ           1.44964        0.471122        0.684448
LJ           1.04791       -0.957447         1.42963
LJ          0.890345       -0.724291         0.20562
LJ          0.217238        0.283131       0.0781255
LJ           1.73828        -0.24511       -0.258965
LJ           1.94292        -1.12157        0.574213
LJ          -1.64338      -0.0209684        -1.88887
LJ           4.88327         4.73521         2.75641
LJ          -1.81762        0.844956       -0.339469
LJ          -1.92853       -0.730912       -0.453826
LJ          0.291734         1.31676        0.835738
LJ         -0.695639        0.699708     -0.00864223
LJ         -0.674247        0.448451        0.982636
LJ           0.72382         2.19378        -0.82457
LJ           3.02694         6.12564         4.97031
LJ           2.06183         2.55117         2.91746
LJ          -4.54301        0.569691         6.45227
LJ         -0.573374        -6.05434        -5.30426
LJ         -0.133656        -2.30238        0.554021
LJ            2.8294         1.74353        0.492465
LJ         -0.354772        0.825118         1.94805
LJ          0.856318        0.432195         1.81177
LJ           -1.1212        -3.41842        0.836531
LJ          -0.85605        -1.64434         1.16505
LJ           1.11581         3.16744         4.67187
LJ          -3.76932         -2.1596         2.11797
LJ         0.0634796        -1.21862        0.653714
LJ           1.85055        -1.74702       -0.294565
LJ         -0.652316        -2.60325         1.55758
LJ        -0.0320645        -1.28197          1.7032
LJ          -2.59059        0.493752        0.334001
LJ          -1.45008       0.0108807        0.123443
LJ         -0.107301        -3.48125          2.0026
LJ          -4.12132         1.11313         3.44222
LJ          0.424049       -0.411939         2.23499
LJ         -0.731865        -1.50622         2.55012
LJ          -2.10735         1.86376        0.885574
LJ          0.652671        -1.12813         2.89136
LJ          0.150966        -2.43181         2.30801
LJ         -0.119863        -5.80694         6.36518
LJ          -6.18793        -5.90469        0.811515
LJ          -6.13626         2.54866        -5.08817
LJ          -1.66727      0.00977982         1.33009
LJ          0.104711         2.30543        0.514832
LJ           1.04188          3.1139      0.00673731
LJ           2.00153        -2.99115       -0.926896
LJ           5.33279         3.73305         1.65793
LJ          -5.58624         1.71785        -3.29722
LJ          0.167837         5.16891         1.73023
LJ           5.54509        -6.05444         2.90934
LJ           2.10467         2.50608          3.9596
LJ          -3.14669       -0.704665       -0.127017
LJ            1.9752         2.28478        -4.80202
LJ           5.46739         1.24615         2.14461
