108
#Comment!
LJ          -2.85793        -2.85793        -2.85793
LJ         -0.269486       -0.269459        -3.28955
LJ          -3.28931       -0.269509       -0.269542
LJ         -0.269476        -3.28969       -0.269391
LJ         -0.297002        -2.59786        -2.59785
LJ          0.708967       -0.926409        -3.26785
LJ          0.100066        -1.86504        -1.86499
LJ          0.708983        -3.26771       -0.926307
LJ          0.982618        -2.44161        -2.44162
LJ           1.38319         0.45236       -0.518979
LJ          -0.37279          5.0646          5.0646
LJ           1.38327       -0.518968        0.452385
LJ          -2.59873       -0.297483        -2.59875
LJ         -0.926404        0.709071        -3.26778
LJ          -3.26785        0.709015       -0.926471
LJ          -1.86476       0.0989408        -1.86486
LJ         -0.661103       -0.661155        -2.26047
LJ         -0.256845       -0.256584        -1.16483
LJ          -1.54185       0.0186875        -2.86485
LJ         0.0187901        -1.54162        -2.86445
LJ            1.4928       0.0338875        -2.52494
LJ           1.51079        -1.23354         -2.1716
LJ           0.46397       -0.790128        -2.12419
LJ           3.95664        -1.92825        -2.84615
LJ          -2.44168        0.982643        -2.44165
LJ          0.452515         1.38323       -0.519147
LJ         -0.519046         1.38311        0.452446
LJ            5.0646        -0.37279          5.0646
LJ          0.034007         1.49308        -2.52537
LJ          -1.23355         1.51053        -2.17111
LJ          -1.92833         3.95679        -2.84618
LJ         -0.790406        0.464081        -2.12427
LJ          0.409375        0.409684        -2.21344
LJ          0.940788         0.94075        -2.97142
LJ         -0.167053         1.82403        -1.44248
LJ           1.82387       -0.167197        -1.44223
LJ          -2.59854        -2.59847       -0.297466
LJ          -1.86474        -1.86484       0.0993616
LJ          -3.26812       -0.926419        0.709106
LJ         -0.926153        -3.26771        0.708931
LJ         -0.661224        -2.26058       -0.661248
LJ         0.0188093        -2.86461        -1.54173
LJ          -1.54184        -2.86484       0.0186777
LJ         -0.256749        -1.16485       -0.256532
LJ            1.4928        -2.52504       0.0338653
LJ           3.95669        -2.84624        -1.92843
LJ          0.463682        -2.12434       -0.790201
LJ             1.511        -2.17181        -1.23343
LJ          -2.26029       -0.661031       -0.660961
LJ           -2.8647       0.0185575        -1.54175
LJ          -1.16503        -0.25672       -0.256843
LJ          -2.86454        -1.54152       0.0188741
LJ          -1.59039        -1.59088        -1.59056
LJ          0.381993         0.38232       -0.497459
LJ         -0.497417        0.382084        0.381869
LJ          0.382198        -0.49766        0.382323
LJ          0.683283       -0.932171       -0.932114
LJ          0.828079      -0.0288572        -1.33667
LJ           1.77456        -1.13252        -1.13246
LJ           0.82841        -1.33679      -0.0288151
LJ           -2.5253          1.4931       0.0341315
LJ          -2.84614         3.95671        -1.92829
LJ          -2.17102          1.5106        -1.23347
LJ          -2.12414        0.464302       -0.790466
LJ         -0.932197        0.684463       -0.932183
LJ        -0.0287097        0.828892        -1.33704
LJ            -1.337        0.828682      -0.0287524
LJ          -1.13241         1.77461        -1.13241
LJ           2.28201         2.28197         1.40329
LJ           2.07216         2.07228       0.0426898
LJ          0.381667         2.32911        -3.84448
LJ           2.32901        0.381604        -3.84442
LJ          -2.44173        -2.44167        0.982585
LJ            5.0646          5.0646        -0.37279
LJ         -0.518989        0.452413         1.38304
LJ          0.452524       -0.519079         1.38326
LJ         0.0338334         -2.5254         1.49311
LJ         -0.790306        -2.12424        0.463741
LJ          -1.92842        -2.84627          3.9568
LJ           -1.2334        -2.17137         1.51076
LJ          0.409342        -2.21348        0.409458
LJ           1.82393        -1.44232        -0.16707
LJ           -0.1671        -1.44238         1.82398
LJ          0.940749        -2.97144        0.940844
LJ            -2.525       0.0338886          1.4928
LJ          -2.12384       -0.790315        0.464327
LJ          -2.17132        -1.23357         1.51069
LJ          -2.84612        -1.92824         3.95661
LJ         -0.931948       -0.932055         0.68388
LJ          -1.13243        -1.13231         1.77453
LJ          -1.33683      -0.0287676        0.828306
LJ        -0.0285505        -1.33701        0.828734
LJ           2.28191         1.40328         2.28191
LJ           2.32912        -3.84452        0.381544
LJ           0.38157        -3.84456         2.32912
LJ           2.07213       0.0425025         2.07218
LJ          -2.21353        0.409631        0.409504
LJ          -1.44248         1.82399        -0.16711
LJ          -2.97144        0.940774         0.94083
LJ          -1.44243        -0.16711         1.82397
LJ           1.40332         2.28203         2.28204
LJ          -3.84424         2.32899        0.381543
LJ         0.0425868         2.07225         2.07214
LJ          -3.84432        0.381589          2.3291
LJ           5.97089         5.97089         5.97089
LJ           1.06618         1.06606        -1.53246
LJ          -1.53252         1.06603         1.06607
LJ            1.0664         -1.5323          1.0663
