108
#Comment!
LJ         0.0287635        -1.75778        0.126997
LJ           5.92617          2.6972        -5.50671
LJ          -1.71329         1.89948      -0.0586829
LJ          0.335155        -1.47252        -3.76946
LJ          0.869983        -2.04213       -0.805704
LJ          0.104867         1.92422        -1.23477
LJ            1.2644        -1.77298        0.548883
LJ           1.68228        -1.64683         1.89116
LJ           2.26772         -2.4725         0.30915
LJ           1.71441        0.351332        -1.45507
LJ         -0.191244         2.21805       -0.222048
LJ           1.48831        0.311314         1.27561
LJ         -0.144203       -0.788972        -1.79773
LJ           1.79778       -0.808344        -1.52968
LJ          -1.03397         1.00647         1.31525
LJ         -0.639613         4.00587         1.72416
LJ         -0.834092        0.774423        -1.87721
LJ         -0.350454       -0.849685        0.400213
LJ         0.0304398         2.27341        0.829454
LJ         -0.113347       -0.748523       -0.693123
LJ          0.671008        -2.14389        -1.81847
LJ          0.817132       -0.834019      -0.0474153
LJ         -0.901508         1.55384        -3.08804
LJ           1.05898         6.05759        -4.16074
LJ           5.82094         -2.4556        -2.48755
LJ        -0.0824103         3.01486        -1.13034
LJ          -1.97619         2.67889       -0.705277
LJ          -6.29556         2.64978        -1.45511
LJ           1.91869         3.08947        0.729556
LJ           3.58409         6.38244         -3.5667
LJ          -1.27867        0.736601         2.59105
LJ           1.00699       -0.235104        -2.04562
LJ          0.497001        0.730279        -1.81045
LJ          0.710118        -1.08541        -1.33344
LJ         -0.552767        0.219984         1.05158
LJ         -0.210795        0.198846         -1.1753
LJ         -0.929955         -1.4834       -0.836859
LJ           -2.0679        0.564699        -2.01179
LJ          -0.94496         1.07614        0.299101
LJ           1.66574       -0.545861        0.509664
LJ         -0.545648        -1.75877         1.16642
LJ         -0.274293        -2.45891         1.89355
LJ          -2.27813        -1.24072       -0.504569
LJ          -1.08458       -0.719807          1.2507
LJ          0.429023        -1.64735         1.77269
LJ           5.99817         1.96463        0.467208
LJ          0.480526         -2.6672        0.121373
LJ           2.47998        -1.34932        0.381474
LJ            -1.329       -0.642176       -0.438371
LJ          -1.03937         2.14262        -1.03168
LJ         -0.105703       -0.615658         1.65818
LJ          -1.13737        0.544529       -0.749973
LJ         -0.144132         -2.3726       -0.731675
LJ          -0.26599         1.17387        -0.60168
LJ           1.24359         1.19908        0.612459
LJ            1.9818        0.148974       -0.387437
LJ            1.9385        -1.25202        -0.51803
LJ          0.715314      -0.0523038       -0.848956
LJ           2.00561        -1.89237        -2.31964
LJ           2.91309       0.0705152        -1.49717
LJ          -1.10317       -0.243907        -1.52639
LJ          -3.93071         1.44991        -1.00524
LJ          -2.21891         1.60104        0.848494
LJ          -2.70126        -1.16788        -1.67438
LJ          0.311101         1.35553         2.56736
LJ         -0.403368        0.188338      -0.0830497
LJ         -0.307932        0.390993         2.13226
LJ           1.03472         2.39783        0.871244
LJ           2.44638         -6.3083        -3.72264
LJ          0.392931        0.674003         1.41764
LJ          -3.34675        -5.57931         5.39463
LJ          -5.20565         3.20034         5.48246
LJ          0.760378       -0.981081         1.02881
LJ          0.860532          1.9933       -0.205997
LJ          -2.76086         1.05168         2.28896
LJ         -0.128131        0.476309         3.19962
LJ          -1.54613        -2.19571         1.28749
LJ          -1.34348        -1.28121        0.322487
LJ           1.75436       -0.159659         6.11918
LJ           4.84762        -1.31716         2.49675
LJ          0.749921        0.155492         0.45838
LJ           2.84196       -0.399304        -0.58363
LJ         -0.720325         -1.3382         2.14528
LJ           1.07673       -0.592769         2.13614
LJ          -2.50505            1.91         1.78509
LJ          -1.44902         0.14758         1.61394
LJ           1.97996         0.37814         2.88275
LJ           1.23571         3.93035        0.453943
LJ         -0.034016       -0.516562         2.98381
LJ          -1.28776       -0.388738           2.634
LJ          -1.17948         2.04975         1.00283
LJ          0.774072        0.492634         2.62775
LJ          0.637099        -2.77341         2.51393
LJ          -4.65786        -1.53391         5.12395
LJ           6.01696         -3.7475         -1.0073
LJ          -6.18104         4.02624        -2.48923
LJ          -1.47198      -0.0270599        0.450911
LJ         0.0901194         1.18256        0.405917
LJ           0.79111         3.31206         1.58527
LJ           3.02466        -2.32964        -2.75632
LJ           4.57795         3.19465        -3.72295
LJ          -2.96949        0.409822        -1.30047
LJ         -0.721987         -6.2304        -4.59203
LJ           6.00166         3.48148          2.4246
LJ           1.89885         1.31232       -0.961552
LJ          -2.10323       -0.193663        -1.00395
LJ          -4.69617         -1.5046        -1.62772
LJ           3.27745        -5.33572       -0.633137
