108
#Comment!
LJ          -1.96492        -1.87203       -0.221374
LJ          -4.61816        -5.32079         4.78874
LJ          -6.07336        -5.79774        -4.13952
LJ           6.07845        -6.45131        -3.74133
LJ           2.18315        -2.23786        0.430681
LJ         -0.679898         1.12209        -2.33634
LJ           1.01279        -1.70531       -0.777967
LJ          0.353525        -2.44976       -0.169035
LJ         -0.452451        -2.20892        -1.69483
LJ           1.31416        0.505979       -0.368625
LJ           3.32894         2.64273         2.88039
LJ           1.26437        -1.51124         1.97452
LJ         -0.646224         -1.4763        -2.53028
LJ        -0.0777369         3.29938        -1.30512
LJ          -1.26994         1.15515        0.118628
LJ         -0.513269          2.2729        -1.12168
LJ          -1.70799       -0.142777        -1.23545
LJ          0.542327       0.0536468        0.393964
LJ          -2.28482         1.56454        -1.39166
LJ         -0.714852       -0.803028         -1.2259
LJ           1.24996        -1.08335        -2.75332
LJ           1.00218       -0.737444        -1.40198
LJ          0.234111        -1.34942        -1.74977
LJ           3.81806        -1.68598         4.29429
LJ         -0.376322         2.96851         4.80739
LJ          0.783911         2.76728        -2.20949
LJ           1.11994         2.17818        -1.15051
LJ           3.85519       -0.379816         3.83133
LJ         -0.385043         2.24254        -2.36657
LJ          -1.14981         3.03882        -2.00588
LJ          -1.65304         3.20437         5.15866
LJ         -0.406223         0.28642        -1.64346
LJ          0.736009         1.62492        -2.92603
LJ          0.424425        0.695073        -2.25292
LJ         0.0199603         1.42039        -1.62685
LJ          -1.15495       -0.207932        -2.34864
LJ          -1.19448        -1.88683        -1.07518
LJ          -2.08409       -0.830545         1.49811
LJ          -1.62885        0.880706         1.07154
LJ          0.486314         -2.4555         1.01346
LJ         -0.976581        -1.34363       -0.171088
LJ         -0.710632        -3.18979        -1.17927
LJ          -2.08679        -1.10425        0.480154
LJ         -0.464831       -0.340269        0.293443
LJ        -0.0727154        -3.52819       -0.154549
LJ           6.25834         2.72584        -1.80493
LJ         -0.101153        -1.68903       -0.743889
LJ           2.17031        -1.04773       -0.711922
LJ         -0.748723        0.319639       -0.494224
LJ          -1.17171         1.00271        -1.09327
LJ         0.0450841       0.0113736         1.38282
LJ          -3.04767       -0.471466       -0.429376
LJ          0.135833       -0.415043       -0.772922
LJ           1.21225         1.15998        -1.51094
LJ           1.15897        0.481687         1.13369
LJ            1.0555       -0.713073         1.02624
LJ           1.22658       -0.652993       -0.154811
LJ          0.624791        0.279891         -1.3302
LJ           1.82387      -0.0157078        -1.13753
LJ          0.770113        -1.52678        0.315399
LJ            -2.082        -1.10766        -1.04919
LJ           4.10555         4.71671         4.31013
LJ          -2.10431        0.768517       -0.289633
LJ          -1.55538       -0.470596       -0.243255
LJ          0.683242         1.17001         0.61025
LJ          0.149508        0.804106       -0.581468
LJ         -0.436275        0.630082         0.53205
LJ         -0.451601         1.71736       -0.255314
LJ           3.37665         5.69731         2.72219
LJ           3.84606         3.52479         3.66614
LJ          -4.34539         2.56408         5.97477
LJ           1.74658        -4.40032         6.17109
LJ          -0.95701        -2.59147       0.0505474
LJ           3.17877         1.90637         2.05982
LJ         -0.661008        0.854067         1.48004
LJ          0.947142       -0.365697         2.15476
LJ          -1.08851        -3.13145        0.911843
LJ          -1.13417        -1.23311         1.11599
LJ         -0.958225         5.21032         4.51364
LJ           -1.7514        -2.30046         1.73595
LJ         -0.280819        -1.68587        0.599076
LJ           1.89537        -1.21701        0.454049
LJ         -0.714099        -2.30596         1.32508
LJ          0.202962         -1.1867          1.3856
LJ          -2.43398     -0.00697012        0.334575
LJ          -1.33317        -0.14527         0.88534
LJ          -1.68826        -3.54446         1.84385
LJ          -6.12541        -1.31388         4.25679
LJ         0.0065565       -0.891785         2.61577
LJ          -1.17073        -1.47981         2.17635
LJ         -0.611402         1.75553        0.926328
LJ          0.305251        -1.27323         3.63239
LJ         0.0974814         -2.0421         2.05395
LJ           2.14702         5.74836         -4.7781
LJ          -4.57621         5.82342         2.33925
LJ           6.38783         2.39958        -5.94236
LJ          -1.28092      -0.0825715         1.96079
LJ          -1.49398         1.98457       -0.529746
LJ          0.476981         2.21065        0.213332
LJ         -0.737487         -4.4621       -0.229811
LJ           3.79679         5.69652         5.01032
LJ            6.1564         2.77495        -4.02914
LJ           2.97947         4.45873         4.15247
LJ           5.30809        -4.59752         3.25853
LJ           2.73272          3.4135         4.04248
LJ          -3.31375        -2.58009        -1.24124
LJ           6.30828        -2.50383        -5.18508
LJ         -0.031481         6.28076        -2.23953
