108
#Comment!
LJ          0.396347        -1.42611       -0.224015
LJ           4.76199         1.12344         5.67266
LJ          -1.94826        0.916072        0.112196
LJ         -0.223951        -3.88444        -2.64828
LJ           1.17457        -2.17866        -0.81885
LJ          0.609296         2.40511        -0.26981
LJ           1.33345        -1.04393         1.10069
LJ           2.50401        -2.13573         1.04391
LJ           1.31169        -1.97953        0.373433
LJ           1.15207       -0.152809        -1.75687
LJ         -0.578225         1.88195        0.286878
LJ           1.78679        0.951771         1.70435
LJ        -0.0740336        -1.48961         -2.3385
LJ           2.03806        -1.17046          -1.477
LJ          -1.39007         1.20045         2.91222
LJ          0.821055          3.9963         1.92266
LJ         -0.162194         1.34422        -2.10112
LJ         -0.381739       -0.275108        0.613342
LJ         -0.939061         1.68365         1.35755
LJ         -0.240614       -0.806343        -1.18381
LJ          0.263154        -2.01486        -1.49694
LJ           1.20687        -0.36253         0.26603
LJ         -0.389172         2.21976         -2.8967
LJ           2.27471         5.88088        -2.63859
LJ           3.70102      -0.0358294        -3.94318
LJ          -1.14308         3.68139      -0.0326633
LJ          -1.88492         2.88991       0.0503853
LJ          -4.98546         3.42155         -3.0009
LJ           1.76717         2.11312         1.02667
LJ           4.84773         5.16981        -5.75294
LJ          -1.09237       0.0954452         2.73652
LJ           1.09487        -1.13648        -2.50344
LJ          0.350044        0.498082        -1.51741
LJ          0.806193        -1.14955        -1.29052
LJ         -0.706604        0.631819        0.354245
LJ          0.105493       -0.341268        -2.11691
LJ         -0.566028        -1.75694       -0.945623
LJ          -1.40409        0.966566        -2.21814
LJ          -1.59922        0.829692         1.16352
LJ           1.68835        0.233425        0.930445
LJ          0.292907        -1.25204        0.844032
LJ          0.280803        -2.14636         1.63016
LJ          -2.10969        -1.77085      -0.0303471
LJ         -0.892099      -0.0566225         1.51365
LJ          0.720942        -1.13404         2.10358
LJ           5.70002        -1.31675       -0.412926
LJ          0.979095        -3.18183         1.04764
LJ           2.26822       -0.704046        0.448311
LJ         -0.961674       -0.996861       -0.212893
LJ          -1.34808         1.72414       -0.739784
LJ        -0.0777998       -0.155692         2.62628
LJ          -1.37508        0.635293        -1.03544
LJ          0.217365        -2.34904        0.580912
LJ          -0.24984         1.19234       -0.768408
LJ           1.14442         1.10274        0.894203
LJ           1.64902         0.61999      -0.0623417
LJ           1.59268        -1.21696       -0.374607
LJ          0.934244         0.02112       -0.695243
LJ           1.50697        -1.99808        -1.94702
LJ           2.01619        -0.53362        -2.39487
LJ         -0.881786       -0.237328        -1.68163
LJ          -3.37863         1.21223         -2.0719
LJ          -3.01709        0.442008        0.342932
LJ          -1.48821        -1.99703        -1.19809
LJ         0.0547082         1.93968         1.63027
LJ         -0.566544       0.0348837       -0.685434
LJ         -0.792714        0.894823         2.05914
LJ          0.780184         2.44531        0.886087
LJ           3.63449        -5.75202        -1.44138
LJ         -0.177555        0.969751         1.15983
LJ          -3.80056          4.7798         5.35083
LJ            5.7637         2.01143         4.36758
LJ          0.322484       -0.258706         1.40471
LJ         -0.404089         2.77131         1.13289
LJ          -1.72063         2.57762         1.74897
LJ          0.983201         0.37456         3.28696
LJ         -0.635281        -2.73406         1.35419
LJ         -0.641948        -1.66861        0.613777
LJ           1.96215        -1.33498        -6.40288
LJ           3.26885        -1.00605         2.55424
LJ          0.257719        0.627879       -0.143435
LJ           2.47556       -0.465269       -0.576867
LJ         -0.437925        -1.00086         1.60776
LJ           1.44917       -0.319364         1.81549
LJ         -0.530823         2.67577          2.2086
LJ          -2.07891      -0.0660694         1.85248
LJ          0.966561         1.64382         2.35149
LJ           2.73345          2.6954       -0.442993
LJ          -0.41305       -0.531142         3.57827
LJ          -1.27435        -1.04263         2.33933
LJ          -1.85763         1.92555        0.637675
LJ          0.196377        0.872015         2.47217
LJ           1.49438        -2.13351         1.76814
LJ          -5.12534        0.303323         4.27665
LJ           5.93103        -3.06136        -1.23469
LJ          -5.57214         4.76182        -1.87839
LJ          -1.53523       -0.215941        0.336102
LJ          0.346113         1.59638        0.424876
LJ            1.6466         1.74739      -0.0605025
LJ           2.99789         -2.3525        -4.03615
LJ           4.17283         3.05546        -5.36553
LJ          -2.32069           1.442        -1.58564
LJ          -2.48612        -4.89297         -5.9574
LJ           5.98879         2.24628         2.98503
LJ          0.780658         1.63071        -1.06539
LJ          -2.27638       -0.562805        -1.43877
LJ           6.28727         1.65946      -0.0603787
LJ           5.58813        -5.59057         3.77387
