108
#Comment!
LJ          -2.15601        -2.04788        -2.15114
LJ          -2.19241        -2.17125        -4.75891
LJ          -4.70346        -2.08047        -2.11518
LJ          -2.16517        -4.78855        -2.18191
LJ         0.0549227        -3.14026        -2.40844
LJ          0.911687       -0.647041        -3.11413
LJ           0.76732        -1.02098        -1.17212
LJ           1.12205        -2.95985       -0.479148
LJ          0.580431         -2.2473        -2.39408
LJ           1.74587         0.46608       -0.509027
LJ           5.58494         4.76492         4.76664
LJ           1.31515       -0.981683        0.597482
LJ          -1.76545        -1.07193        -2.46074
LJ          -0.10148         1.30144        -2.81949
LJ          -2.59989        0.701547       -0.594273
LJ           -1.1223        0.820839        -1.22302
LJ         -0.822125       -0.590368        -2.35207
LJ        -0.0855542      -0.0524857       -0.444761
LJ          -1.47295        0.318783        -2.71162
LJ         -0.127143        -1.64813        -1.84551
LJ           2.09982        -1.56968        -2.99544
LJ           1.12812        -1.18728        -2.20867
LJ         -0.114306       -0.263602         -1.5642
LJ          -6.34028        -4.10538        -5.33737
LJ          -2.13957          1.6457        -2.46641
LJ          0.656249         1.45379       -0.811823
LJ         -0.651962         1.84255        0.842582
LJ           4.83772         5.71007         4.84999
LJ          -1.28992         1.42404        -3.32772
LJ          -1.08843         1.33385        -2.23324
LJ           -4.1058        -6.33963        -5.33757
LJ         -0.513473        0.462139        -2.11629
LJ          0.265972        0.354592        -3.11812
LJ           0.59888        0.922151        -2.08377
LJ         -0.108532         1.91282        -1.69641
LJ           1.37391        0.377115         -2.6107
LJ          -2.03441        -2.81187       -0.396076
LJ          -1.26288         -1.1289         0.61593
LJ          -2.63804       -0.720657        0.890018
LJ         -0.171306        -3.11983         1.40858
LJ         -0.904698        -2.46882       -0.474001
LJ          0.518928        -2.16754        -1.02245
LJ          -1.32446         -2.9769        0.485417
LJ          0.226493       -0.657713        0.407734
LJ            1.6208        -3.12283        -1.49571
LJ          -6.34005        -5.33777        -4.10618
LJ          -0.30899        -1.26035        -0.85674
LJ            1.5659        -1.85075       -0.657144
LJ          -2.79592       -0.441729       -0.133097
LJ          -2.08852        0.717475         -1.7354
LJ         -0.847532       -0.240027        0.362335
LJ          -1.95681        -1.82918        0.217045
LJ         -0.960163       -0.352159       -0.782346
LJ          0.674557        0.595899       -0.190481
LJ       -0.00535152        0.463338         0.64317
LJ           1.06527        0.162918        0.674129
LJ           1.08987       -0.412967        -0.30828
LJ          0.722508        0.137939        -1.19253
LJ           1.67077       -0.373948        -1.35425
LJ          0.470803        -1.51857      -0.0739211
LJ          -3.50764         1.91503        -1.06812
LJ          -5.33736        -6.34013        -4.10553
LJ          -1.95047         1.71386        -1.40022
LJ           -1.7975       0.0628805        -0.96705
LJ         -0.358198         1.34109       -0.133762
LJ        -0.0337447        0.785523        -1.13864
LJ          -1.34525        0.857526      -0.0743936
LJ           -1.0292          1.8774       -0.818913
LJ           3.57324          3.6012         2.24161
LJ           4.44364           4.443         2.45199
LJ          -1.83185         3.49203         6.34658
LJ           3.49148        -1.83177         6.34627
LJ          -2.16047        -2.41905         1.02048
LJ           4.79206          4.8029         5.62951
LJ          -0.21744          1.1189         1.53907
LJ          0.720307       -0.628269         1.40504
LJ          -1.37155        -3.12581         1.52888
LJ         -0.382169        -1.91368        0.304115
LJ          -4.10618         -5.3379        -6.33951
LJ          -1.04461        -2.08188         1.12186
LJ          0.126552        -2.99175      -0.0443761
LJ           1.47731        -1.94331        0.440245
LJ         0.0964369        -2.10269         1.78056
LJ          0.556895        -2.41897        0.712195
LJ          -3.19131        -1.25007         1.82836
LJ          -1.73038        -1.01704       -0.361811
LJ          -2.07116        -1.48105         1.50336
LJ          -5.33716        -4.10528        -6.34054
LJ         -0.428473       -0.222346         1.58012
LJ          -1.15718        -1.06553         1.79442
LJ           -1.3152        0.378325         1.18207
LJ         -0.238592        -1.34386         1.17732
LJ           3.52009         2.12051         3.54616
LJ           3.49287         6.34476        -1.83215
LJ          -1.83218         6.34582         3.49213
LJ           4.45524         2.43923         4.45408
LJ           -1.8829      -0.0870442        0.211498
LJ          -2.31559         1.72487      -0.0760772
LJ          -1.52737         1.49084         1.11218
LJ          -2.72921        0.311341          1.3277
LJ           2.32954         3.59784         3.59348
LJ           6.35067         3.48929        -1.83266
LJ           2.45017         4.44597         4.44657
LJ           6.34727        -1.83204         3.49193
LJ            3.5815         3.57354         3.56349
LJ           3.80001          3.7645       0.0727046
LJ         0.0402093         3.81211         3.83396
LJ           3.83131        0.115524         3.72479
