108
#Comment!
LJ          0.170959        -1.37874        0.127781
LJ           4.10328        0.117798         4.32886
LJ          -2.25367        0.880946        0.316138
LJ         -0.504118        -5.27491        -1.59648
LJ           1.43551        -2.09721       -0.581202
LJ           0.94852         1.87354       -0.684173
LJ           1.96732       -0.327998         1.14538
LJ           2.60945         -1.1052        0.847179
LJ           1.82796        -1.63995        0.392431
LJ           1.34574       -0.290609        -1.91081
LJ          -1.26956         2.61396       -0.356625
LJ           2.12609         1.17553         2.40309
LJ         -0.198238        -1.84054        -1.97842
LJ           1.81864       -0.949027        -1.18747
LJ           -2.0423         1.05392         3.28051
LJ           1.46992         2.97968         1.65456
LJ          0.494065         1.18096        -1.92601
LJ         0.0311871       -0.355947        0.601971
LJ         -0.770261         1.78351         1.37184
LJ         -0.210146        -1.15182       -0.807004
LJ          0.574967        -1.98423         -1.2818
LJ           1.18677       0.0949426        0.328039
LJ         -0.106237         2.23055        -2.38625
LJ           3.02164         5.74373          -1.593
LJ           2.12992         1.56594        -4.89926
LJ          -1.23515         3.31606        0.526292
LJ          -2.35603         2.86818        0.810427
LJ          -4.15262         4.03468        -3.85293
LJ           1.77601         2.11507         1.25661
LJ           5.63749         4.27893          5.7021
LJ          -1.40957        0.225747         2.03454
LJ          0.872237        -1.51671        -2.26696
LJ          0.308707       0.0816487        -1.37489
LJ          0.760017       -0.797099        -1.17881
LJ          -1.11466         1.51877        0.353133
LJ         -0.117186       -0.793249        -2.20915
LJ         -0.682902        -2.08466       -0.525061
LJ         -0.468173         2.11243        -1.33875
LJ          -1.57254         1.03349          1.4274
LJ           2.00524        0.750806         1.00586
LJ           1.01178       -0.918911        0.702675
LJ          0.812529        -1.98415         1.06556
LJ           -1.8826        -1.02367        0.658951
LJ          -1.12986       -0.621777          1.1161
LJ          0.872106       -0.737658         2.26777
LJ           5.26207        -2.44564       -0.150027
LJ          0.823568         -2.8655        0.599247
LJ           2.63769      -0.0140052        -0.08149
LJ          -1.04477       -0.581143       0.0234425
LJ          -2.03806         2.00408       0.0655936
LJ         -0.586199        -0.54758          2.2488
LJ          -1.63239        0.180827         -0.4846
LJ          0.255835        -2.57006       -0.333542
LJ         -0.857714         1.07395        -0.57271
LJ          0.941909        0.975568         1.21454
LJ           1.16863         1.30476        0.142562
LJ           1.47276       -0.869923       -0.252466
LJ          0.504083       -0.279426       -0.250644
LJ           1.81914        -2.00131        -1.61225
LJ           1.84071       -0.984872        -2.47949
LJ         -0.906523       -0.456047        -1.10985
LJ          -1.71592         1.15877        -2.17423
LJ          -2.29675        -0.38786       0.0349098
LJ          -2.21463        -1.06636       -0.664236
LJ          0.215001         1.54869        0.761585
LJ         -0.335712        0.124911       -0.444866
LJ          -1.18566         1.23874         2.44153
LJ          0.943223         2.35002        0.359698
LJ           4.59989        -5.36543        0.114586
LJ          -0.46939        0.242376         1.31272
LJ          -4.11411         3.00887         5.32147
LJ           4.14337         1.12482         3.63921
LJ          0.772277       -0.163223         1.33367
LJ         -0.497964         2.38529        0.504121
LJ          -1.51469         2.50455         1.25514
LJ          0.435379         1.03138         3.16561
LJ        -0.0822832        -2.51741         1.52768
LJ         -0.718065        -1.42849        0.563056
LJ           2.13145        -2.15361        -6.07178
LJ           1.96796         -1.1111         2.48237
LJ          0.224931        0.595719         0.30273
LJ           1.81673        0.199305       -0.774258
LJ        -0.0878273        -1.17544         1.35577
LJ           1.50574        0.446651         1.93335
LJ          0.217595         2.50044         1.32363
LJ             -2.11        0.041837         1.00947
LJ          0.310539         1.41674         1.89855
LJ           2.88994        0.982306       -0.526673
LJ        -0.0195289       -0.600358         3.55315
LJ          -1.34996        -1.26731         2.04154
LJ          -2.43447         1.86194         1.20515
LJ          0.150623        0.343241         2.16819
LJ           1.77527        -1.31118         1.44622
LJ          -5.57661         1.61815          3.6511
LJ           6.21652        -3.63621        -2.32943
LJ           -5.0694         5.16523        -1.66156
LJ         -0.998391        0.441591        0.451467
LJ         -0.113621          1.8803       -0.279072
LJ           1.51651         1.43705         -1.5189
LJ           2.85591        -2.20808        -4.81314
LJ           3.93364         3.00755         6.39144
LJ          -1.70703          1.4835       -0.982345
LJ          -3.70269        -3.97268         6.02724
LJ           6.21971         1.35234         3.52359
LJ           0.45382        0.901619       -0.698108
LJ          -1.24933        -1.32707        -1.57293
LJ           4.82691         3.77424         1.08386
LJ          -5.74538        -5.76687        -6.11306
