108
#Comment!
LJ         -0.946244         -2.5546        0.154506
LJ          -5.08238          5.7893        0.525296
LJ            3.0427         4.17597        -3.20065
LJ           3.97964         4.90789        -3.70342
LJ           1.64082        -1.25246        -1.31333
LJ          -0.17182         1.68707       -0.969743
LJ          0.908227        -1.66115        0.294366
LJ           0.77473        -3.49757        0.193806
LJ           1.02126        -2.50187       -0.483356
LJ           1.51427        0.643618       -0.510791
LJ           2.11081         1.94924         1.37207
LJ           1.21779        -1.73273         2.22635
LJ          -1.21184       -0.845098        -1.31102
LJ           0.96456          2.4188        -1.61216
LJ         -0.670813         1.81886        0.624063
LJ         -0.362566         2.66961      -0.0628537
LJ          -1.78233         1.04595        -1.48868
LJ         -0.469811       -0.423899      0.00588295
LJ          -1.19371             3.1        0.319999
LJ         -0.203452       -0.518093        -1.13776
LJ          0.700594      -0.0894385       -0.992284
LJ         0.0882371        -1.34581       -0.454996
LJ          0.426653       -0.869937        -2.47702
LJ          0.870913           2.941         1.48757
LJ           -1.3536         4.01098        0.779262
LJ          -0.33974         2.58552         -2.7536
LJ           2.11666         2.77712        -2.23694
LJ           3.31114         1.24182         2.42444
LJ        -0.0808426         2.79298        -1.12318
LJ           1.05629         4.35022       -0.905729
LJ          -0.25348         1.70079         1.69825
LJ          0.343504        0.555135        -1.80514
LJ         0.0655884         1.65797        -2.05326
LJ           1.84446        0.955898        -1.65532
LJ          0.392753         1.47568       -0.110154
LJ         -0.678087        0.863554        -1.44415
LJ         -0.926816        -2.64161       -0.899102
LJ          -2.88576       -0.655772         1.02872
LJ          -1.51795         1.17979        0.603989
LJ          0.615029        -2.04745         1.34177
LJ         -0.855309        -1.36922        0.300345
LJ         -0.383695        -3.45186       -0.158709
LJ          -1.90595        -1.41957        0.697175
LJ         -0.861808       -0.590737         1.21844
LJ         -0.092714        -3.93514        0.882312
LJ          -6.06507        -2.38126       -0.362662
LJ        -0.0480596        -2.41613       -0.430431
LJ           1.51403        -2.68562        0.603028
LJ          -1.11653        0.129768       -0.718507
LJ          -1.18475         2.14864       -0.638596
LJ          0.291439      -0.0355583         1.01158
LJ          -2.18584        0.288103       -0.832143
LJ         -0.434938         -1.6945        -1.44495
LJ           0.90741         1.27618        -1.18762
LJ           1.39714         0.57158        0.653315
LJ          0.943431       -0.891768         1.23236
LJ           0.90712       -0.448014     -0.00765227
LJ          0.212501        0.454227       -0.024529
LJ           1.70543       -0.350908       -0.803428
LJ           1.63396         -0.9809        0.478218
LJ          -1.49608        0.106634        -1.78964
LJ           5.24727         4.48461         2.54765
LJ          -2.00632         1.49312       -0.417087
LJ          -1.56894       -0.927885       -0.287214
LJ          0.353896         1.06058        0.924375
LJ         -0.718586         1.04346       -0.217918
LJ         -0.662007        0.601643        0.723608
LJ          0.680816         2.23032       -0.649369
LJ           2.98034         6.16723         5.30774
LJ           1.81758         2.19883         2.33575
LJ          -4.39486        0.162257         6.39088
LJ         -0.825914        -6.42068        -5.24451
LJ         -0.192222        -2.04421        0.604809
LJ           2.54541         1.85621        0.308658
LJ          -0.24202        0.500007         1.99516
LJ          0.960568        0.901271         1.83579
LJ          -1.11204        -3.40893        0.824046
LJ         -0.940097        -1.69257         1.44435
LJ           1.13442         2.91898         4.85384
LJ          -4.14901         -2.1068         2.16195
LJ          0.132706        -1.06575        0.613866
LJ           1.77101        -1.79744       -0.394667
LJ         -0.462234         -2.7454         1.42625
LJ         0.0486434        -1.15216         1.81887
LJ          -2.63103        0.325378        0.450767
LJ          -1.51317       0.0174051        0.299752
LJ        -0.0718544        -3.61326         1.88099
LJ          -3.78995         1.50615         3.30556
LJ          0.508702       -0.190988         2.32903
LJ         -0.712575        -1.58605         2.50847
LJ          -1.79442          2.1667        0.582907
LJ          0.354179        -1.30892         2.88839
LJ         0.0456495        -2.23489         2.21726
LJ         -0.612643        -5.48793         6.24969
LJ          -6.44031        -5.72599        0.577091
LJ          -6.23093         2.62476        -4.85831
LJ           -1.9991       -0.268317         1.69642
LJ          0.349389         2.16002        0.610962
LJ           1.07414         3.08308        0.544349
LJ           2.06582        -2.73728       -0.677404
LJ           5.28789         3.64775         1.09379
LJ           -5.4148         1.57623        -3.13077
LJ         -0.172525         5.26545         1.19578
LJ           5.58699        -6.31654         2.84134
LJ           2.28817         2.13759         3.70479
LJ          -2.54076       -0.555488       -0.107342
LJ           1.26693         3.06613        -4.72966
LJ           -6.4492        0.600987         2.88221
