108
#Comment!
LJ          -1.76587        -2.29483        0.131473
LJ          -4.85219        -6.19112          2.6689
LJ           5.12252         5.09113        -4.00555
LJ           4.73882         6.17005        -3.36818
LJ           2.45899        -1.95292        -1.00333
LJ         -0.243529         1.48255        -1.92207
LJ          0.961384        -2.04484       -0.468489
LJ          0.706061        -3.05606        0.122465
LJ          0.405359        -3.01588        -1.01225
LJ           1.61437         1.20086       -0.279993
LJ           2.85624           2.201         2.31526
LJ           1.16324        -1.67065         2.29467
LJ          -1.14594        -1.12085        -1.61748
LJ          0.484921         3.19209        -1.84872
LJ         -0.686264         1.47261        0.291109
LJ         -0.944447         2.14874         -1.1854
LJ          -1.90143        0.687586         -1.5404
LJ           0.40628       -0.202993      -0.0397091
LJ          -1.44346         2.05702       -0.198941
LJ         -0.519017       -0.166676       -0.907281
LJ           1.28031        0.255239        -1.41786
LJ           1.44952        -1.32956        -1.15002
LJ          0.412709       -0.640657        -1.91325
LJ           2.68623        0.446265         2.10434
LJ         -0.962281         3.84708          2.6721
LJ          0.478369         2.93935        -2.89185
LJ            1.5782         2.53424        -1.32171
LJ           2.45322         1.66678         3.08267
LJ         -0.616275         2.46357        -2.40352
LJ         -0.559862         3.18211        -1.58706
LJ          0.435886         1.93842          3.5594
LJ          0.243592        0.447159        -1.52268
LJ           0.65862         2.13698        -1.99237
LJ           1.00628        0.583036        -2.44187
LJ        -0.0747845         1.34996       -0.798193
LJ          -1.03394        0.146791        -1.89905
LJ          -1.45865        -1.93257       -0.837004
LJ          -2.37355       -0.417754         1.34567
LJ          -1.56061         1.00388         1.15119
LJ          0.453355        -2.51549         1.05801
LJ          -1.19073        -1.24015       0.0347675
LJ         -0.673364         -2.8911       -0.288521
LJ          -2.19122        -1.31602        0.583923
LJ         -0.654319       -0.375504       0.0707291
LJ         -0.265904        -3.37713        0.677937
LJ          -6.36158        0.067808        -1.05213
LJ         -0.310082        -1.78902       -0.560953
LJ           1.76177        -2.83023       0.0448397
LJ           -1.5222        0.169879       -0.468965
LJ          -1.07747         1.11989       -0.903227
LJ         -0.158533       -0.522516         1.08169
LJ          -2.60478        0.115542        -1.03027
LJ          0.306204        -0.99115       -0.908274
LJ           1.12927         1.43742        -1.33502
LJ          0.869036        0.128249        0.940362
LJ          0.876512       -0.900165         1.43203
LJ           1.13875        -1.01762        0.290392
LJ          0.748318        0.577599       -0.611991
LJ           1.65035       0.0100348       -0.390387
LJ           1.25418        -2.03043         0.79339
LJ          -2.15382       -0.640116        -1.79503
LJ            4.2943         4.94145         2.96824
LJ          -1.85554         1.15656       0.0796487
LJ          -2.26816       -0.758128       -0.628724
LJ          0.467277         1.13063        0.270094
LJ         -0.303545        0.520644       -0.228197
LJ         -0.561528        0.488237        0.853785
LJ          0.456496         2.32275        -1.06331
LJ           3.14648         6.01497         4.13977
LJ           2.68902         2.73545         3.31287
LJ          -4.92803         1.58474        -6.30776
LJ          0.207766        -5.15213        -5.83289
LJ         -0.303046        -2.14574        0.480475
LJ            3.0556         1.75594         1.36324
LJ         -0.663725        0.704606         1.90475
LJ          0.600435        0.133335         1.97714
LJ          -1.33001        -2.97456        0.710846
LJ         -0.911312        -1.16324         1.07262
LJ          0.631909         4.06703         4.23701
LJ          -2.74304        -2.20298         1.92284
LJ         0.0521262        -1.15508         0.15917
LJ           1.98444        -1.77727     -0.00698009
LJ          -0.75947        -2.33284         1.49268
LJ         0.0543424           -1.59         1.32077
LJ          -2.37093         0.42565        0.439185
LJ          -1.62695       -0.321127        0.497058
LJ        -0.0139434         -3.3514         1.86797
LJ          -4.91754        0.153431         3.76565
LJ          -0.12974       -0.636988          2.1667
LJ         -0.694227        -1.54301         2.16085
LJ          -2.60558         1.70383        0.928926
LJ          0.686175        -1.66378           3.495
LJ           0.16209        -2.27617         2.28137
LJ          0.910951         6.33122        -5.89901
LJ          -5.52777         6.46156          1.3106
LJ          -5.86537         2.30716        -5.57673
LJ          -1.35732        0.035938         1.56275
LJ         -0.626939         2.73057      -0.0796326
LJ            1.0286         2.03856        0.388407
LJ           1.31559        -3.75659       -0.518897
LJ           5.13435         4.35519         3.32979
LJ          -6.01862         2.09328        -3.79192
LJ          0.905661         4.82328         3.00739
LJ           5.44671        -5.45616         3.05237
LJ           2.26145          2.9358         4.45243
LJ          -2.86677       -0.648603        0.208389
LJ           3.68932        0.389836        -4.95717
LJ           3.12196         3.08374        0.345411
