108
#Comment!
LJ          -1.61386        -1.00184        -1.38388
LJ          -3.33126        -3.29768        -4.97519
LJ          -4.85553         -3.1345        -3.18401
LJ          -3.28154        -5.02523        -3.31114
LJ          0.679345        -3.68994        -2.51246
LJ         -0.285627       -0.390949        -2.61209
LJ           1.00871        -1.80504       -0.913472
LJ           1.27053        -2.46332        -0.20023
LJ          0.257528        -1.75546        -2.03612
LJ           1.83776       -0.209869       -0.634872
LJ           4.92168         3.89415         4.04494
LJ            1.1169        -1.12585         1.45557
LJ           -1.8653        -1.03228        -2.84494
LJ         -0.169441         2.32339         -2.5705
LJ          -2.28857        0.973623        0.831763
LJ          -1.08335         1.01009        -1.29108
LJ          -1.20957       -0.120928        -1.99028
LJ          0.122968       0.0959716      -0.0210706
LJ          -1.34461        0.300712        -3.03021
LJ         -0.478241        -1.06955        -1.79121
LJ            1.2756        -2.08756        -2.27031
LJ           1.04654       -0.888198        -2.01148
LJ          0.255365       -0.264599         -1.6473
LJ           6.02157         -3.9321        -5.70829
LJ          -1.86754         1.20668        -3.57481
LJ           0.37483         1.92227       -0.717796
LJ        0.00622982         2.71342      -0.0253054
LJ           4.27328          6.1589         4.38987
LJ         -0.884441         1.23237        -3.09628
LJ          -1.20985         1.94414        -2.31817
LJ          -3.93329         6.01957        -5.70623
LJ         -0.252917        0.704243        -2.35134
LJ          0.138722         0.63335        -3.29956
LJ          0.594724         1.08771        -1.86748
LJ         -0.365421         1.63879        -1.68739
LJ          0.609577         0.20482        -2.49503
LJ          -1.30864        -2.71929       -0.175282
LJ          -1.38888       -0.732961         1.02671
LJ          -2.14996        0.208537         1.49764
LJ          0.474776         -2.8026        0.953983
LJ          -1.18946        -1.80353       -0.661833
LJ         -0.196014        -2.28144        -1.25581
LJ         -0.975011         -2.7252         0.77108
LJ         0.0831273       -0.911705        0.397995
LJ           1.16789        -3.10284        -1.37525
LJ           6.01883        -5.71047        -3.93665
LJ        -0.0431343        -1.33291       -0.656959
LJ           2.08494        -1.51763       -0.700039
LJ           -1.3268       -0.160939        -0.61935
LJ          -1.78909        0.982636        -2.21653
LJ         -0.464813      -0.0909388        0.772415
LJ          -1.68578        -1.71836        0.468826
LJ         -0.356611       -0.346668        -0.86504
LJ          0.977715        0.747238       -0.323894
LJ          0.316922        0.505019         1.08207
LJ           1.04144       -0.158019        0.365871
LJ          0.745171       -0.640069       -0.740929
LJ           1.13683        0.181297         -1.3508
LJ           2.12025        0.240063        -2.01002
LJ          0.891735        -1.47583       0.0287144
LJ          -2.89755        0.808394        -0.53048
LJ          -5.70676         6.02062        -3.93211
LJ          -2.32181         1.61019       -0.672281
LJ          -2.02789        0.311197         -1.4297
LJ          0.137293         1.18789        0.148624
LJ       -0.00267864        0.542561        -1.06337
LJ         -0.748213        0.618008      0.00975266
LJ         -0.916029         1.72254       -0.363552
LJ           3.67689         4.39555         1.31468
LJ           4.64629         4.46814         3.21982
LJ          -2.65296         3.89545         5.36137
LJ           3.89453         -2.6553         5.36136
LJ          -1.75953        -3.43942        0.856029
LJ           4.23752         3.86642         4.84213
LJ         -0.397041        0.504223         2.30604
LJ          0.708629       -0.232443         1.92568
LJ         -0.880089        -3.36701         1.70612
LJ         -0.771021        -1.62632        0.826044
LJ          -3.93561         -5.7085         6.01928
LJ          -1.80209        -2.45504         1.48337
LJ         -0.163915        -2.17801      0.00142215
LJ           1.24707        -2.09056        0.768537
LJ         -0.422427        -2.49986         1.62479
LJ          0.278567        -1.79027         1.04457
LJ          -2.09636       -0.429379       0.0279777
LJ         -0.918052       -0.948497      -0.0201728
LJ          -2.95209         -2.3575        0.892952
LJ          -5.70785        -3.93158          6.0207
LJ          -1.05647       -0.189069          1.9041
LJ          -1.24642        -1.47057         1.81685
LJ         -0.708322         1.01648        0.942363
LJ         -0.141042       -0.903905         1.53505
LJ           2.62049       -0.116509         3.41424
LJ           3.89872         5.35736        -2.65252
LJ          -2.65445         5.36074         3.89498
LJ           4.91591         2.92665         5.03929
LJ          -1.53486        0.285125        0.626496
LJ          -1.94924        0.758136       -0.248921
LJ          -1.97666         2.00009         0.66409
LJ          -3.17795       -0.386766         1.16953
LJ           1.59394         4.48504         4.29983
LJ           5.36533          3.8989        -2.64347
LJ           2.91227         4.40597         4.54055
LJ           5.36134        -2.64897         3.89824
LJ           3.78685         4.58719         3.87127
LJ           5.73353         5.24669        -1.50539
LJ          -0.99642         5.29557         5.44685
LJ           6.29299        -1.08903         5.58077
