108
#Comment!
LJ          -1.55334        -1.55334        -1.55334
LJ           -1.8833         -1.8833        -3.37716
LJ          -3.37716         -1.8833         -1.8833
LJ           -1.8833        -3.37716         -1.8833
LJ          -1.49904        -2.79558        -2.79558
LJ        -0.0917857        -2.17271        -3.17744
LJ         -0.512478        -2.21944        -2.21944
LJ        -0.0917857        -3.17744        -2.17271
LJ          0.727676        -2.71356        -2.71356
LJ           1.63599        -1.80495        -2.71299
LJ          0.768927        -1.84666        -1.84666
LJ           1.63599        -2.71299        -1.80495
LJ          -2.79558        -1.49904        -2.79558
LJ          -2.17271      -0.0917857        -3.17744
LJ          -3.17744      -0.0917857        -2.17271
LJ          -2.21944       -0.512478        -2.21944
LJ          -1.13771        -1.13771        -2.39465
LJ         0.0595583       0.0595583        -2.39381
LJ         -0.908115       -0.169297        -1.76382
LJ         -0.169297       -0.908115        -1.76382
LJ           1.09572       -0.985109        -3.17741
LJ           1.71866        0.421827        -2.79557
LJ           1.14245       -0.564593        -2.21981
LJ           2.10007       -0.985302        -2.17265
LJ          -2.71356        0.727676        -2.71356
LJ          -1.80495         1.63599        -2.71299
LJ          -2.71299         1.63599        -1.80495
LJ          -1.84666        0.768927        -1.84666
LJ         -0.985109         1.09572        -3.17741
LJ          0.421827         1.71866        -2.79557
LJ         -0.985302         2.10007        -2.17265
LJ         -0.564593         1.14245        -2.21981
LJ          0.806562        0.806562        -3.37731
LJ          0.475909        0.475909        -1.55345
LJ          0.806354         2.30016        -1.88343
LJ           2.30016        0.806354        -1.88343
LJ          -2.79558        -2.79558        -1.49904
LJ          -2.21944        -2.21944       -0.512478
LJ          -3.17744        -2.17271      -0.0917857
LJ          -2.17271        -3.17744      -0.0917857
LJ          -1.13771        -2.39465        -1.13771
LJ         -0.169297        -1.76382       -0.908115
LJ         -0.908115        -1.76382       -0.169297
LJ         0.0595583        -2.39381       0.0595583
LJ           1.09572        -3.17741       -0.985109
LJ           2.10007        -2.17265       -0.985302
LJ           1.14245        -2.21981       -0.564593
LJ           1.71866        -2.79557        0.421827
LJ          -2.39465        -1.13771        -1.13771
LJ          -1.76382       -0.169297       -0.908115
LJ          -2.39381       0.0595583       0.0595583
LJ          -1.76382       -0.908115       -0.169297
LJ         -0.939295       -0.939295       -0.939295
LJ         -0.138146       -0.138146       -0.939118
LJ         -0.939118       -0.138146       -0.138146
LJ         -0.138146       -0.939118       -0.138146
LJ          0.686698       -0.908041       -0.908041
LJ           1.31632       0.0598951        -1.13705
LJ          0.686839       -0.169137       -0.169137
LJ           1.31632        -1.13705       0.0598951
LJ          -3.17741         1.09572       -0.985109
LJ          -2.17265         2.10007       -0.985302
LJ          -2.79557         1.71866        0.421827
LJ          -2.21981         1.14245       -0.564593
LJ         -0.908041        0.686698       -0.908041
LJ         0.0598951         1.31632        -1.13705
LJ          -1.13705         1.31632       0.0598951
LJ         -0.169137        0.686839       -0.169137
LJ           1.14254         1.14254        -0.51268
LJ           1.71875         1.71875        -1.49907
LJ           1.09565         2.10029      -0.0919382
LJ           2.10029         1.09565      -0.0919382
LJ          -2.71356        -2.71356        0.727676
LJ          -1.84666        -1.84666        0.768927
LJ          -2.71299        -1.80495         1.63599
LJ          -1.80495        -2.71299         1.63599
LJ         -0.985109        -3.17741         1.09572
LJ         -0.564593        -2.21981         1.14245
LJ         -0.985302        -2.17265         2.10007
LJ          0.421827        -2.79557         1.71866
LJ          0.806562        -3.37731        0.806562
LJ           2.30016        -1.88343        0.806354
LJ          0.806354        -1.88343         2.30016
LJ          0.475909        -1.55345        0.475909
LJ          -3.17741       -0.985109         1.09572
LJ          -2.21981       -0.564593         1.14245
LJ          -2.79557        0.421827         1.71866
LJ          -2.17265       -0.985302         2.10007
LJ         -0.908041       -0.908041        0.686698
LJ         -0.169137       -0.169137        0.686839
LJ          -1.13705       0.0598951         1.31632
LJ         0.0598951        -1.13705         1.31632
LJ           1.14254        -0.51268         1.14254
LJ           2.10029      -0.0919382         1.09565
LJ           1.09565      -0.0919382         2.10029
LJ           1.71875        -1.49907         1.71875
LJ          -3.37731        0.806562        0.806562
LJ          -1.88343         2.30016        0.806354
LJ          -1.55345        0.475909        0.475909
LJ          -1.88343        0.806354         2.30016
LJ          -0.51268         1.14254         1.14254
LJ        -0.0919382         2.10029         1.09565
LJ          -1.49907         1.71875         1.71875
LJ        -0.0919382         1.09565         2.10029
LJ          0.769449        0.769449        0.769449
LJ           1.63607         1.63607        0.727574
LJ          0.727574         1.63607         1.63607
LJ           1.63607        0.727574         1.63607
