108
#Comment!
LJ          -3.23165        -3.23165        -3.23165
LJ          -2.15443        -2.15443        -3.23165
LJ          -3.23165        -2.15443        -2.15443
LJ          -2.15443        -3.23165        -2.15443
LJ          -1.07722        -3.23165        -3.23165
LJ      -1.69704e-08        -2.15443        -3.23165
LJ          -1.07722        -2.15443        -2.15443
LJ      -1.69704e-08        -3.23165        -2.15443
LJ           1.07722        -3.23165        -3.23165
LJ           2.15443        -2.15443        -3.23165
LJ           1.07722        -2.15443        -2.15443
LJ           2.15443        -3.23165        -2.15443
LJ          -3.23165        -1.07722        -3.23165
LJ          -2.15443    -1.69704e-08        -3.23165
LJ          -3.23165    -1.69704e-08        -2.15443
LJ          -2.15443        -1.07722        -2.15443
LJ          -1.07722        -1.07722        -3.23165
LJ      -1.80834e-08    -1.80834e-08        -3.23165
LJ          -1.07722    -2.45817e-08        -2.15443
LJ      -2.45817e-08        -1.07722        -2.15443
LJ           1.07722        -1.07722        -3.23165
LJ           2.15443    -1.15852e-08        -3.23165
LJ           1.07722    -2.23557e-08        -2.15443
LJ           2.15443        -1.07722        -2.15443
LJ          -3.23165         1.07722        -3.23165
LJ          -2.15443         2.15443        -3.23165
LJ          -3.23165         2.15443        -2.15443
LJ          -2.15443         1.07722        -2.15443
LJ          -1.07722         1.07722        -3.23165
LJ      -1.15852e-08         2.15443        -3.23165
LJ          -1.07722         2.15443        -2.15443
LJ      -2.23557e-08         1.07722        -2.15443
LJ           1.07722         1.07722        -3.23165
LJ           2.15443         2.15443        -3.23165
LJ           1.07722         2.15443        -2.15443
LJ           2.15443         1.07722        -2.15443
LJ          -3.23165        -3.23165        -1.07722
LJ          -2.15443        -2.15443        -1.07722
LJ          -3.23165        -2.15443    -1.69704e-08
LJ          -2.15443        -3.23165    -1.69704e-08
LJ          -1.07722        -3.23165        -1.07722
LJ      -2.45817e-08        -2.15443        -1.07722
LJ          -1.07722        -2.15443    -2.45817e-08
LJ      -1.80834e-08        -3.23165    -1.80834e-08
LJ           1.07722        -3.23165        -1.07722
LJ           2.15443        -2.15443        -1.07722
LJ           1.07722        -2.15443    -2.23557e-08
LJ           2.15443        -3.23165    -1.15852e-08
LJ          -3.23165        -1.07722        -1.07722
LJ          -2.15443    -2.45817e-08        -1.07722
LJ          -3.23165    -1.80834e-08    -1.80834e-08
LJ          -2.15443        -1.07722    -2.45817e-08
LJ          -1.07722        -1.07722        -1.07722
LJ      -2.68076e-08    -2.68076e-08        -1.07722
LJ          -1.07722    -2.68076e-08    -2.68076e-08
LJ      -2.68076e-08        -1.07722    -2.68076e-08
LJ           1.07722        -1.07722        -1.07722
LJ           2.15443    -1.80835e-08        -1.07722
LJ           1.07722    -2.45816e-08    -2.45816e-08
LJ           2.15443        -1.07722    -1.80835e-08
LJ          -3.23165         1.07722        -1.07722
LJ          -2.15443         2.15443        -1.07722
LJ          -3.23165         2.15443    -1.15852e-08
LJ          -2.15443         1.07722    -2.23557e-08
LJ          -1.07722         1.07722        -1.07722
LJ      -1.80835e-08         2.15443        -1.07722
LJ          -1.07722         2.15443    -1.80835e-08
LJ      -2.45816e-08         1.07722    -2.45816e-08
LJ           1.07722         1.07722        -1.07722
LJ           2.15443         2.15443        -1.07722
LJ           1.07722         2.15443    -1.69705e-08
LJ           2.15443         1.07722    -1.69705e-08
LJ          -3.23165        -3.23165         1.07722
LJ          -2.15443        -2.15443         1.07722
LJ          -3.23165        -2.15443         2.15443
LJ          -2.15443        -3.23165         2.15443
LJ          -1.07722        -3.23165         1.07722
LJ      -2.23557e-08        -2.15443         1.07722
LJ          -1.07722        -2.15443         2.15443
LJ      -1.15852e-08        -3.23165         2.15443
LJ           1.07722        -3.23165         1.07722
LJ           2.15443        -2.15443         1.07722
LJ           1.07722        -2.15443         2.15443
LJ           2.15443        -3.23165         2.15443
LJ          -3.23165        -1.07722         1.07722
LJ          -2.15443    -2.23557e-08         1.07722
LJ          -3.23165    -1.15852e-08         2.15443
LJ          -2.15443        -1.07722         2.15443
LJ          -1.07722        -1.07722         1.07722
LJ      -2.45816e-08    -2.45816e-08         1.07722
LJ          -1.07722    -1.80835e-08         2.15443
LJ      -1.80835e-08        -1.07722         2.15443
LJ           1.07722        -1.07722         1.07722
LJ           2.15443    -1.69705e-08         1.07722
LJ           1.07722    -1.69705e-08         2.15443
LJ           2.15443        -1.07722         2.15443
LJ          -3.23165         1.07722         1.07722
LJ          -2.15443         2.15443         1.07722
LJ          -3.23165         2.15443         2.15443
LJ          -2.15443         1.07722         2.15443
LJ          -1.07722         1.07722         1.07722
LJ      -1.69705e-08         2.15443         1.07722
LJ          -1.07722         2.15443         2.15443
LJ      -1.69705e-08         1.07722         2.15443
LJ           1.07722         1.07722         1.07722
LJ           2.15443         2.15443         1.07722
LJ           1.07722         2.15443         2.15443
LJ           2.15443         1.07722         2.15443
