108
#Comment!
LJ           2.55027        0.448021         1.56239
LJ           2.40053        -3.33334        -1.32415
LJ         -0.588972        -1.21677        0.696786
LJ          -2.41133         0.54112       -0.286973
LJ           1.51074        -1.88182         2.53857
LJ           2.22919         1.62575        -1.56288
LJ           2.70926          1.5413          0.5428
LJ           1.54212        0.208241         -1.6366
LJ           1.12601       -0.450421         1.05973
LJ          0.948112        -2.92521        0.859729
LJ          -1.90523         1.94564         2.29356
LJ           1.63832         1.63628         2.79425
LJ         -0.938341       -0.963201       -0.393319
LJ           2.53762        -1.13045       -0.447219
LJ          -1.07579       0.0672626         2.66854
LJ         -0.228551        0.830371         2.11171
LJ          0.192305        -2.66443        -1.64693
LJ          -0.50298         1.00491        0.263422
LJ          0.790932         2.34705         2.73266
LJ         -0.520233        0.094992         -1.4264
LJ          0.826038        -2.61591         1.88116
LJ          0.951657         1.12679        -1.11359
LJ           2.16711         -1.5524        -1.58148
LJ          -6.20577         2.68706         5.82405
LJ           6.16937     -0.00611241         5.22544
LJ          -1.95785         1.97614      -0.0475734
LJ          -3.08006         -5.5667        -1.17939
LJ          0.119439         -5.5409       -0.111992
LJ           2.56445         2.23928         2.52155
LJ          -3.14959        0.407089         1.44237
LJ         -0.385462         -0.4013         1.75535
LJ          -4.33488        -6.11413         1.15545
LJ          0.246171        -1.63587        -1.53401
LJ           1.76529       -0.616914       -0.909961
LJ          -1.68406         2.05519          1.0521
LJ          0.937786        -1.54954       -0.546727
LJ          0.206538        -1.96649         1.07523
LJ          0.938707        -1.58752        -2.62641
LJ          -1.94907        -0.26447         1.79094
LJ            1.4387         1.05581       -0.131089
LJ           1.50079          1.4347         1.21003
LJ          0.386114        -1.23072         1.90018
LJ          -1.02181       -0.725987        -1.80273
LJ          -2.09634       -0.334737        0.153065
LJ           1.48041        0.432863         1.48235
LJ          -0.65338        -4.25464         4.89872
LJ           1.96082        -1.12825        0.443428
LJ           2.30453           0.256        0.632803
LJ          -1.77624      -0.0246137       -0.959967
LJ          -1.14568        0.378061         1.56949
LJ          -0.38485         1.73662         2.69047
LJ          -0.60226         1.54279       -0.874229
LJ          -3.89271        -3.12775       -0.485273
LJ          -0.43331         2.67789        -1.06054
LJ          0.571523         1.61614         1.86504
LJ           2.21677       0.0824382          2.5058
LJ          0.559046        0.275106       0.0997304
LJ          0.430844        -0.47855        -1.80979
LJ           1.43346        -1.54331         1.35845
LJ             3.428        0.477693        0.778644
LJ          0.506579          1.4299        0.199642
LJ           3.68826         3.58896        -3.72966
LJ        -0.0704705        -2.10662         2.16329
LJ          -1.55002        0.114597        -2.19542
LJ         -0.965739         1.91529       0.0151964
LJ         -0.238157       0.0919941        -2.68795
LJ           2.35909       -0.641639         1.41584
LJ           2.39522         1.46493         1.73877
LJ          -3.78173        0.601042        -4.45942
LJ         -0.586873         1.98179         1.18906
LJ          -3.79375        -0.20145         6.44935
LJ           3.48284       -0.298717         1.46498
LJ          0.320672        0.815435        0.999945
LJ          0.634645         2.46585         1.05799
LJ          -2.34756        0.904206         1.85731
LJ           1.54087       -0.167313         3.31714
LJ        -0.0291211       -0.590466       -0.491054
LJ         0.0473891        0.814351       -0.623841
LJ          0.264809         4.13669         4.76128
LJ           0.56072       -0.974267        0.296799
LJ          0.282492        0.766956        -1.85218
LJ          0.649065      -0.0161933       -0.890231
LJ           1.66043       -0.861253         2.42736
LJ         -0.196824        -0.12663        0.612763
LJ           1.63872            2.36         1.91944
LJ          -1.93588        0.768651        0.692455
LJ         -0.900256        -1.41226         1.85831
LJ          -0.77844        0.997488        -2.03184
LJ          0.577576      -0.0853678         2.12039
LJ         -0.147762       -0.706939          2.7384
LJ          -1.18151          1.3132          2.0202
LJ          0.721467         1.23831         3.26144
LJ          0.920571       -0.979764         3.30028
LJ          0.113569         -3.8702        -2.70507
LJ          -3.72784        0.251526        0.383412
LJ           2.58934        -2.41564        -0.59545
LJ         -0.850963       0.0753407       -0.311819
LJ           1.22226         2.11879       -0.632174
LJ           1.57747       -0.211092       0.0878518
LJ           4.46897        0.112443        -5.40164
LJ           1.81436         2.42154        0.759662
LJ          -1.35474        0.971523       -0.327979
LJ           3.05354          3.6981        0.629839
LJ          -3.15269        -1.35985          5.9952
LJ           2.31967       -0.578797        -1.90374
LJ           1.14083        -2.32602        -1.34611
LJ          -6.03357         5.41214        -4.37239
LJ          0.608178         5.64663       -0.942658
