108
#Comment!
LJ          -1.90857         -1.8421          -1.837
LJ          -2.35516        -2.33241        -4.79236
LJ          -4.72752        -2.23096        -2.26779
LJ          -2.32504        -4.82488        -2.34365
LJ          0.123411        -3.33474        -2.40683
LJ          0.790184       -0.641325        -3.16298
LJ          0.813409         -1.0374        -1.15235
LJ           1.10679        -2.80115       -0.335731
LJ          0.567857        -2.15708         -2.4219
LJ           1.62362         0.39149       -0.533078
LJ           5.58052         4.60206         4.61677
LJ           1.21806       -0.952278        0.569767
LJ          -1.71545       -0.973781        -2.54632
LJ         -0.138593         1.36248         -2.7327
LJ          -2.60195        0.697305       -0.456111
LJ          -1.13264        0.900145        -1.26725
LJ         -0.769389       -0.494487        -2.15305
LJ         0.0265001       -0.176632       -0.388839
LJ          -1.46992        0.329786        -2.67545
LJ         -0.153919        -1.56959        -1.80452
LJ           2.06496        -1.64587        -2.94184
LJ           1.10568        -1.28679        -2.21567
LJ        -0.0666558       -0.268035        -1.40345
LJ          -6.17798        -4.22207        -5.49253
LJ          -2.12953         1.60423        -2.53553
LJ           0.69635         1.46477       -0.895015
LJ         -0.425752         1.86516        0.675379
LJ           4.71337         5.77804         4.73631
LJ           -1.2676         1.16694        -3.28651
LJ          -1.11153         1.43936        -2.23767
LJ          -4.22251        -6.17763        -5.49243
LJ         -0.477788        0.592673        -2.14754
LJ          0.197426        0.356708        -3.15006
LJ           0.71671          1.1148        -1.89819
LJ         -0.220807          1.7353        -1.54034
LJ           1.43795        0.418061        -2.64781
LJ          -2.03618        -2.84173       -0.342079
LJ          -1.32875        -1.15605        0.662729
LJ          -2.37599       -0.679025         1.00795
LJ          -0.15436        -3.11771         1.37568
LJ         -0.940872        -2.26369       -0.396031
LJ          0.488461        -2.10015       -0.964131
LJ           -1.1678        -3.06486        0.285718
LJ          0.155886       -0.701986        0.451558
LJ           1.40914        -3.07158        -1.52647
LJ          -6.17789         -5.4928        -4.22289
LJ            -0.249        -1.10495       -0.556348
LJ           1.48529        -1.72132       -0.615256
LJ          -2.69521       -0.419586       -0.155819
LJ          -1.91254        0.771116        -1.91649
LJ         -0.731651       -0.208536         0.47065
LJ          -1.71709        -1.99701        0.168156
LJ         -0.992475       -0.315705       -0.892344
LJ          0.615923        0.663705       -0.206847
LJ       -0.00989955        0.460074        0.603872
LJ           1.08361       0.0910085        0.604837
LJ           1.00538       -0.450987       -0.340604
LJ          0.804142        0.190768        -1.14396
LJ            1.7883       -0.154842        -1.58094
LJ          0.660382        -1.59384      -0.0869696
LJ          -3.54885          1.7754       -0.955463
LJ          -5.49238          -6.178        -4.22224
LJ          -1.81978         1.79046          -1.423
LJ          -1.98861      -0.0230634        -1.06473
LJ         -0.299444         1.31284        -0.23081
LJ         -0.138948        0.722822        -1.05374
LJ          -1.25214         0.76911       -0.236036
LJ          -1.08245         1.94674       -0.718488
LJ           3.68212         3.75075         1.73919
LJ           4.45109         4.45124         2.63105
LJ           -1.9502         3.54861         6.20678
LJ           3.54805        -1.95015         6.20648
LJ          -2.21331        -2.64371         1.01804
LJ            4.6563         4.66497         5.64237
LJ         -0.180108         1.08924         1.44707
LJ          0.502425       -0.438746         1.38899
LJ          -1.26432        -3.15249         1.60174
LJ         -0.332237        -1.74027        0.339382
LJ          -4.22289        -5.49277        -6.17749
LJ          -1.14155        -2.12717         1.10666
LJ        -0.0915056        -2.86087       -0.126896
LJ           1.45701        -2.11597        0.416303
LJ         0.0243195        -2.17209         1.84755
LJ          0.479156        -2.46939        0.843185
LJ          -3.16445        -1.17609          1.5991
LJ          -1.65837        -1.07096       -0.431104
LJ          -2.09666        -1.60327         1.43103
LJ          -5.49231        -4.22196        -6.17827
LJ          -0.42959       -0.185797         1.57695
LJ           -1.1943        -1.11418         1.75892
LJ          -1.19533        0.432143         1.27816
LJ         -0.294869        -1.22418         1.24655
LJ           3.57556         1.50569         3.63288
LJ           3.54949         6.20486        -1.95054
LJ          -1.95055         6.20599         3.54871
LJ           4.47671          2.6157          4.4758
LJ          -1.77722      -0.0674836        0.416117
LJ          -2.24223          1.7577       -0.138117
LJ          -1.59361         1.57137          1.1904
LJ          -2.79698        0.340197         1.31579
LJ            1.9043          3.7448         3.72985
LJ           6.21124         3.54569        -1.95105
LJ           2.63048         4.45682          4.4573
LJ           6.20746        -1.95041         3.54853
LJ            3.6813         3.70065         3.66106
LJ           3.95723         3.91934        0.175579
LJ          0.139633         3.97095         3.99432
LJ           3.99013        0.224573         3.87655
