108
#Comment!
LJ           3.12017        0.271704         1.73551
LJ           2.47808        -3.17714         0.21806
LJ         -0.811899       -0.851565         1.16314
LJ          -3.21157         1.06019        0.251439
LJ           1.71334        -1.94214         1.72645
LJ          0.805456         1.97715        -1.64913
LJ           3.04651         1.50187        0.607901
LJ           1.52724        0.248145        -1.50301
LJ            1.2891       -0.683092        0.609988
LJ           1.20334        -3.30631       -0.823847
LJ          -2.55635          2.1847         1.28446
LJ           1.37867         1.62657         3.45517
LJ          -1.22721        -1.37622        0.310302
LJ           2.73628       -0.646493        0.145976
LJ          -0.22786        0.261442           3.111
LJ         0.0978469        0.863087         1.28533
LJ          0.270598         -1.9967        -1.79621
LJ          0.358657         1.30157        0.243345
LJ          0.121485         1.80179         2.77623
LJ         -0.307124      -0.0480735        -1.29965
LJ          0.544087        -2.62524         1.93136
LJ          0.975332        0.724849       -0.401615
LJ           2.32685        -1.56064        -1.91571
LJ           6.32744         3.32681         4.75609
LJ          -5.90848        -1.80809         5.23978
LJ          -2.15912         2.50564       -0.391695
LJ          -3.18672        -6.14092       -0.958495
LJ         0.0649381        -5.14443         1.29282
LJ           1.90704         2.02925         2.42665
LJ          -3.04347        0.140706        0.932862
LJ         -0.316593       0.0120706         1.98378
LJ          -3.52776        -5.35292         2.58743
LJ          0.113357        -1.03476        -1.63405
LJ           1.51147        -1.56863        -1.09154
LJ          -1.50725         2.23146         1.20186
LJ          0.434423        -1.06238       -0.610154
LJ          0.399884        -2.20709        0.245091
LJ          -0.17772       -0.518814         -2.8723
LJ           -1.1102        0.405562         2.48408
LJ           2.38408        0.570459       -0.199984
LJ            1.6618         1.06617        0.467634
LJ          0.866305        -1.94621         1.13858
LJ          -1.19452       -0.590522        -1.02086
LJ          -1.75456       -0.393739     -0.00420338
LJ           1.87347        0.600896         1.52024
LJ           0.31736        -4.16475         4.28512
LJ           1.17559        -1.57288      -0.0242239
LJ            2.0145       0.0280838        0.624767
LJ          -2.09738        0.589026       -0.757654
LJ          -1.28287         0.17369         1.38577
LJ         -0.971038         1.27821         3.06401
LJ         -0.861501        0.875865        -1.00887
LJ          -2.74379        -2.81991       -0.138539
LJ         -0.721924         2.01749       -0.887725
LJ          0.949338         1.38986         2.39427
LJ           2.07165        0.946985         2.60813
LJ          0.579576       -0.161443      -0.0707133
LJ          0.791424       0.0911951        -2.37408
LJ           2.13135        -1.40825        0.779748
LJ           3.55573        0.454339        0.433219
LJ          0.174044         1.50766       -0.711966
LJ           4.95715         3.24176        -3.54433
LJ         -0.326662        -2.03429         1.41308
LJ          -1.04404       -0.164687         -2.4595
LJ         -0.467713         2.03224        0.127774
LJ         -0.091997        0.726177        -2.54246
LJ           1.98708       -0.449666         1.81974
LJ           1.72049         1.75621         1.29978
LJ           -4.5773          2.5955        -5.11212
LJ         -0.701358         2.15601         2.12551
LJ          -4.35722        -1.05521        -6.38531
LJ           3.43396        -1.01716         2.24121
LJ          0.873358        0.406497         0.74308
LJ          0.711605         2.03409         1.32127
LJ          -2.52081         1.12528         1.34234
LJ          0.909176        0.451408         3.20012
LJ         -0.508089       -0.418202       -0.117225
LJ        -0.0274902        0.469305       -0.506975
LJ          0.575297         5.08756         5.11867
LJ         0.0576324        -1.06973        0.647321
LJ          0.309854        0.761851        -1.48717
LJ          0.711015       -0.214157        -1.12276
LJ          0.601944       -0.543108         1.57154
LJ         -0.106774      -0.0535024        0.805177
LJ          0.824346         2.53961          2.3425
LJ          -1.82035        0.572142         0.42137
LJ          -0.54681       -0.565822         3.58961
LJ         -0.326938         2.08078        -2.19203
LJ          0.559928         0.53801         2.13681
LJ          0.382223       -0.693482         2.65166
LJ          -1.27056         1.16398         1.91348
LJ        -0.0437826         1.26928         4.04151
LJ           0.67422        -1.62055         2.15822
LJ           1.06487        -5.15277        -1.83425
LJ          -3.71763          2.1592         1.15709
LJ           1.28175        -2.73216        0.203444
LJ         -0.722951        0.608917        0.315642
LJ           1.11337         1.97853         -0.2717
LJ            1.6259       -0.346326       -0.378065
LJ           4.23335       -0.217754        -5.35412
LJ           2.11647         1.99272        0.348854
LJ           -1.3502         1.44903       -0.193463
LJ           3.31799         2.56905        0.587622
LJ          -3.32669       -0.792414         5.32017
LJ           1.59888       -0.617042         -2.2639
LJ          0.661471        -2.22536       -0.733952
LJ          -3.91472         3.56988        -5.64026
LJ          0.465758         3.15656        -2.14325
