108
#Comment!
LJ           3.83687       -0.985359        0.777046
LJ          -2.83255         2.68807         -5.4233
LJ            1.1998        -1.92503          2.6387
LJ          -1.77167         2.78386        0.342127
LJ         -0.951071         -0.1481         1.97048
LJ            1.3498        -2.88038       -0.339395
LJ          0.805278       -0.324553        -0.84414
LJ           3.13281        -2.68692       -0.583517
LJ           1.98534       -0.849025         1.61394
LJ          -1.23268        -3.01371         2.92652
LJ          0.767771        0.756955         3.20613
LJ          0.549892        0.605038      -0.0754314
LJ          0.590704        -1.60582        0.659097
LJ           2.66958        -3.80828        -4.53318
LJ           2.24479        -2.67472        -1.28549
LJ           0.42464        -2.80914         1.02864
LJ            2.9161        -2.17151         5.00254
LJ            1.5005          1.3337       -0.269172
LJ         -0.463695         5.36964        -2.53461
LJ           2.12211        -1.79406       -0.261169
LJ          -2.24431        0.440564         1.78255
LJ           1.99229          3.4872         -1.8607
LJ           2.62516      -0.0012258        0.718271
LJ          0.269025        -3.50403         -0.5788
LJ          0.868877         1.96183         1.68506
LJ         -0.336525         2.53249        -1.12814
LJ          -1.32788        0.809548       -0.922814
LJ            5.7252         5.18674        -1.92103
LJ           3.66407         1.55316         2.16661
LJ           1.37989         -3.0734         1.44521
LJ           1.05061       -0.968402         5.47666
LJ            4.8409       -0.990213         1.54499
LJ           1.65467        -1.74977         -1.2859
LJ          0.545647       -0.726693        -1.98118
LJ         0.0445476         1.60682       -0.328834
LJ           2.79928       -0.161834       -0.493795
LJ            2.7345        -1.74778        0.869805
LJ        -0.0468927        -2.37647        -1.17627
LJ          0.895186       -0.430435        0.242738
LJ           1.62259        0.255618       -0.317814
LJ            2.5158         1.93415        -0.45456
LJ         -0.329531        -2.00569         1.94954
LJ            1.1821        -1.23875       -0.496609
LJ          -0.19229       -0.140163        0.260678
LJ           1.87489         1.36124         3.37921
LJ           3.20443        -4.81004        -2.48115
LJ           3.06011        0.504856         1.71925
LJ           2.22757        -1.06175         2.97909
LJ           2.37933        -1.04087        -1.21294
LJ         -0.412239         1.96365        0.653582
LJ           2.57304         1.06814        0.944924
LJ          0.121725         4.22017         -1.7576
LJ          -2.02046         5.82957          -3.456
LJ         0.0304252      -0.0174575         1.28108
LJ           1.92413        -1.99371         1.72236
LJ            3.0983        -1.23807       -0.121973
LJ           2.47383        0.801988      -0.0205262
LJ           4.14127        -1.56443         -1.1082
LJ          0.691442       -0.901044         3.26812
LJ           3.71452        0.141065        0.939344
LJ          0.802247         1.11544        -1.42319
LJ            4.8826         -6.3116         -5.1913
LJ          0.610736        -1.15494         2.21481
LJ         -0.855591         4.68345        -1.55852
LJ           1.56192         1.66045        0.827972
LJ           1.77781        -1.25349        0.661234
LJ           1.42989        -3.43093         2.99569
LJ          0.810907         2.07397         -1.0211
LJ          0.870183         1.97379        -2.28274
LJ           2.42338         1.39538         2.43271
LJ           2.24285         1.00639        -4.57931
LJ        -0.0117907        0.272383         2.69608
LJ          0.882091        -1.95942         1.60425
LJ           1.42263        0.612411        0.726242
LJ         -0.365991        -1.20099         1.22759
LJ          0.932336       -0.734059         1.26537
LJ           2.03527        0.185935         1.79326
LJ         -0.960205         1.70249       -0.484869
LJ           3.65968       -0.710386         4.55716
LJ          0.805611       -0.119783         2.18552
LJ           1.99015       -0.646162       -0.178702
LJ            1.4079        -2.33563        0.605821
LJ           1.58383        0.458035          2.7574
LJ           2.94541       -0.513674         1.42029
LJ          0.713025         2.38689        0.541714
LJ          -1.11639       -0.300446         0.93221
LJ         -0.678954        -1.40799        0.133096
LJ         -0.294819         1.46019        -1.24787
LJ           1.24355        0.942203         1.70458
LJ          0.408912        -2.78319         2.04362
LJ          0.394453         3.10081       -0.289248
LJ          0.520152         1.25122        0.744402
LJ        -0.0151801         1.18973         1.86056
LJ         -0.141519       -0.896887       -0.687132
LJ          0.220282        -2.27652       -0.053296
LJ           2.05741         1.12629         4.68404
LJ         -0.298541        0.414835       -0.956362
LJ         -0.582757         3.08873        0.126962
LJ          -3.66294         5.94307         5.60843
LJ           4.83645         5.20271         5.90264
LJ          -1.32454         2.73071        -0.65297
LJ         -0.586674       0.0770689          -2.017
LJ          0.868252         3.31649        -1.51875
LJ           2.00026       0.0166646        -1.56055
LJ         -0.391565         3.53016        -0.92106
LJ          -1.58183        -1.14424         2.15379
LJ           5.08796        -4.06101       -0.856159
LJ            2.3844        -2.99047        0.375726
