108
#Comment!
LJ           -0.1672        -1.93188       0.0021577
LJ           6.40752         3.36984        -4.77261
LJ          -1.18208          3.0162       -0.603804
LJ          0.634268       -0.370462        -3.92201
LJ           1.01045        -1.90168       -0.736822
LJ          0.541313         1.92308        -1.16156
LJ           1.53895        -1.94444        0.248227
LJ           1.53376        -1.72999          1.7377
LJ           2.20247        -2.81359        0.237357
LJ           1.55455        0.432003         -1.0536
LJ         0.0350274         1.86411       0.0539297
LJ           1.68742       -0.153997         1.22719
LJ         -0.298834       -0.568275        -2.02761
LJ           1.88578       -0.339341        -1.78113
LJ         -0.797472         1.05831         1.52651
LJ         -0.917893          3.5574         1.40668
LJ         -0.982997        0.858818        -1.81748
LJ         -0.221765       -0.774375        0.256026
LJ          0.308294         2.76791         1.22166
LJ        -0.0578306       -0.725372        -1.02118
LJ          0.741071        -2.02822         -1.8143
LJ          0.667233        -1.07118        -0.19664
LJ          -1.18065         1.19883        -2.78508
LJ          0.579318         5.77413         -5.1537
LJ          -6.27389        -3.55387        -1.76598
LJ        -0.0301327         2.49615        -1.98791
LJ          -2.01055         2.41755        -1.48414
LJ           6.11443          2.3642       -0.868311
LJ           1.86742         3.40429        0.489981
LJ           2.82696        -6.03638        -2.67453
LJ          -1.68694         1.28964         2.24566
LJ          0.710042        0.035968        -1.92998
LJ        -0.0396459        0.816251        -2.49631
LJ          0.926521       -0.854369        -1.54407
LJ         -0.391277        0.278278        0.966988
LJ         -0.104942        0.310861        -1.41109
LJ          -1.07657        -1.88218       -0.949353
LJ          -2.20966        0.403042        -1.68478
LJ         -0.844147          1.3374        0.379396
LJ           1.54545       -0.865259        0.414973
LJ         -0.628411        -1.66922         1.11618
LJ         -0.686364        -2.62809         1.72968
LJ           -1.9452        -1.13127       -0.488062
LJ          -1.24187       -0.756494         1.45397
LJ          0.469041        -2.05804         1.48271
LJ           6.18406         3.35676        0.774879
LJ          0.796893        -2.90845       -0.294792
LJ           2.47212        -1.65752        0.975879
LJ         -0.918305       -0.936498       -0.511639
LJ         -0.882303         1.94168        -1.12237
LJ        -0.0932457        -0.62683         1.55256
LJ          -1.22415        0.736495       -0.692688
LJ        -0.0870473        -1.94809        -1.22914
LJ         -0.146831         1.16871       -0.692728
LJ          0.743956         0.98819        0.808823
LJ           1.99495       0.0603981       0.0934535
LJ           1.71661       -0.753935       -0.736246
LJ          0.676719       0.0271402       -0.770714
LJ           1.69698        -1.44731        -1.95776
LJ           2.57617       -0.218956        -0.80222
LJ          -1.21252       -0.298542        -1.33119
LJ          -4.51085         1.95563       -0.414567
LJ          -1.73268         1.35361         1.18513
LJ          -2.66869       -0.679146        -1.77004
LJ         -0.518926          1.8042         2.25548
LJ          -0.44605       0.0729085       -0.357183
LJ         -0.351017        0.255931         2.01299
LJ           0.99369          2.4249        0.279726
LJ           2.52446        -6.39075        -4.47673
LJ          0.616578        0.354901         1.67069
LJ          -3.15834        -4.51612         5.41395
LJ          -4.41846         3.68584          5.9377
LJ          0.693732        -1.10458        0.974201
LJ            0.9114         1.39929        -0.28608
LJ          -2.09412       0.0880015         2.25913
LJ          -0.43168        0.800365         2.86711
LJ          -1.64171        -1.87334         1.67203
LJ          -1.20541        -1.63006        0.146159
LJ            1.6656        0.326528         5.94572
LJ           5.46127        -1.44265         2.44874
LJ          0.613306       -0.189163        0.544013
LJ           2.81747       -0.919302      -0.0916595
LJ         -0.380668        -1.47757         2.16815
LJ           0.93199       -0.605913         1.91601
LJ          -2.72389         1.69279         2.07418
LJ          -1.36471        0.307241         1.29829
LJ           1.49904       -0.870549         2.85119
LJ          0.148441          4.3948           1.008
LJ          0.330169       -0.651416          2.7296
LJ         -0.857701       -0.524492         2.51262
LJ         -0.758374         2.40828        0.881901
LJ          0.600724        0.526592         2.83107
LJ          0.200974        -2.32938         2.69152
LJ          -4.46374        -2.29254         5.47304
LJ           6.05853        -3.93913        -1.02504
LJ           6.45155         3.66717        -2.64614
LJ          -1.18636       -0.208984          0.4733
LJ         0.0224414         1.60368         1.14657
LJ            1.3032         3.37025         1.55148
LJ           2.84422        -2.17656        -2.02677
LJ           4.78238         3.25418        -3.06186
LJ          -3.69172        0.355982        -1.63979
LJ         -0.323995         6.30068        -3.83386
LJ           6.01256          3.9709         2.19337
LJ           2.03503         1.29104       -0.383493
LJ          -1.79317      -0.0673784       -0.357302
LJ          -3.87939        -2.79721        -2.24449
LJ           2.29439         -5.1857        -2.46378
