108
#Comment!
LJ           2.57749        0.393941           1.588
LJ           2.37076        -3.28164        -1.38095
LJ         -0.539642        -1.26062        0.731081
LJ          -2.43804        0.545509        -0.29421
LJ           1.47787        -1.92866         2.54989
LJ           2.26321          1.5974         -1.5419
LJ           2.74376         1.55998        0.544186
LJ           1.54372        0.222323        -1.67408
LJ           1.18764       -0.474422         1.02656
LJ          0.960443        -2.78644        0.934497
LJ          -1.85137         1.97273         2.35214
LJ           1.65767          1.6437         2.72841
LJ          -1.01692       -0.951016       -0.377491
LJ             2.571        -1.09498       -0.440919
LJ          -1.12008       0.0686924          2.5877
LJ         -0.220583        0.795585         2.06284
LJ          0.138226         -2.7046        -1.66702
LJ         -0.498998        0.956964        0.224149
LJ          0.816181         2.38026          2.7206
LJ         -0.492946       0.0583441        -1.41117
LJ          0.837009        -2.55584         1.88551
LJ          0.958984         1.13461        -1.07386
LJ           2.12119        -1.62587          -1.605
LJ          -6.18607         2.65489         5.87756
LJ           6.12745       0.0842432         5.22522
LJ          -1.92827          2.0028       -0.103392
LJ          -3.07482        -5.53759        -1.18996
LJ         0.0941173        -5.61982       -0.164404
LJ           2.55501         2.22659         2.49398
LJ          -3.14845         0.42992         1.44444
LJ         -0.345871        -0.43505         1.68748
LJ          -4.37506        -6.15208         1.08344
LJ          0.333468        -1.67573        -1.48095
LJ           1.79906       -0.584587       -0.928139
LJ          -1.69034         1.97831         1.09272
LJ          0.947993        -1.55778        -0.50053
LJ          0.188285        -1.93948         1.14641
LJ           1.02207        -1.63058        -2.60158
LJ          -1.92704       -0.286187          1.7151
LJ           1.46429         1.08211       -0.150017
LJ            1.5005         1.41025         1.22923
LJ          0.407401        -1.17001         1.94628
LJ          -1.02287        -0.67834        -1.85749
LJ          -2.10819       -0.353772        0.176636
LJ           1.44538        0.453338         1.49879
LJ         -0.701809        -4.25879           4.929
LJ            1.9809        -1.07122        0.462678
LJ           2.26049        0.298965        0.626089
LJ          -1.72489        -0.04254       -0.995189
LJ          -1.12364        0.376188         1.62145
LJ         -0.327588         1.71191         2.62606
LJ         -0.640802         1.60092       -0.883898
LJ          -3.94904        -3.14257       -0.502551
LJ         -0.417602         2.75422        -1.04963
LJ          0.476536         1.66538         1.87766
LJ           2.31985        0.124697         2.49984
LJ          0.594313         0.23521       0.0957564
LJ          0.389542       -0.533319         -1.7592
LJ           1.32629        -1.53593         1.39765
LJ           3.36302        0.568781        0.735591
LJ          0.455033         1.47646        0.228954
LJ           3.62476          3.6062        -3.73884
LJ        -0.0730162        -2.23184         2.20734
LJ          -1.62312        0.088614         -2.2127
LJ         -0.924174         1.94888       0.0810819
LJ         -0.211909      0.00968701        -2.60896
LJ           2.31316       -0.687059         1.43069
LJ            2.4062          1.4401         1.77902
LJ          -3.74166        0.501716        -4.42814
LJ         -0.618535         1.87845         1.13657
LJ           -3.7681       -0.158751          6.4479
LJ           3.47552       -0.299244         1.49074
LJ          0.297681        0.826357         1.02163
LJ          0.663367         2.47273         1.07486
LJ          -2.26928        0.905949         1.81869
LJ           1.61348       -0.146113         3.29486
LJ         -0.038649       -0.609619       -0.588046
LJ         0.0209872        0.810227       -0.610718
LJ          0.249348         4.08858         4.74288
LJ          0.612433       -0.975525        0.310394
LJ          0.271642        0.754199        -1.87711
LJ          0.685336        0.055026       -0.940209
LJ           1.64788       -0.836937         2.43519
LJ         -0.232899       -0.108441        0.607744
LJ           1.65587         2.29475         1.85832
LJ          -1.90178        0.767238        0.716849
LJ         -0.925365        -1.48545          1.7716
LJ         -0.746595         1.01818        -2.00162
LJ          0.544013      -0.0309864         2.15317
LJ         -0.181374       -0.770667         2.75105
LJ          -1.21488         1.30315         1.96477
LJ          0.803974           1.303         3.26627
LJ          0.875753        -0.96939         3.30545
LJ          0.066712        -3.79558        -2.74093
LJ          -3.70302        0.119364        0.376116
LJ           2.63427        -2.45079       -0.620474
LJ         -0.811868       0.0262125       -0.279412
LJ           1.20816          2.0876       -0.579604
LJ           1.48838       -0.225794        0.113824
LJ           4.48089        0.128978        -5.40413
LJ           1.80668         2.46238        0.768988
LJ          -1.42008        0.971444       -0.310893
LJ            3.0448         3.73891        0.644272
LJ          -3.14203        -1.38749         6.02643
LJ           2.38248       -0.521845        -1.93236
LJ           1.18432        -2.32059        -1.38293
LJ          -6.13974         5.50303        -4.30873
LJ          0.614665         5.76876       -0.881195
