108
#Comment!
LJ          -2.03545        -1.12957        -0.31554
LJ          -4.43652        -4.44459         -5.7939
LJ           -5.1225        -4.36186        -4.05072
LJ          -4.64188        -5.35677        -4.43567
LJ            1.3863        -2.64745        -1.43903
LJ         -0.675931        0.397234        -2.39146
LJ           1.01121        -1.77081        -1.08851
LJ          0.889578        -2.76926        -0.39596
LJ        -0.0193492        -1.53053        -2.07616
LJ           1.60582       0.0249773       0.0994823
LJ           4.41269         3.14943         3.47774
LJ           1.67017         -1.1726         1.50238
LJ          -1.60633         -1.0614        -2.36747
LJ         0.0302634         2.62451        -2.23784
LJ          -2.35658        0.742866        0.446625
LJ          -1.11764         2.13328        -0.65571
LJ          -1.33558      -0.0458939        -1.75594
LJ          0.585817        0.254258        0.338642
LJ          -1.53527         0.90298        -2.91487
LJ            -1.027       -0.969495        -1.46362
LJ          0.956846        -1.75506        -2.58499
LJ            1.0771       -0.893397        -1.58663
LJ         0.0640252       -0.542572        -1.28857
LJ           5.03575        -2.81047         6.16554
LJ         -0.923493         1.66837        -5.55645
LJ          0.837389         1.80258         -1.7906
LJ          0.174664         1.88308       -0.551282
LJ           4.52682        -3.57199         4.48706
LJ         -0.703498         1.55078        -2.59335
LJ          -1.03537         2.26869        -1.83232
LJ          -2.80516         4.89548          6.1873
LJ         -0.157393         0.46083        -1.53193
LJ        -0.0586162         0.89755        -3.38549
LJ          0.386157        0.987608        -2.38527
LJ         -0.214894         1.49122        -1.56661
LJ          0.432605       -0.230746        -2.38872
LJ         -0.864939        -2.25903       -0.851561
LJ          -1.98904        -0.90752         1.58131
LJ          -2.18922        0.287639         1.59524
LJ          0.647286         -2.3926        0.846879
LJ         -0.939093        -1.22568       -0.485204
LJ          0.168075        -2.60524         -1.3893
LJ         -0.654403        -2.21939         1.24604
LJ        -0.0700412       -0.597026        0.186112
LJ          0.858138        -3.83666        -0.67798
LJ           5.90418          5.4042        -2.79616
LJ         0.0485891        -1.47238       -0.893912
LJ           1.89428       -0.854425       -0.702232
LJ          -1.31841        0.861446       -0.883585
LJ          -1.33184         1.16846        -1.87682
LJ         0.0271172      -0.0272192         1.11415
LJ          -1.34201         -1.5452        0.631368
LJ         -0.689431      -0.0826844       -0.575814
LJ           1.02452        0.995902       -0.670286
LJ          0.963154        0.562346         1.25767
LJ            1.1203       -0.753155         0.55813
LJ          0.871652       -0.669232        -0.48212
LJ          0.958766        0.224404        -1.31798
LJ           1.85044       -0.194257        -1.60969
LJ          0.712911        -1.61972        0.073732
LJ          -2.67286       -0.973543        -1.18644
LJ           5.83311          5.3149        -5.43972
LJ          -2.53569         1.21159        -1.46938
LJ          -1.77731       -0.324343       -0.846504
LJ          0.956672          1.2792        0.282766
LJ         -0.104343        0.863513       -0.566459
LJ         -0.401575        0.389984        0.290243
LJ          -1.05056         1.29913        0.150292
LJ           3.49549         5.11325         1.78631
LJ           4.39837         4.31391         3.45043
LJ          -3.53438         3.50485         5.21103
LJ           3.39185        -3.64427         5.21225
LJ          -1.32279        -2.46477        0.161222
LJ           3.42369          2.7057         3.73793
LJ         -0.743131         1.00078         1.61394
LJ          0.592399       -0.378048         1.92101
LJ          -1.24008        -3.26362         1.22078
LJ         -0.755039       -0.936396         1.21618
LJ          -2.59508         6.22111          5.2445
LJ          -2.25345        -2.05195         1.47759
LJ         -0.384687        -1.73489        0.223316
LJ           1.69472        -1.90949        0.564403
LJ         -0.039472        -2.09867         2.09533
LJ            0.3198        -1.40935         1.15302
LJ          -2.42184       -0.353844        0.558356
LJ          -1.31099       -0.481073        0.200984
LJ          -2.41559        -3.16545         1.19035
LJ           6.19956        -2.74589         5.04871
LJ         -0.616765       -0.214283         2.06517
LJ          -1.24233        -1.50642         1.93679
LJ          0.141354         1.09255        0.985857
LJ         -0.285829        -1.00239         2.79318
LJ          0.813693        -1.75732         2.44013
LJ           3.42207         5.17926        -3.62985
LJ          -3.57109         5.19137         3.48088
LJ           5.66202          2.6159         6.01643
LJ           -1.1765        0.244405        0.960745
LJ          -2.08886          1.6487       -0.130598
LJ         -0.349874         2.52419       0.0233931
LJ          -2.82303        -2.21877        0.366179
LJ            2.3772         5.32877         4.72058
LJ           5.30983         3.59652        -3.38584
LJ           3.17308         4.36494         4.66862
LJ           5.13319        -3.61409         3.57631
LJ           3.24887          3.9202         3.44476
LJ          -5.15735        -5.41402        -2.06376
LJ          -3.81326        -5.60406         -5.5328
LJ          -3.37562        -3.43532        -4.93347
