108
#Comment!
LJ           4.06316       -0.419999         1.26584
LJ           1.62965         2.57047        -1.88939
LJ          0.277988        -1.98927         1.20471
LJ            -1.574        0.721616        -1.61026
LJ        -0.0996049        0.304841          3.8018
LJ          -0.38831        -0.73282        -2.39372
LJ           1.18347        0.785639        -1.40983
LJ          0.568229        -1.14322        -2.20775
LJ           1.48662       -0.642492         2.51547
LJ          0.393282        -1.01437           2.012
LJ        -0.0176321         1.99431          2.1982
LJ          0.835675         0.87993         1.52915
LJ          -2.09437        -1.16675       -0.975431
LJ           3.21946         1.79018        0.277552
LJ          -1.68366        -2.27156         0.26592
LJ          -1.39593        -1.22881         0.53972
LJ          -2.39663       -0.483465         -3.2319
LJ          0.585791      0.00802212        0.413188
LJ          0.252196         4.10978         5.12335
LJ         -0.875471       -0.862362        -1.39822
LJ           0.48605       -0.372849         4.97325
LJ           1.04169         1.73334       -0.905987
LJ           3.53166        0.896313       -0.851964
LJ          -4.89108       0.0153182         -3.1359
LJ           3.03861        -5.89419         5.42709
LJ          0.165665         1.09997        -1.26801
LJ          -2.93139        -2.00046        -2.38578
LJ            4.6642         6.45334        -1.18315
LJ           2.58078         1.57334         1.31282
LJ         -0.309709        -1.29706        0.438667
LJ         -0.516799        -2.19549         2.42121
LJ           5.59341         3.99405        -4.41564
LJ         -0.250485        -4.80802       -0.349481
LJ           1.21856         0.29931        -2.51391
LJ        -0.0404686        0.780179        0.712932
LJ            2.8699       -0.224656         -1.4572
LJ           1.48457        -1.00807        0.269139
LJ         0.0766769        -1.92151       -0.438852
LJ         -0.595048        0.172689          0.1304
LJ           2.32393         1.00216        -1.38413
LJ          0.893538         1.81271        0.312249
LJ         -0.573036       -0.592341         2.26183
LJ          -1.19186        -1.42378        -2.83341
LJ          -1.28538       -0.474264       -0.333323
LJ           3.09357        -1.16472         1.45861
LJ          -4.37913        -4.52019        -5.70908
LJ           2.37471       -0.419272         1.88834
LJ           3.12439       -0.340127        0.738541
LJ          -1.70133       -0.657985        -2.07636
LJ          -1.15925        0.354781          1.9849
LJ          0.892883         1.01379          2.6057
LJ         -0.762509         1.10385        -2.27849
LJ           4.86781        -4.41427        -1.80441
LJ          0.183796         1.73055         1.13345
LJ          0.973798        -0.18256          1.4632
LJ           3.56934        0.667275        0.862648
LJ           1.25856      -0.0765293       -0.473873
LJ           1.16741         -1.1339       -0.734985
LJ         0.0884752       -0.852104         3.11058
LJ           4.28992        -0.76417        0.176052
LJ           1.59611        0.975755       -0.316309
LJ          -1.20973         4.87043        -4.38095
LJ           2.49494        -1.10274          2.6018
LJ          -1.59485        0.558775        -2.59978
LJ           2.00242       -0.163095        0.715194
LJ          0.351427       -0.556225         -1.3986
LJ           0.47716        -1.88525         2.61587
LJ           2.63401         1.10985       -0.326785
LJ         -0.206027        -6.31812        -2.34346
LJ         -0.126347        0.728024         1.92027
LJ          -1.20589        0.692595         6.36293
LJ           2.64737         1.74098         2.66745
LJ         -0.324744       -0.124845         1.32332
LJ            1.6299        0.907328        0.858916
LJ          -1.56548       -0.119957        0.982048
LJ           1.60572         0.14968         3.29848
LJ          0.548254       -0.982941        0.927072
LJ          0.409104        0.774977       -0.282477
LJ          0.743122         1.31383         5.04927
LJ           1.37341        -2.37911         2.00161
LJ           1.82404       -0.183577        -1.67857
LJ           0.33306       -0.731652       -0.288401
LJ           1.80489        0.629835         1.90508
LJ           1.53407         -1.2876         1.42764
LJ           1.52068         1.66926         1.65667
LJ         -0.824271         1.12291        -0.74291
LJ         -0.604398        -2.62316         1.09827
LJ          0.337453        0.535428        -2.07926
LJ          0.605124       0.0152051         2.59288
LJ         -0.525542        -1.44826         1.56603
LJ        -0.0951317         1.67676      -0.0112195
LJ         -0.022651         3.71687         1.11526
LJ         -0.731148         1.11737         3.42446
LJ          -1.39214        -1.67299        -1.66716
LJ         -0.984461        -1.67763       -0.539137
LJ          0.781698         1.57086        -2.30229
LJ         -0.357774        0.157134       -0.988082
LJ         -0.354897         2.72533          1.2272
LJ           2.08835        -3.71674         1.41174
LJ           5.50458         1.46018        -5.65095
LJ           1.50869         5.14521        0.368494
LJ         -0.901642      0.00920988        -1.96243
LJ          0.732216         3.97994       0.0833291
LJ          -3.06767        -1.08368        -4.57932
LJ           1.73293         2.88805       -0.601901
LJ          0.286777        -3.59283       -0.227395
LJ          0.854817         -1.7444         0.34091
LJ          -4.93414        -4.48437         1.63707
