108
#Comment!
LJ         -0.523193        -1.88276       -0.034135
LJ          -5.69446         4.65662        -2.61601
LJ            1.0657         3.08614        -2.70984
LJ          0.832423         1.93505        -2.95138
LJ            1.1936        -1.45146       -0.776994
LJ          0.467183         2.35722      -0.0450567
LJ            1.3635         -1.6838        0.351415
LJ          0.791773        -2.76992         1.05588
LJ           1.59088        -2.68559       -0.186889
LJ           1.73142        0.269197       -0.502103
LJ          0.789295         1.47715        0.458481
LJ           1.30804        -0.42544         1.72577
LJ          -1.09553       -0.736487        -2.11702
LJ          0.653241         1.43119        -1.46853
LJ        -0.0694624         1.61893        0.929984
LJ         -0.710367          3.5528         1.09357
LJ          -1.46294         1.17749        -1.42034
LJ        -0.0651776       -0.493497        0.552491
LJ          0.203232         3.37937        0.399387
LJ         -0.383907       -0.780924       -0.930512
LJ          0.905081        -1.03827         -1.8456
LJ          0.430531        -1.10802       -0.127817
LJ         -0.809979        0.921748        -2.51711
LJ          0.682215         4.66331         5.11894
LJ          -3.91727        -5.76096       -0.686219
LJ         -0.373843         1.58207        -1.68481
LJ        -0.0911396         2.34444         -2.5488
LJ           4.97631         1.84578        0.571903
LJ          0.655346         3.78747        -0.51114
LJ           2.15454         5.92066        -1.90775
LJ          -1.82622        0.752173         1.44512
LJ          0.239325         1.15237        -2.40901
LJ         -0.353996        0.491763        -3.62912
LJ           1.19538        0.124416        -1.66583
LJ        -0.0213165        0.715114        0.303957
LJ         -0.194729        0.458666        -1.42346
LJ          -1.46157        -2.28326       -0.811468
LJ          -2.95893        0.180413       -0.708759
LJ         -0.934279         1.31544       0.0840333
LJ           1.11215        -1.65495         1.60743
LJ         -0.666986        -1.20916         1.01046
LJ         -0.406823        -2.79534        0.605115
LJ          -1.85584        -1.52712      -0.0913351
LJ          -1.03193       -0.279937         1.53801
LJ         -0.101459        -3.40173         1.52724
LJ           -6.0758        -6.36546        0.564666
LJ          0.433362        -2.26125       -0.209742
LJ           1.77807        -2.25338         1.16299
LJ         -0.953419       -0.963096      -0.0180633
LJ         -0.911045         2.10173       -0.704503
LJ         0.0826432       -0.250729         1.58718
LJ          -1.70288        0.802992       -0.476007
LJ          0.221232        -1.73551        -1.18755
LJ        -0.0783546         1.21555       -0.726639
LJ           1.16259        0.178847        0.546884
LJ           2.22051       -0.272019        0.844486
LJ           1.84195       -0.796061       -0.076967
LJ          0.332313       -0.110013       -0.421984
LJ           2.35832      -0.0704167        -1.55181
LJ           3.27151        0.142227       -0.670904
LJ          -1.13262      -0.0222975        -1.38176
LJ          -5.81338         3.04182        0.907532
LJ          -2.00977         1.46438        0.306327
LJ          -1.59322        -1.06149        -1.05207
LJ         -0.578603         1.73204         1.82131
LJ         -0.720996       0.0395784       -0.339055
LJ         -0.728492        0.808795         1.24805
LJ            1.5793         2.72004        0.287707
LJ           2.73164          6.3813        -5.83595
LJ          0.522508        0.753302         1.14905
LJ          -3.44983        -2.07402         5.72532
LJ          -2.58846         4.81788        -5.91983
LJ          0.116927        -1.90264        0.862265
LJ          0.952557          1.0611       -0.470554
LJ          -1.24866         1.07353          2.2794
LJ          0.177579        0.727887         2.31977
LJ          -1.04336         -2.8364         1.59049
LJ          -1.30303        -2.08907        0.679886
LJ            1.4455         1.45208         5.51763
LJ          -6.04641        -1.73504         2.32913
LJ          0.914819        -0.87027         0.77446
LJ           2.28789        -1.63248       -0.635757
LJ         -0.133719        -2.31981         1.73694
LJ          0.176602        -1.30528         1.93923
LJ          -2.74204        0.999215         1.05751
LJ           -1.3738        0.490374         0.53829
LJ          0.985917        -2.76244         2.16981
LJ          -1.95571          3.5018         2.48216
LJ           1.06802       -0.502836         3.51723
LJ          -1.00114        -1.25759         2.16678
LJ         -0.768483         2.52698        0.584319
LJ          0.226333       -0.905154         2.91466
LJ         0.0857524        -2.23289         2.78375
LJ          -3.27701        -4.02271         6.01912
LJ           5.77143        -4.72849       -0.472582
LJ           6.24587         2.96572        -3.54789
LJ          -1.73903       -0.487633        0.613462
LJ          0.467948         2.59927        0.986946
LJ           1.93942         3.77071        0.931799
LJ           2.94316        -2.65272       -0.830878
LJ            5.0851         3.45591        -1.30873
LJ          -4.54407        0.888238        -2.33169
LJ         -0.484213         5.87156        -1.68531
LJ           5.82206         5.07078         2.39591
LJ           1.98509        0.751152         0.91295
LJ            -1.821       -0.262401        -0.50482
LJ          -1.95263        -5.76287        -3.64436
LJ          -1.25587        -2.74076        -5.83886
