108
#Comment!
LJ           2.81875         0.63043         1.63072
LJ           2.57941        -3.49941       -0.769851
LJ         -0.706012       -0.953128        0.568331
LJ          -2.65829         0.72377       -0.414169
LJ            1.4298        -2.14589         2.33474
LJ           1.72867         1.69334        -1.59718
LJ            2.2631         1.16884        0.839936
LJ           1.50011         0.39234        -1.71196
LJ           1.25303       -0.366934        0.869284
LJ          0.788931         -3.8132        0.262031
LJ          -2.44779          2.0587         1.72361
LJ           1.55907         1.51883         2.89626
LJ          -1.19312        -1.26625       -0.305148
LJ           2.61267        -1.01059       -0.304086
LJ         -0.601099        0.221185         2.83665
LJ         0.0191408        0.923092         2.21588
LJ          0.195844        -2.59639        -1.69323
LJ         -0.187173         1.02417        0.638916
LJ          0.484608         1.90809         2.70588
LJ         -0.544201       0.0134334        -1.18411
LJ          0.751608        -2.67455         1.78937
LJ           1.05851         1.05303       -0.816821
LJ           2.25156        -1.78741        -1.55961
LJ           -6.3634         2.94329         5.39621
LJ          -6.42132       -0.727974         5.22859
LJ          -2.56198          1.7617         0.30852
LJ          -3.12264        -5.79795        -1.09271
LJ          0.330132        -4.89607        0.305485
LJ           2.36866          2.2185         2.67356
LJ          -3.14857         0.14784         1.16751
LJ         -0.486897       -0.128989          1.7629
LJ          -4.01261        -5.81001         1.72974
LJ        -0.0357259       -0.845004        -1.57015
LJ             1.646       -0.925172        -1.11257
LJ          -1.42059         2.26911        0.904751
LJ          0.384279        -1.22588       -0.637213
LJ          0.391935        -2.42373        0.899671
LJ          0.324116        -1.18752        -2.67641
LJ          -1.96637      -0.0770658         2.34664
LJ           1.79815        0.761254       -0.164798
LJ           1.13621         1.13685        0.624254
LJ          0.521932        -1.33768         1.52389
LJ          -1.15113       -0.898319        -1.39069
LJ          -1.59452        -0.27766        0.212412
LJ           1.70065        0.666564         1.41288
LJ         -0.265621        -4.22048         4.65557
LJ           1.47561        -1.34699        0.271961
LJ           2.51944        0.180284        0.433634
LJ          -1.59872       0.0451571       -0.997237
LJ          -1.07331        0.389333         1.01337
LJ          -0.53346         1.82923         3.09746
LJ         -0.667448         1.14081        -1.03183
LJ          -3.43971        -3.00918       -0.347062
LJ         -0.537159          2.2846       -0.984253
LJ           1.10768         1.16577         2.04644
LJ           1.79507        0.473712         2.49711
LJ          0.689027        0.441453         0.19293
LJ          0.681771       -0.248283        -2.15811
LJ           1.78392        -1.64332          1.3344
LJ           3.64656        0.450222        0.772482
LJ          0.488506         1.52062      -0.0791981
LJ           4.19605         3.45051        -3.65579
LJ         -0.151985        -2.02732         2.02474
LJ          -1.32205        -0.19565        -2.09651
LJ         -0.811511         2.06376       0.0345743
LJ         -0.374887        0.528274        -2.82293
LJ           2.09129       -0.364632         1.42352
LJ           2.12291         1.98029         1.57314
LJ          -4.10161           1.392        -4.71556
LJ         -0.360969         2.31827         1.58046
LJ          -3.97281       -0.611663         6.45286
LJ           3.28662       -0.686582         1.75344
LJ          0.649618        0.511871         1.24186
LJ          0.670699         1.91627         1.05237
LJ          -2.39322        0.944946         1.96782
LJ             1.003       0.0851194         3.30262
LJ        -0.0863135        -0.43111       -0.138335
LJ         0.0932086        0.642985       -0.606933
LJ          0.388862         4.51898           4.906
LJ          0.530043        -1.08832        0.469912
LJ          0.247175         0.79362        -1.70973
LJ          0.869509       -0.207729       -0.938906
LJ           1.32605       -0.755181         2.06347
LJ        -0.0817454      -0.0730643        0.786675
LJ           1.31737         2.32174          2.1967
LJ          -2.03912         0.76618        0.647397
LJ         -0.781303       -0.769902         2.52921
LJ         -0.711907         1.47049        -2.25674
LJ          0.853672        0.235816          2.2505
LJ          0.265862        -0.48921         2.81761
LJ          -1.07335         1.34728           1.983
LJ          0.268069         1.01201         3.33902
LJ          0.835557        -1.38983          2.7988
LJ          0.493395         -4.4147        -2.37937
LJ          -3.66138         1.29232        0.530374
LJ           2.06498        -2.45987       -0.375207
LJ         -0.830839        0.482279      -0.0777737
LJ           1.25397         2.20512       -0.713811
LJ           1.65186       -0.318094       -0.131246
LJ           4.37431      -0.0197196        -5.38243
LJ           1.99232         2.37711        0.606257
LJ          -1.53624         1.28165       -0.452792
LJ           3.07425         3.31197        0.526412
LJ          -3.26503        -1.06632         5.75896
LJ           2.11652       -0.515449        -2.15582
LJ           1.26649        -2.27537        -1.05127
LJ          -5.18433         4.68476         -4.8818
LJ          0.554649         4.67287        -1.43062
