108
#Comment!
LJ          -1.95688        -2.01074       -0.292147
LJ          -4.65915        -5.48365         4.39197
LJ          -6.24844        -6.14805        -4.22351
LJ            5.6632         6.37564        -3.55954
LJ           2.51392        -2.28637        0.179334
LJ          -0.74891        0.984206        -2.23325
LJ          0.729295        -1.74332       -0.692436
LJ          0.411566        -2.59359       0.0868979
LJ        -0.0997198        -2.26748        -1.67364
LJ           1.22525         0.67702       -0.265781
LJ           3.25313         2.59934          2.7788
LJ          0.994827        -1.47799         1.96554
LJ         -0.657415        -1.42515        -2.42378
LJ         0.0590337         3.22196        -1.47893
LJ          -1.09547         1.22315      -0.0979437
LJ          -0.58888          2.3445          -1.282
LJ           -1.5134       0.0841586        -1.26289
LJ          0.598321        0.124227        0.494401
LJ          -1.98528         1.37346        -0.91266
LJ         -0.587207       -0.784541        -1.10096
LJ           1.11806       -0.881938        -2.46463
LJ           1.10174       -0.916792        -1.31142
LJ          0.341829        -1.29826        -1.93722
LJ           3.61636        -1.40351         3.87045
LJ         -0.416042         3.24951         4.36521
LJ          0.793676         2.91139        -2.11711
LJ          0.817606         2.19919        -1.36719
LJ           3.58254       0.0967795         3.71631
LJ         -0.331975         2.27488        -2.25662
LJ         -0.980583         3.20184        -1.83485
LJ          -1.30671           2.874         4.91935
LJ         -0.376793        0.177723        -1.55321
LJ          0.585924         1.85961        -2.31278
LJ          0.308597        0.707845        -2.40464
LJ          0.101203         1.50177        -1.49113
LJ          -1.26684      -0.0696616        -2.25454
LJ          -1.22079        -2.10693        -1.10802
LJ          -2.03979       -0.957749         1.56878
LJ          -1.57076        0.841422        0.833016
LJ          0.407883        -2.25975         1.12087
LJ          -1.25318        -1.27952       -0.101952
LJ         -0.958482        -3.19902        -1.11635
LJ          -2.35291         -1.0391        0.411736
LJ         -0.405202        -0.72986        0.501949
LJ         -0.300055        -3.44186        0.354578
LJ           6.31703         2.21418        -1.65724
LJ          -0.35641        -1.69023       -0.634505
LJ           1.89992         -1.3801       -0.855476
LJ         -0.758602        0.132192       -0.538082
LJ          -1.03239         1.05115        -1.20082
LJ        -0.0371615      -0.0806169          1.4633
LJ          -3.09046       -0.183257       -0.563264
LJ          0.148375       -0.419372        -0.49942
LJ           1.10299         1.12956         -1.7113
LJ           1.34312         0.27721          1.3397
LJ          0.877542       -0.755064          1.0808
LJ           1.29069       -0.485419       -0.161222
LJ          0.725535        0.174699        -1.33565
LJ           1.80864       0.0145129       -0.940322
LJ          0.908298        -1.53054        0.433593
LJ          -1.90228         -1.0753       -0.923756
LJ           4.12524         4.78918         3.85485
LJ          -1.90083        0.654826       -0.276798
LJ          -1.68815       -0.283218       -0.192934
LJ          0.603868          1.2201        0.494668
LJ          0.160795        0.820783       -0.695896
LJ         -0.357561        0.742937        0.464556
LJ         -0.251473         1.80023       -0.367458
LJ           3.36129         5.76163          2.9514
LJ           3.62142         3.32275         3.59055
LJ          -4.48479         2.40007         6.12006
LJ           1.44819         -4.5376         6.34663
LJ         -0.911701        -2.31021      -0.0825972
LJ           3.16401         1.81838         1.83042
LJ         -0.569226        0.914393         1.60834
LJ          0.733228       -0.195096         2.17755
LJ          -1.13014        -3.30633          0.8318
LJ          -1.22362        -1.27903        0.957311
LJ         -0.662721         4.98928         4.39085
LJ          -1.76233        -2.03772          1.5855
LJ         -0.126756        -1.73867        0.386532
LJ           1.88999         -1.2167         0.32886
LJ         -0.637206        -2.15194         1.21647
LJ         0.0221538        -1.29719         1.43097
LJ          -2.51343      -0.0335348        0.657818
LJ          -1.40112       -0.271526        0.792002
LJ          -1.35581        -3.56996         1.90923
LJ          -5.89284        -1.03183         4.16226
LJ         -0.238677       -0.668757         2.55897
LJ         -0.721081        -1.43996         2.06498
LJ          -1.08108         1.97734        0.809366
LJ          0.427419        -1.39663         3.80904
LJ          0.012954        -2.21254         2.11691
LJ           1.91156         5.85358         -4.9914
LJ          -4.76129         5.94109         2.13042
LJ          -6.40324         2.36597        -5.74603
LJ         -0.919373       -0.423491         1.91395
LJ          -1.30438         2.20111        -0.57298
LJ          0.631958         2.31554        0.137153
LJ         -0.294035        -4.55048       -0.363495
LJ           4.14003         5.51599         4.92722
LJ           6.32238         2.63581         -4.1336
LJ           2.44637         4.55307         3.96204
LJ           5.33462        -4.75988         3.21839
LJ           2.66612         3.28936         4.21896
LJ          -2.90509        -2.01151        -1.05992
LJ           5.80444        -1.94766        -5.14119
LJ          0.585274         5.68559         -1.7396
