108
#Comment!
LJ          -1.72093        -1.72093        -1.72093
LJ          -1.98545        -1.98545        -3.00072
LJ          -3.00072        -1.98545        -1.98545
LJ          -1.98545        -3.00072        -1.98545
LJ          -2.06771        -3.09917        -3.09917
LJ          0.428572        -2.58867        -4.13144
LJ          -1.26479        -2.50412        -2.50412
LJ          0.428572        -4.13144        -2.58867
LJ          0.458478         -2.9745         -2.9745
LJ           1.89464        -1.53641        -2.97066
LJ          0.957293        -2.03867        -2.03867
LJ           1.89464        -2.97066        -1.53641
LJ          -3.09917        -2.06771        -3.09917
LJ          -2.58867        0.428572        -4.13144
LJ          -4.13144        0.428572        -2.58867
LJ          -2.50412        -1.26479        -2.50412
LJ          -1.16369        -1.16369        -2.47734
LJ         0.0841005       0.0841005        -2.47216
LJ         -0.971498       -0.108532        -1.68706
LJ         -0.108532       -0.971498        -1.68706
LJ           1.51269        -1.50569         -4.1291
LJ           2.02501        0.989207        -3.10094
LJ           1.43101         0.19115        -2.50836
LJ           3.05268         -1.5054        -2.58793
LJ           -2.9745        0.458478         -2.9745
LJ          -1.53641         1.89464        -2.97066
LJ          -2.97066         1.89464        -1.53641
LJ          -2.03867        0.957293        -2.03867
LJ          -1.50569         1.51269         -4.1291
LJ          0.989207         2.02501        -3.10094
LJ           -1.5054         3.05268        -2.58793
LJ           0.19115         1.43101        -2.50836
LJ          0.910755        0.910755        -3.00349
LJ          0.642115        0.642115        -1.72058
LJ          0.910606         1.92561        -1.98705
LJ           1.92561        0.910606        -1.98705
LJ          -3.09917        -3.09917        -2.06771
LJ          -2.50412        -2.50412        -1.26479
LJ          -4.13144        -2.58867        0.428572
LJ          -2.58867        -4.13144        0.428572
LJ          -1.16369        -2.47734        -1.16369
LJ         -0.108532        -1.68706       -0.971498
LJ         -0.971498        -1.68706       -0.108532
LJ         0.0841005        -2.47216       0.0841005
LJ           1.51269         -4.1291        -1.50569
LJ           3.05268        -2.58793         -1.5054
LJ           1.43101        -2.50836         0.19115
LJ           2.02501        -3.10094        0.989207
LJ          -2.47734        -1.16369        -1.16369
LJ          -1.68706       -0.108532       -0.971498
LJ          -2.47216       0.0841005       0.0841005
LJ          -1.68706       -0.971498       -0.108532
LJ           -1.0063         -1.0063         -1.0063
LJ        -0.0653038      -0.0653038        -1.01284
LJ          -1.01284      -0.0653038      -0.0653038
LJ        -0.0653038        -1.01284      -0.0653038
LJ          0.608644       -0.969885       -0.969885
LJ           1.39023       0.0854409        -1.16322
LJ          0.609454       -0.106406       -0.106406
LJ           1.39023        -1.16322       0.0854409
LJ           -4.1291         1.51269        -1.50569
LJ          -2.58793         3.05268         -1.5054
LJ          -3.10094         2.02501        0.989207
LJ          -2.50836         1.43101         0.19115
LJ         -0.969885        0.608644       -0.969885
LJ         0.0854409         1.39023        -1.16322
LJ          -1.16322         1.39023       0.0854409
LJ         -0.106406        0.609454       -0.106406
LJ           1.43006         1.43006        -1.26634
LJ           2.02487         2.02487         -2.0673
LJ           1.51214         3.05344        0.427941
LJ           3.05344         1.51214        0.427941
LJ           -2.9745         -2.9745        0.458478
LJ          -2.03867        -2.03867        0.957293
LJ          -2.97066        -1.53641         1.89464
LJ          -1.53641        -2.97066         1.89464
LJ          -1.50569         -4.1291         1.51269
LJ           0.19115        -2.50836         1.43101
LJ           -1.5054        -2.58793         3.05268
LJ          0.989207        -3.10094         2.02501
LJ          0.910755        -3.00349        0.910755
LJ           1.92561        -1.98705        0.910606
LJ          0.910606        -1.98705         1.92561
LJ          0.642115        -1.72058        0.642115
LJ           -4.1291        -1.50569         1.51269
LJ          -2.50836         0.19115         1.43101
LJ          -3.10094        0.989207         2.02501
LJ          -2.58793         -1.5054         3.05268
LJ         -0.969885       -0.969885        0.608644
LJ         -0.106406       -0.106406        0.609454
LJ          -1.16322       0.0854409         1.39023
LJ         0.0854409        -1.16322         1.39023
LJ           1.43006        -1.26634         1.43006
LJ           3.05344        0.427941         1.51214
LJ           1.51214        0.427941         3.05344
LJ           2.02487         -2.0673         2.02487
LJ          -3.00349        0.910755        0.910755
LJ          -1.98705         1.92561        0.910606
LJ          -1.72058        0.642115        0.642115
LJ          -1.98705        0.910606         1.92561
LJ          -1.26634         1.43006         1.43006
LJ          0.427941         3.05344         1.51214
LJ           -2.0673         2.02487         2.02487
LJ          0.427941         1.51214         3.05344
LJ          0.961154        0.961154        0.961154
LJ            1.8954          1.8954        0.458728
LJ          0.458728          1.8954          1.8954
LJ            1.8954        0.458728          1.8954
