108
#Comment!
LJ          -1.57978        -1.57978        -1.57978
LJ          -1.98997        -1.98997        -3.37988
LJ          -3.37988        -1.98997        -1.98997
LJ          -1.98997        -3.37988        -1.98997
LJ          -1.75627        -2.99807        -2.99807
LJ         0.0328937        -2.30086        -3.67734
LJ         -0.797185        -2.30503        -2.30503
LJ         0.0328937        -3.67734        -2.30086
LJ          0.692218        -2.80001        -2.80001
LJ           1.72172        -1.76949        -2.79873
LJ            1.0009        -2.08006        -2.08006
LJ           1.72172        -2.79873        -1.76949
LJ          -2.99807        -1.75627        -2.99807
LJ          -2.30086       0.0328937        -3.67734
LJ          -3.67734       0.0328937        -2.30086
LJ          -2.30503       -0.797185        -2.30503
LJ          -0.92389        -0.92389        -2.64645
LJ           -0.1554         -0.1554        -2.64641
LJ          -1.03345      -0.0451285        -1.78573
LJ        -0.0451285        -1.03345        -1.78573
LJ           1.22445        -1.10996        -3.67662
LJ           1.92147        0.679075        -2.99835
LJ           1.22864       -0.280093         -2.3061
LJ            2.5996        -1.10987         -2.3007
LJ          -2.80001        0.692218        -2.80001
LJ          -1.76949         1.72172        -2.79873
LJ          -2.79873         1.72172        -1.76949
LJ          -2.08006          1.0009        -2.08006
LJ          -1.10996         1.22445        -3.67662
LJ          0.679075         1.92147        -2.99835
LJ          -1.10987          2.5996         -2.3007
LJ         -0.280093         1.22864         -2.3061
LJ          0.913907        0.913907        -3.38058
LJ          0.503248        0.503248        -1.58044
LJ          0.913637         2.30341        -1.99043
LJ           2.30341        0.913637        -1.99043
LJ          -2.99807        -2.99807        -1.75627
LJ          -2.30503        -2.30503       -0.797185
LJ          -3.67734        -2.30086       0.0328937
LJ          -2.30086        -3.67734       0.0328937
LJ          -0.92389        -2.64645        -0.92389
LJ        -0.0451285        -1.78573        -1.03345
LJ          -1.03345        -1.78573      -0.0451285
LJ           -0.1554        -2.64641         -0.1554
LJ           1.22445        -3.67662        -1.10996
LJ            2.5996         -2.3007        -1.10987
LJ           1.22864         -2.3061       -0.280093
LJ           1.92147        -2.99835        0.679075
LJ          -2.64645        -0.92389        -0.92389
LJ          -1.78573      -0.0451285        -1.03345
LJ          -2.64641         -0.1554         -0.1554
LJ          -1.78573        -1.03345      -0.0451285
LJ         -0.909021       -0.909021       -0.909021
LJ          -0.16782        -0.16782       -0.909353
LJ         -0.909353        -0.16782        -0.16782
LJ          -0.16782       -0.909353        -0.16782
LJ           0.70782        -1.03292        -1.03292
LJ           1.56852       -0.154246       -0.922364
LJ          0.707924      -0.0442129      -0.0442129
LJ           1.56852       -0.922364       -0.154246
LJ          -3.67662         1.22445        -1.10996
LJ           -2.3007          2.5996        -1.10987
LJ          -2.99835         1.92147        0.679075
LJ           -2.3061         1.22864       -0.280093
LJ          -1.03292         0.70782        -1.03292
LJ         -0.154246         1.56852       -0.922364
LJ         -0.922364         1.56852       -0.154246
LJ        -0.0442129        0.707924      -0.0442129
LJ           1.22874         1.22874        -0.79732
LJ           1.92172         1.92172        -1.75641
LJ           1.22399             2.6       0.0326142
LJ               2.6         1.22399       0.0326142
LJ          -2.80001        -2.80001        0.692218
LJ          -2.08006        -2.08006          1.0009
LJ          -2.79873        -1.76949         1.72172
LJ          -1.76949        -2.79873         1.72172
LJ          -1.10996        -3.67662         1.22445
LJ         -0.280093         -2.3061         1.22864
LJ          -1.10987         -2.3007          2.5996
LJ          0.679075        -2.99835         1.92147
LJ          0.913907        -3.38058        0.913907
LJ           2.30341        -1.99043        0.913637
LJ          0.913637        -1.99043         2.30341
LJ          0.503248        -1.58044        0.503248
LJ          -3.67662        -1.10996         1.22445
LJ           -2.3061       -0.280093         1.22864
LJ          -2.99835        0.679075         1.92147
LJ           -2.3007        -1.10987          2.5996
LJ          -1.03292        -1.03292         0.70782
LJ        -0.0442129      -0.0442129        0.707924
LJ         -0.922364       -0.154246         1.56852
LJ         -0.154246       -0.922364         1.56852
LJ           1.22874        -0.79732         1.22874
LJ               2.6       0.0326142         1.22399
LJ           1.22399       0.0326142             2.6
LJ           1.92172        -1.75641         1.92172
LJ          -3.38058        0.913907        0.913907
LJ          -1.99043         2.30341        0.913637
LJ          -1.58044        0.503248        0.503248
LJ          -1.99043        0.913637         2.30341
LJ          -0.79732         1.22874         1.22874
LJ         0.0326142             2.6         1.22399
LJ          -1.75641         1.92172         1.92172
LJ         0.0326142         1.22399             2.6
LJ           1.00232         1.00232         1.00232
LJ           1.72218         1.72218        0.692243
LJ          0.692243         1.72218         1.72218
LJ           1.72218        0.692243         1.72218
