108
#Comment!
LJ         -0.719832        -1.98429      -0.0626026
LJ          -5.40629         5.17482        -1.17766
LJ           1.91048         3.87378        -2.80715
LJ            2.5876         3.20451         -3.5895
LJ           1.39986         -1.8715        -1.37871
LJ        -0.0185556         2.74923       -0.434674
LJ           1.02281        -1.68761        0.267558
LJ          0.648424        -3.02067        0.610861
LJ           1.29357        -2.52655       -0.553575
LJ           1.49822        0.170718       -0.419616
LJ           1.28583         1.45708        0.723723
LJ           1.07203       -0.935458         2.15062
LJ          -1.11896       -0.846358        -1.73228
LJ          0.467742         1.47524         -1.9981
LJ         -0.624664         1.97006        0.422841
LJ        -0.0733654         3.01353        0.599947
LJ          -1.15365         1.41074        -1.19023
LJ       -0.00331431      -0.0481573        0.688978
LJ         -0.961496         3.31727       -0.245763
LJ         0.0325752       -0.473418        -1.64354
LJ           1.15599       -0.523522        -1.38057
LJ          0.164835        -1.27736       -0.141996
LJ          -1.03492      -0.0116944        -2.44002
LJ          0.750624         3.98741         3.51413
LJ          -2.57164         5.82502      0.00466912
LJ         -0.598744         2.23846        -1.84486
LJ          0.925191         2.25277        -2.51352
LJ           4.29553         1.56322         1.41529
LJ          0.533856         3.62911        -0.49161
LJ           1.70257          5.3148        -1.44883
LJ          -1.66587        0.707195         1.50966
LJ          0.372372        0.295282        -2.11616
LJ         -0.341499        0.712137        -3.03782
LJ           1.21564        0.843865        -1.30322
LJ          0.361233         1.43253        0.370979
LJ         -0.273149        0.915236        -1.43906
LJ          -1.04726        -2.90916       -0.672869
LJ           -3.1116       -0.482567      -0.0104304
LJ          -1.46011         1.33726         0.27119
LJ           1.04367         -1.9504         1.30904
LJ         -0.605912        -1.08393        0.597433
LJ          -0.47145        -2.92989        0.396594
LJ           -1.6322        -1.50094        0.419716
LJ         -0.766446       -0.402679          1.4788
LJ        -0.0644052        -3.75999        0.896851
LJ          -5.82766        -4.45046        0.220591
LJ          0.283557        -2.35185       -0.454913
LJ           1.61062        -2.45655        0.523628
LJ         -0.631061       -0.344982       -0.461325
LJ         -0.888939         2.28613       -0.543504
LJ           0.30262      -0.0850068         1.78317
LJ          -1.79107        0.445521       -0.199753
LJ         -0.493623        -1.69157        -1.30276
LJ          0.568046         1.48872       -0.656495
LJ          0.916118         0.44347        0.443747
LJ           1.41312       -0.699076        0.922232
LJ          0.866478       -0.612395      -0.0774111
LJ          0.371272      -0.0239948       -0.669626
LJ           2.10642         0.15386        -1.25118
LJ           2.41223        0.339203      -0.0681518
LJ          -1.11918        0.149782        -1.25055
LJ           6.28106         3.69499         1.70108
LJ          -1.90625         1.90575       -0.505787
LJ          -1.29839        -1.23453        -0.48035
LJ         -0.209655         1.66555          1.6194
LJ         -0.470452        0.900035       -0.143795
LJ         -0.411221        0.891343        0.935531
LJ           1.62128         2.13639        -0.12655
LJ           2.84669         6.28397         6.27137
LJ          0.937526         1.51072         1.75111
LJ          -3.97414        -1.00212         6.17346
LJ          -1.47384         5.54075        -5.24454
LJ         0.0429753        -1.95817        0.685445
LJ           1.81048         1.18831       -0.208262
LJ         -0.811021        0.870326         2.11919
LJ          0.217713        0.840477         2.58704
LJ          -1.23518        -3.47715        0.932406
LJ         -0.877637        -1.89246          1.2035
LJ           1.30249          2.1272         5.23498
LJ          -5.18376        -1.91211          2.2545
LJ           0.35824        -0.98443         1.03496
LJ           1.92637        -1.79984       -0.282271
LJ         -0.243681        -2.78841         1.37997
LJ         -0.234474        -1.30533         1.85587
LJ          -2.28145      0.00157703        0.705729
LJ          -1.03479       -0.160406        0.509718
LJ          0.512281        -3.45594         1.78396
LJ          -2.82907         2.60899         2.89113
LJ           1.22741       -0.256292         3.06298
LJ          -1.37316          -1.224         2.18941
LJ          -1.62825         2.57927         0.36233
LJ          0.125133        -1.17708         3.29383
LJ            0.1611        -2.24172         2.12544
LJ          -2.05434        -4.69371         6.11642
LJ           5.85084        -5.26296      -0.0760524
LJ           6.44605         2.81494        -4.16024
LJ          -1.93137       -0.688692         1.52355
LJ           1.07267         2.50594        0.638105
LJ           1.27543         3.68168        0.326265
LJ           2.40524         -2.9605      -0.0887152
LJ           5.16358         3.53733         -0.2553
LJ          -4.94302         1.19767        -2.69502
LJ         -0.551375         5.57305       -0.377168
LJ           5.70882         5.80034         2.61467
LJ           2.30821         1.12099         2.14648
LJ          -1.95907       -0.581883       -0.115326
LJ         -0.783374         5.32793        -4.50733
LJ          -3.55358        -1.24056         5.02117
