108
#Comment!
LJ          -1.60204       -0.930644        -1.30591
LJ          -3.38598        -3.35173        -4.98433
LJ          -4.86172        -3.18516        -3.23547
LJ          -3.33508        -5.03548        -3.36535
LJ          0.709133        -3.68597        -2.51632
LJ         -0.407263       -0.337903        -2.59386
LJ           1.03306          -1.818       -0.955196
LJ           1.27585        -2.50119       -0.180968
LJ          0.202449        -1.68794        -2.04595
LJ           1.80105        -0.25581       -0.632919
LJ           4.89633         3.85092         4.04062
LJ           1.15711        -1.12372         1.43229
LJ          -1.85935       -0.995962        -2.88035
LJ         -0.176475         2.32507        -2.55927
LJ          -2.27852          1.0484         0.84927
LJ          -1.10945         1.00815        -1.26431
LJ          -1.19512       -0.134916        -1.99807
LJ          0.153511        0.096103      -0.0611517
LJ          -1.38813         0.30322        -3.00853
LJ         -0.532928        -1.03907        -1.72185
LJ           1.26548        -2.10499        -2.20636
LJ           1.01016       -0.917713        -1.93935
LJ          0.299376       -0.237115        -1.64399
LJ           5.98777        -3.88524        -5.75741
LJ          -1.82913         1.16015        -3.62396
LJ          0.395874          1.9264        -0.70316
LJ        -0.0011108         2.74206      -0.0601986
LJ           4.27849         6.28968         4.39907
LJ          -0.87208         1.26866        -3.11053
LJ          -1.22966         1.98718        -2.30882
LJ          -3.88656         5.98562        -5.75517
LJ         -0.226903        0.701805        -2.32555
LJ          0.158356        0.637625        -3.34971
LJ          0.640069         1.06981        -1.86506
LJ         -0.360463         1.61864        -1.73223
LJ          0.600089        0.209597         -2.5616
LJ          -1.27619         -2.6978       -0.212952
LJ          -1.37973        -0.82303         1.05195
LJ          -2.18741        0.206215         1.50891
LJ          0.501633        -2.80219        0.915061
LJ          -1.15624        -1.69668       -0.645214
LJ         -0.171817        -2.28455        -1.25851
LJ         -0.898206        -2.71086        0.814437
LJ         0.0301137       -0.917629        0.367281
LJ           1.17803        -3.07328        -1.37713
LJ           5.98483        -5.75976        -3.89004
LJ        -0.0103964        -1.38853       -0.704797
LJ            2.0937        -1.47218       -0.708596
LJ          -1.26735      -0.0798987       -0.711237
LJ           -1.6839        0.986046        -2.23165
LJ         -0.487785      -0.0591393        0.855625
LJ          -1.69617        -1.70157         0.47757
LJ          -0.34801       -0.403626       -0.877065
LJ          0.930411        0.731884       -0.340316
LJ          0.349948        0.501092         1.12269
LJ           1.09329       -0.246983        0.389928
LJ          0.703041       -0.673323       -0.727615
LJ           1.13312        0.169371        -1.33913
LJ           2.09573        0.232215        -1.98012
LJ          0.897043        -1.43327       0.0372432
LJ          -2.89915        0.704222       -0.533634
LJ          -5.75577         5.98675         -3.8853
LJ          -2.30293         1.61698       -0.602671
LJ          -2.09348        0.323803        -1.45897
LJ          0.102753         1.19056        0.150317
LJ         0.0497058        0.530915        -1.06953
LJ         -0.727003        0.609912      -0.0696562
LJ         -0.932381         1.73042        -0.30948
LJ           3.66715         4.42654         1.32812
LJ           4.68338         4.49471         3.19923
LJ           -2.6909         3.91641         5.31342
LJ           3.91505        -2.69412         5.31347
LJ          -1.77246        -3.42498        0.851968
LJ           4.20055         3.82514         4.78437
LJ         -0.437976        0.538377         2.34444
LJ          0.769797       -0.250776          1.9391
LJ         -0.867165        -3.38568            1.69
LJ         -0.754915        -1.67221         0.90412
LJ          -3.88896        -5.75758         5.98532
LJ          -1.84612         -2.4372         1.46274
LJ         -0.191406        -2.14042       0.0427388
LJ           1.21091        -2.04754        0.813522
LJ         -0.366761        -2.46055          1.6267
LJ          0.283913        -1.76006         1.06668
LJ          -2.05664       -0.403152      -0.0421733
LJ         -0.931461       -0.958519        0.033596
LJ          -2.98114        -2.40226         0.89095
LJ           -5.7569        -3.88469         5.98687
LJ          -1.09024       -0.197424         1.90583
LJ          -1.25576        -1.49668         1.80613
LJ         -0.689281        0.995452        0.943356
LJ         -0.160549       -0.867063          1.5392
LJ           2.55646       -0.190078         3.39541
LJ           3.92025         5.30907        -2.69043
LJ          -2.69274         5.31277         3.91576
LJ           4.96305         2.89128         5.09949
LJ          -1.48513        0.367046        0.655861
LJ          -1.91423        0.766096       -0.181888
LJ          -1.98203         1.97554        0.589415
LJ          -3.15196       -0.451449         1.17453
LJ           1.64151         4.51862         4.32455
LJ           5.31739         3.92255        -2.67842
LJ           2.87391         4.40261         4.57768
LJ           5.31352         -2.6867          3.9194
LJ            3.7442         4.55321         3.82309
LJ           5.84231         5.32327        -1.63553
LJ          -1.10191         5.37697         5.53803
LJ             6.431        -1.17984         5.68094
