108
#Comment!
LJ           4.16761       -0.938201         1.41587
LJ          -1.23569         3.14229        -1.13953
LJ          0.438888        -2.09354         1.48985
LJ         -0.767028         2.05037        -1.74752
LJ          0.539149        0.684041         3.24025
LJ         0.0261507         -2.4012       -0.951549
LJ          0.270198        0.233833        -1.14941
LJ            1.5364        -1.54402         -1.4315
LJ           1.56595        -2.10352         2.63768
LJ          0.165457        -1.08541         2.15347
LJ        -0.0749005         1.62559         3.52211
LJ          0.433265        0.981078         1.41668
LJ         -0.356684       -0.693554       -0.387152
LJ           2.13667         4.56939        -1.00085
LJ          0.454145        -3.07943      -0.0574522
LJ         -0.684202        -1.59452        0.272538
LJ          -6.43256        -1.41367        -5.23842
LJ          0.635365         1.41291        0.412844
LJ        -0.0896277         4.64734        -5.50677
LJ          0.697528       -0.683341        -1.31839
LJ          -1.40983        0.354437         4.22468
LJ          0.772358          1.5837        -2.19814
LJ           3.79335        0.337723       -0.658039
LJ          -3.23239        -1.76345        -1.79797
LJ           1.09575        -1.41149         5.43254
LJ          0.272659         2.13894        -1.41498
LJ         -0.729056        -0.18499        -1.53911
LJ         -0.672149         6.04662         -1.5748
LJ           2.13309         2.44137         1.85052
LJ          0.331686        -1.90581        0.394476
LJ           1.36814        -1.76171         3.98087
LJ           4.32215         1.70738         5.27182
LJ          0.466272          -3.748         -1.4393
LJ          0.861432       -0.405337        -2.39876
LJ          -0.19768         1.98789        0.810664
LJ           2.60179        0.714275       -0.837425
LJ           1.63907        -1.39017        -0.13758
LJ           1.43125        -3.53239        -2.25279
LJ          0.936362        0.324449        0.479773
LJ           1.07431        0.557584        -1.72045
LJ          0.899697          1.8966       -0.455282
LJ         -0.957693        -1.10432          1.7056
LJ          0.480649        -2.49106         -1.9735
LJ         -0.323086        0.265374        0.481797
LJ           2.45749        -1.11854          3.2021
LJ           6.23079        -4.65794        -4.25076
LJ           3.49501       -0.325967         2.21616
LJ           2.95146         -1.4051         2.00622
LJ           1.25613        -1.34455         -2.6838
LJ          -1.86638         1.51592         1.82967
LJ           1.40067        0.877213         2.01632
LJ         0.0467792         2.43371        -2.72768
LJ           2.24665        -5.60364        -2.48061
LJ          -0.42631         1.59753         1.82453
LJ           2.43821       -0.563201         1.16239
LJ           2.62649       -0.575268       -0.156815
LJ           1.72309        0.197886       -0.430342
LJ           1.19941         -2.4889       -0.685452
LJ          0.575819       -0.608094         3.24799
LJ           4.12963      -0.0183835         0.65781
LJ           1.06108         0.90212        -0.69552
LJ          -4.23948         5.65128         -4.7384
LJ           1.95228       -0.608466         2.37946
LJ         -0.131448         3.20675        -1.83929
LJ           2.72851        0.444764        0.242835
LJ          0.933759       -0.488506       -0.287145
LJ          0.551378        -1.71808         2.83834
LJ           1.69511         1.81276        -1.18294
LJ           1.00812         2.90364        -2.82666
LJ          0.477431         1.54785         2.43978
LJ          0.752508         1.37947        -6.20944
LJ           2.05426         1.48194         2.76325
LJ          0.390126       -0.714869        0.552382
LJ           1.79455         1.55015        0.553628
LJ         -0.818823       -0.659118        0.696108
LJ           0.63322        -0.31232         1.44124
LJ           1.61274       -0.451846        0.479824
LJ         0.0138819         1.26694       -0.515377
LJ           1.87806       -0.996198          4.8381
LJ           1.37059        -1.16796         1.65024
LJ            1.7021       -0.553319        -1.57581
LJ          0.624902        -1.50883       -0.600725
LJ            1.9708        0.464431         1.15191
LJ           2.21064        -2.24673         1.66685
LJ          0.960824          2.0806         1.35354
LJ          -1.41659        0.369356        0.709068
LJ            -1.057        -2.87712         1.46855
LJ         -0.120593         1.16166        -1.79551
LJ          0.425004       0.0583442         2.38829
LJ         -0.491023        -2.04357         2.01301
LJ         -0.084515         2.82732       0.0493484
LJ         -0.976914         1.33204        0.587895
LJ         -0.758231        0.804874          3.4011
LJ           0.15629        -1.33965        -2.23035
LJ         -0.694872        -1.37113        -1.21524
LJ           1.05419         1.89901        -3.25553
LJ         -0.529318          0.3528       -0.534161
LJ          0.314626         2.70773         2.21757
LJ         -0.396375        -5.41107         3.36423
LJ           5.64702         2.89793        -5.99685
LJ         -0.568302         4.48792      -0.0137555
LJ         -0.231699       -0.122512        -2.55378
LJ           1.12828         2.63833        -1.87947
LJ          -5.64013       -0.273414        -3.51801
LJ           0.77567         2.91953       -0.730832
LJ          -1.04982        -3.43216        0.466901
LJ           1.37089        -1.95996        0.698049
LJ          0.183496        -2.71613          2.6315
