108
#Comment!
LJ  0.26168968825695055   -0.13400161848292141   0.12114135272772555
LJ  -0.23825767157495761   0.20219458472687871   -0.49590339027528541
LJ  0.13002693017912051   -0.16890721653224017   0.17944907279858871
LJ  -0.086174280063131534   0.19782255555799247   0.064958624496082973
LJ  -0.061055742922502827   0.055630554051124714   0.16977584573265969
LJ  0.095632156444511146   -0.20648183362460507   -0.022051642055366538
LJ  0.087305563087647295   -0.03886677807708469   -0.065902279120550314
LJ  0.24683011799334686   -0.14855620510651002   -0.001557656631742778
LJ  0.13801660484211983   -0.075344654695059562   0.14987737988346458
LJ  -0.1484670022958135   -0.26238996401990472   0.24629709097953584
LJ  0.10495920394349434   0.04675726239997266   0.29391299894822037
LJ  0.020199045739302011   0.041875580486623293   -0.010352263870761637
LJ  0.02594047464490196   -0.094597330251545   0.043904748021117934
LJ  0.23065586761753207   -0.21405024532258607   -0.40652928416931683
LJ  0.17933079119871448   -0.1292188445969715   -0.050378683277681933
LJ  0.052419205666850016   -0.25474900567266057   0.067167281478472729
LJ  0.15412988437077929   -0.17009793330623302   0.32595766195186654
LJ  0.09827269862567857   0.12232381075884322   -0.011578633809057848
LJ  -0.045300305281274128   0.43445816958520062   -0.13382729288760173
LJ  0.18035136109342828   -0.15670541018844752   0.038635524536263482
LJ  -0.17940431818324987   0.023758934510126617   0.015578386174300895
LJ  0.13373605883852382   0.25144563538232251   -0.13563577154986037
LJ  0.19162516825817144   0.021992192931540411   0.03926501135712511
LJ  0.089478613391352949   -0.30332164545256302   -0.050640730460744104
LJ  0.034096408342067251   0.20094858371500987   0.093290259895472044
LJ  -0.0044584689639695883   0.18726449128908737   -0.10188913183950256
LJ  -0.081511936459635934   -0.021076499089187219   -0.071813940319191
LJ  0.3174327857846832   0.38397212014367338   -0.15526288760457682
LJ  0.23590182889524697   0.1665611571421701   0.18604959279233593
LJ  0.11293943259352819   -0.25024323772103496   0.14673229344009003
LJ  0.048927109932006579   -0.11913949022839909   0.43087088896201597
LJ  0.38656839375328456   -0.10272719840724225   0.039500962275064083
LJ  0.11030160789723105   -0.11000930213472215   -0.10942371483816458
LJ  0.040327902210302996   -0.049014827017275241   -0.17189093408939174
LJ  0.016887319907380488   0.1301649836808623   -0.035426941569531072
LJ  0.24063871662353267   0.01672076325388611   -0.019518906520336051
LJ  0.18118275335392126   -0.082045708054954897   0.0861506965648145
LJ  0.0068971025801586759   -0.31386965165048725   -0.028447855927153654
LJ  0.072070014745259384   -0.011376833594896985   0.044137915445648622
LJ  0.12731167947111477   0.022170252413234823   -0.018245454975667558
LJ  0.18474038861809128   0.21006808477953939   -0.011304795749397231
LJ  -0.016606973801242288   -0.087591520592929212   0.16733600377325705
LJ  0.082084295941486446   -0.10631514871817796   -0.023071854909643863
LJ  0.006544190712386223   -0.040069365903186674   -0.026848883211750885
LJ  0.17187620410713533   0.10000877331750035   0.21979057204359076
LJ  0.18044385048937592   -0.37065846977006511   -0.16154528783773395
LJ  0.25993356290387792   0.026473542674905242   0.11855811213844147
LJ  0.17530310085361689   -0.10485428692570307   0.22944992822528607
LJ  0.17276969814892601   -0.055760813124587846   -0.075173820762779009
LJ  -0.062172316538566981   0.12711773409296681   0.023271312587603732
LJ  0.26242638548880381   0.10770085714714664   0.068085364509257604
LJ  0.014119852037885018   0.35623845861153491   -0.067311130894731119
LJ  -0.22491123390870649   0.39245362359346214   -0.27830595785461715
LJ  -0.0086461456678822799   -0.032376207821627472   0.07110228368459455
LJ  0.18378783695237566   -0.15698468829169732   0.12272843665364033
LJ  0.23255665537699077   -0.072747429177856732   -0.022911314129703955
LJ  0.1935237612169943   0.070991707290435024   -0.049266072708231121
LJ  0.31478827239423407   -0.032935331162880006   -0.01612222670787624
LJ  -0.0398318125755747   -0.032107388690344768   0.2401927536637066
LJ  0.28995257113448281   -0.02221334848551371   0.058554967763165724
LJ  0.067798565743821967   0.065813432562773583   -0.088293305808635647
LJ  0.30361692745529478   -0.47186655951120066   -0.4128365588563398
LJ  0.081027721762001487   -0.097595797392104194   0.20259846873248799
LJ  -0.061435187507231669   0.34974119935472503   -0.10723398009196901
LJ  0.17058423969334868   0.10697226491496574   0.050544455010340092
LJ  0.10508857794517265   -0.10688042110865689   0.078946125047984969
LJ  0.12636983075139782   -0.26397698584482415   0.23549968894429724
LJ  0.074631115180853067   0.15409609650920061   -0.085479735810913671
LJ  0.037105906251244311   0.13689299268910446   -0.18212848617900501
LJ  0.16291073339613335   0.085141655418335932   0.13861765437343507
LJ  0.18762753660998144   0.045469087044656305   -0.32159437165665872
LJ  0.028438049900332253   0.018731246263389026   0.20015129352867259
LJ  0.049252778163185976   -0.17123933352054455   0.14426783439640736
LJ  0.11782664397264091   0.047082058078766496   0.078290885961386752
LJ  -0.064039730168923267   -0.1053031465117627   0.072906875814069322
LJ  0.067389907854266226   -0.046822712588022411   0.13241350399389512
LJ  0.17978281623059464   0.00086082945622529259   0.12102538621078507
LJ  -0.066806890569318392   0.04437481298170249   -0.032625507418348944
LJ  0.27764940266854737   -0.043055334692936181   0.31394651576721766
LJ  0.12055957931332813   0.0095399395490531006   0.1786021077329511
LJ  0.14733305693340229   -0.049932045821740413   0.0088629873979233012
LJ  0.109859580541786   -0.19114765019820951   0.068078799564222039
LJ  0.20248397702426874   0.028007150855732101   0.27230132891204128
LJ  0.23208629648971274   -0.057985277647261378   0.14281333148523803
LJ  0.10682171748932616   0.21018096266985978   -0.022673515139484002
LJ  -0.097502664476217887   0.0067130463623152684   0.065833476105911212
LJ  -0.044808861685799894   -0.10991663870510895   -0.022181913054363608
LJ  -0.0084168310884100272   0.10058400776038942   -0.11442955565216206
LJ  0.071769399989215305   0.1086018084105082   0.13488664524039745
LJ  0.027908927465367109   -0.24131674993048149   0.21464133694179166
LJ  0.020380687627727049   0.21232901594349926   -0.010015659277906735
LJ  0.055559192160431772   0.12440963168089646   0.055517402498092894
LJ  0.040797835811016175   0.036984181415630007   0.10111121443715716
LJ  -0.023022838718438236   -0.08548643867541289   -0.11049295233146583
LJ  0.018407349617004066   -0.16948822586397372   0.0074432646194557625
LJ  0.17739944478110956   0.10039483390851167   0.31324518944538626
LJ  -0.0067731834016878283   0.017611169957043659   -0.096127328258585526
LJ  -0.043890724233837705   0.27574553075208341   0.05037521526965269
LJ  -0.3463419967957681   0.42939660458562084   0.47721172044721638
LJ  0.35888393833846599   0.4494246591493728   0.43985437670054767
LJ  -0.10028215654418796   0.21623278644246793   -0.021294217804912259
LJ  -0.081915568242664716   0.039504180062747418   -0.16306561463539332
LJ  0.041294076121918377   0.26364856161580563   -0.078784084548087122
LJ  0.13558530913817177   0.025229467476259322   -0.11882579587365673
LJ  -0.030484687923395599   0.27417543891315266   -0.055748836602267586
LJ  -0.075462332668751742   -0.028934985182671076   0.16766745061764984
LJ  -0.44483796436245282   -0.36868254820573682   -0.16143746928126571
LJ  0.21165558758739911   -0.23996678307124303   -0.035970229989342746
