108
#Comment!
LJ           3.69604       -0.787776        0.764271
LJ          -1.92282         2.95485        -2.29735
LJ           0.67925         -1.7994         1.60851
LJ         -0.525586         2.84165       -0.986176
LJ          0.753345        0.520072         3.21297
LJ          0.405747        -2.70198       -0.826091
LJ          0.443997        0.075795        -1.35452
LJ           1.71392        -1.88406        -0.83787
LJ           1.89549        -1.67467         2.10593
LJ       -0.00671443       -0.869631         2.10371
LJ         -0.228071          1.7594         3.02868
LJ          0.411701        0.971773         1.02639
LJ          0.156047       -0.696033        -0.58445
LJ           2.03595         5.75502        -1.92483
LJ          0.715783        -3.61168       -0.265012
LJ         -0.271821         -1.8557       0.0331141
LJ            5.7237        -1.59513        -5.83779
LJ          0.831376         1.49404        0.274949
LJ         -0.188073         4.79342        -4.82967
LJ          0.978486        -1.16368         -1.3207
LJ          -1.96222        0.307119         3.89437
LJ          0.386927         1.74206        -2.20364
LJ           3.19294       -0.199224       -0.189602
LJ          -2.62924        -2.26772        -1.57132
LJ          0.653773       -0.104138         4.87569
LJ          0.265459          1.9717        -1.20986
LJ          -1.11317        0.127957        -1.79625
LJ          -2.21459         5.87178        -1.66394
LJ           1.84888         1.96243         1.86484
LJ          0.738884         -2.4684        0.559304
LJ           1.97928        -1.28982         4.10281
LJ           4.17725        0.919673         4.46472
LJ           1.10659         -3.5546         -1.6328
LJ           1.01816       -0.157084        -2.27841
LJ         0.0399844         2.00714        0.843208
LJ           2.66216        0.722524       -0.946378
LJ           1.54901        -1.29851        0.726628
LJ           1.07708        -3.64556        -2.79035
LJ          0.699596        0.264021       0.0302146
LJ           1.42165        0.680632        -1.78386
LJ           1.46275         2.36371       -0.282802
LJ         -0.788299        -1.60786         1.61897
LJ          0.788293        -2.24635         -1.6917
LJ          -0.44758        0.219444        0.407177
LJ           2.76301       -0.666262         3.55304
LJ           5.55677        -4.69537        -3.82559
LJ           3.17155       -0.720283         2.02321
LJ           2.84849        -1.61789         2.58197
LJ           1.88884       -0.885627        -2.12241
LJ          -1.53059         1.79333         1.58566
LJ           1.26267         0.63461         1.65341
LJ          0.126588         2.85981        -2.43894
LJ           1.44405        -5.93656        -2.64941
LJ         0.0324288         1.69138         1.89527
LJ           2.47281        -1.17769         1.18266
LJ           2.30698       -0.742382       -0.199309
LJ           1.71958        0.488735       -0.326226
LJ           1.53244        -2.94353       -0.657712
LJ          0.729263        -0.60098          3.7186
LJ            4.0621        0.365814         1.12161
LJ          0.474386        0.999582       -0.759433
LJ          -5.12191         5.87942        -4.84184
LJ           1.19185       -0.609133         2.70656
LJ         -0.163254         3.79462        -2.12219
LJ            2.7859        0.136465        0.836875
LJ           1.11555       -0.735702       -0.165032
LJ           1.18558        -1.54992         3.08429
LJ           1.19775         1.57556        -1.17514
LJ           1.00628         3.19958        -2.97645
LJ          0.978124         1.38289         2.40138
LJ           1.29631         1.65692        -6.02412
LJ           2.02096         1.19547         2.57248
LJ          0.490146        -1.16018         0.65953
LJ           1.53556        0.844294         0.62285
LJ         -0.312614       -0.728115         1.12233
LJ          0.634361       -0.131715         1.16848
LJ           1.69832       -0.233398        0.974757
LJ         -0.358358         1.43114       -0.178339
LJ           2.64396        -1.10689         5.33496
LJ           1.21017       -0.878823         1.64243
LJ           2.14254       -0.186901        -1.18646
LJ          0.691612        -1.79939       -0.354868
LJ           2.39654        0.128118          1.8816
LJ            2.9238        -2.11051         1.49981
LJ           0.97886          1.7429         1.38442
LJ          -1.26898       0.0252838         1.14904
LJ         -0.835849        -2.71489         1.39328
LJ        -0.0138646        0.963165         -1.7263
LJ          0.499347       0.0617585         2.21873
LJ       -0.00421684        -1.85958         2.44162
LJ          0.252261         2.35198       -0.259209
LJ          -0.67046         1.03296         1.24247
LJ         -0.634009        0.852866         2.57545
LJ          0.216016       -0.927575        -2.38971
LJ         -0.190723        -1.59316        -1.11404
LJ           1.11976         1.28868        -4.39202
LJ         -0.516569        0.543178       -0.812982
LJ        -0.0773098         2.79576         1.86735
LJ          -1.15938        -5.78036         3.88945
LJ           5.45591         3.43175        -6.24029
LJ         -0.998957          4.2723       -0.301747
LJ         -0.132537        0.121433        -2.31765
LJ          0.818724         2.77167        -1.56274
LJ           6.02462       -0.259498        -3.02836
LJ          0.169888         3.63013        -1.09385
LJ          -1.28014        -2.62629        0.383931
LJ           1.67619        -2.35002         1.30281
LJ          0.259147        -2.99883         1.59227
