108
#Comment!
LJ          -1.82432        -1.82432        -1.82432
LJ          -1.66214        -1.66214        -3.16444
LJ          -3.16444        -1.66214        -1.66214
LJ          -1.66214        -3.16444        -1.66214
LJ          -1.98648        -2.94446        -2.94446
LJ           1.09262        -2.94712        -3.84299
LJ         -0.727857        -2.41823        -2.41823
LJ           1.09262        -3.84299        -2.94712
LJ           0.22849        -3.09214        -3.09214
LJ           2.01219        -1.30342        -3.08783
LJ          0.833262        -1.91458        -1.91458
LJ           2.01219        -3.08783        -1.30342
LJ          -2.94446        -1.98648        -2.94446
LJ          -2.94712         1.09262        -3.84299
LJ          -3.84299         1.09262        -2.94712
LJ          -2.41823       -0.727857        -2.41823
LJ          -1.02075        -1.02075        -2.65185
LJ        -0.0827754      -0.0827754        -2.66989
LJ           -1.0476      -0.0308692        -1.85135
LJ        -0.0308692         -1.0476        -1.85135
LJ           1.86941        -2.17007        -3.83859
LJ           1.87111        0.915921        -2.95083
LJ           1.36337       -0.354181        -2.43724
LJ            2.7628        -2.16691        -2.94725
LJ          -3.09214         0.22849        -3.09214
LJ          -1.30342         2.01219        -3.08783
LJ          -3.08783         2.01219        -1.30342
LJ          -1.91458        0.833262        -1.91458
LJ          -2.17007         1.86941        -3.83859
LJ          0.915921         1.87111        -2.95083
LJ          -2.16691          2.7628        -2.94725
LJ         -0.354181         1.36337        -2.43724
LJ          0.592609        0.592609        -3.15948
LJ          0.748917        0.748917        -1.81516
LJ          0.592926         2.08824        -1.66913
LJ           2.08824        0.592926        -1.66913
LJ          -2.94446        -2.94446        -1.98648
LJ          -2.41823        -2.41823       -0.727857
LJ          -3.84299        -2.94712         1.09262
LJ          -2.94712        -3.84299         1.09262
LJ          -1.02075        -2.65185        -1.02075
LJ        -0.0308692        -1.85135         -1.0476
LJ           -1.0476        -1.85135      -0.0308692
LJ        -0.0827754        -2.66989      -0.0827754
LJ           1.86941        -3.83859        -2.17007
LJ            2.7628        -2.94725        -2.16691
LJ           1.36337        -2.43724       -0.354181
LJ           1.87111        -2.95083        0.915921
LJ          -2.65185        -1.02075        -1.02075
LJ          -1.85135      -0.0308692         -1.0476
LJ          -2.66989      -0.0827754      -0.0827754
LJ          -1.85135         -1.0476      -0.0308692
LJ          -1.16327        -1.16327        -1.16327
LJ         0.0614696       0.0614696        -1.06501
LJ          -1.06501       0.0614696       0.0614696
LJ         0.0614696        -1.06501       0.0614696
LJ           0.75877         -1.0468         -1.0468
LJ           1.56455      -0.0574184        -1.01954
LJ          0.755181      -0.0356403      -0.0356403
LJ           1.56455        -1.01954      -0.0574184
LJ          -3.83859         1.86941        -2.17007
LJ          -2.94725          2.7628        -2.16691
LJ          -2.95083         1.87111        0.915921
LJ          -2.43724         1.36337       -0.354181
LJ           -1.0468         0.75877         -1.0468
LJ        -0.0574184         1.56455        -1.01954
LJ          -1.01954         1.56455      -0.0574184
LJ        -0.0356403        0.755181      -0.0356403
LJ            1.3522          1.3522       -0.725726
LJ           1.87713         1.87713        -1.99142
LJ           1.86851         2.76406         1.09321
LJ           2.76406         1.86851         1.09321
LJ          -3.09214        -3.09214         0.22849
LJ          -1.91458        -1.91458        0.833262
LJ          -3.08783        -1.30342         2.01219
LJ          -1.30342        -3.08783         2.01219
LJ          -2.17007        -3.83859         1.86941
LJ         -0.354181        -2.43724         1.36337
LJ          -2.16691        -2.94725          2.7628
LJ          0.915921        -2.95083         1.87111
LJ          0.592609        -3.15948        0.592609
LJ           2.08824        -1.66913        0.592926
LJ          0.592926        -1.66913         2.08824
LJ          0.748917        -1.81516        0.748917
LJ          -3.83859        -2.17007         1.86941
LJ          -2.43724       -0.354181         1.36337
LJ          -2.95083        0.915921         1.87111
LJ          -2.94725        -2.16691          2.7628
LJ           -1.0468         -1.0468         0.75877
LJ        -0.0356403      -0.0356403        0.755181
LJ          -1.01954      -0.0574184         1.56455
LJ        -0.0574184        -1.01954         1.56455
LJ            1.3522       -0.725726          1.3522
LJ           2.76406         1.09321         1.86851
LJ           1.86851         1.09321         2.76406
LJ           1.87713        -1.99142         1.87713
LJ          -3.15948        0.592609        0.592609
LJ          -1.66913         2.08824        0.592926
LJ          -1.81516        0.748917        0.748917
LJ          -1.66913        0.592926         2.08824
LJ         -0.725726          1.3522          1.3522
LJ           1.09321         2.76406         1.86851
LJ          -1.99142         1.87713         1.87713
LJ           1.09321         1.86851         2.76406
LJ          0.844655        0.844655        0.844655
LJ           2.01265         2.01265        0.226744
LJ          0.226744         2.01265         2.01265
LJ           2.01265        0.226744         2.01265
