108
#Comment!
LJ          -1.85112        -1.85112        -1.85112
LJ          -1.45149        -1.45149        -2.86851
LJ          -2.86851        -1.45149        -1.45149
LJ          -1.45149        -2.86851        -1.45149
LJ          -1.26431         -2.5011         -2.5011
LJ         -0.470748        -3.30128         -4.0927
LJ         -0.777702        -1.80624        -1.80624
LJ         -0.470748         -4.0927        -3.30128
LJ          0.493511        -2.19881        -2.19881
LJ           1.41129        -1.42008        -2.54515
LJ           2.34347        -4.16048        -4.16048
LJ           1.41129        -2.54515        -1.42008
LJ           -2.5011        -1.26431         -2.5011
LJ          -3.30128       -0.470748         -4.0927
LJ           -4.0927       -0.470748        -3.30128
LJ          -1.80624       -0.777702        -1.80624
LJ         -0.719481       -0.719481        -1.67733
LJ          -0.01319        -0.01319        -1.38363
LJ          -1.28778       -0.286138        -2.62136
LJ         -0.286138        -1.28778        -2.62136
LJ           2.16646       -0.603829        -4.07129
LJ           1.75012        0.872802        -2.85595
LJ          0.276024       -0.809727        -1.86225
LJ           2.98139       -0.553463        -3.25345
LJ          -2.19881        0.493511        -2.19881
LJ          -1.42008         1.41129        -2.54515
LJ          -2.54515         1.41129        -1.42008
LJ          -4.16048         2.34347        -4.16048
LJ         -0.603829         2.16646        -4.07129
LJ          0.872802         1.75012        -2.85595
LJ         -0.553463         2.98139        -3.25345
LJ         -0.809727        0.276024        -1.86225
LJ        -0.0133289      -0.0133289        -2.57702
LJ          0.783351        0.783351        -2.25439
LJ           0.17593         2.01277       -0.847324
LJ           2.01277         0.17593       -0.847324
LJ           -2.5011         -2.5011        -1.26431
LJ          -1.80624        -1.80624       -0.777702
LJ           -4.0927        -3.30128       -0.470748
LJ          -3.30128         -4.0927       -0.470748
LJ         -0.719481        -1.67733       -0.719481
LJ         -0.286138        -2.62136        -1.28778
LJ          -1.28778        -2.62136       -0.286138
LJ          -0.01319        -1.38363        -0.01319
LJ           2.16646        -4.07129       -0.603829
LJ           2.98139        -3.25345       -0.553463
LJ          0.276024        -1.86225       -0.809727
LJ           1.75012        -2.85595        0.872802
LJ          -1.67733       -0.719481       -0.719481
LJ          -2.62136       -0.286138        -1.28778
LJ          -1.38363        -0.01319        -0.01319
LJ          -2.62136        -1.28778       -0.286138
LJ         -0.525582       -0.525582       -0.525582
LJ          0.373918        0.373918       -0.525313
LJ         -0.525313        0.373918        0.373918
LJ          0.373918       -0.525313        0.373918
LJ          0.630693       -0.821601       -0.821601
LJ            1.0471      -0.0216735        -1.36152
LJ           1.27732       -0.156247       -0.156247
LJ            1.0471        -1.36152      -0.0216735
LJ          -4.07129         2.16646       -0.603829
LJ          -3.25345         2.98139       -0.553463
LJ          -2.85595         1.75012        0.872802
LJ          -1.86225        0.276024       -0.809727
LJ         -0.821601        0.630693       -0.821601
LJ        -0.0216735          1.0471        -1.36152
LJ          -1.36152          1.0471      -0.0216735
LJ         -0.156247         1.27732       -0.156247
LJ           1.20688         1.20688       -0.400285
LJ           1.23661         1.23661        -1.40205
LJ           2.15515         2.91959       -0.447442
LJ           2.91959         2.15515       -0.447442
LJ          -2.19881        -2.19881        0.493511
LJ          -4.16048        -4.16048         2.34347
LJ          -2.54515        -1.42008         1.41129
LJ          -1.42008        -2.54515         1.41129
LJ         -0.603829        -4.07129         2.16646
LJ         -0.809727        -1.86225        0.276024
LJ         -0.553463        -3.25345         2.98139
LJ          0.872802        -2.85595         1.75012
LJ        -0.0133289        -2.57702      -0.0133289
LJ           2.01277       -0.847324         0.17593
LJ           0.17593       -0.847324         2.01277
LJ          0.783351        -2.25439        0.783351
LJ          -4.07129       -0.603829         2.16646
LJ          -1.86225       -0.809727        0.276024
LJ          -2.85595        0.872802         1.75012
LJ          -3.25345       -0.553463         2.98139
LJ         -0.821601       -0.821601        0.630693
LJ         -0.156247       -0.156247         1.27732
LJ          -1.36152      -0.0216735          1.0471
LJ        -0.0216735        -1.36152          1.0471
LJ           1.20688       -0.400285         1.20688
LJ           2.91959       -0.447442         2.15515
LJ           2.15515       -0.447442         2.91959
LJ           1.23661        -1.40205         1.23661
LJ          -2.57702      -0.0133289      -0.0133289
LJ         -0.847324         2.01277         0.17593
LJ          -2.25439        0.783351        0.783351
LJ         -0.847324         0.17593         2.01277
LJ         -0.400285         1.20688         1.20688
LJ         -0.447442         2.91959         2.15515
LJ          -1.40205         1.23661         1.23661
LJ         -0.447442         2.15515         2.91959
LJ           1.17343         1.17343         1.17343
LJ           1.79827         1.79827        0.193989
LJ          0.193989         1.79827         1.79827
LJ           1.79827        0.193989         1.79827
