108
#Comment!
LJ           2.60803        0.197716         1.54914
LJ           2.31338        -2.54509        -1.99494
LJ         -0.356122        -1.59034         0.62795
LJ          -2.67472        0.541404       -0.117032
LJ           1.62276        -1.08716         3.11052
LJ           2.12561         1.04006        -1.14087
LJ           2.44318         1.81256        0.716435
LJ            1.6819        0.545707        -2.12162
LJ            1.1138       -0.427746         1.46592
LJ          0.940024        -1.81968        0.563248
LJ          -1.53758         2.34962         2.81067
LJ            1.5914         1.43963         2.50169
LJ          -1.54564        -1.12302       -0.495672
LJ           2.56568       -0.887666       -0.468059
LJ          -1.18596       -0.164597         2.15512
LJ         -0.308726        0.520115         2.18815
LJ        -0.0872018        -3.04536        -1.86864
LJ         -0.647431        0.965127        0.148499
LJ          0.937864         2.30169         2.34386
LJ         -0.223894       -0.228501        -1.42131
LJ           0.72564        -2.50681         2.17315
LJ          0.947749         1.42044        -1.23732
LJ           2.58914        -1.46615        -1.37464
LJ          -5.99129         2.32762         6.41083
LJ           5.70929        0.992583         5.22774
LJ           -1.7654         2.03693       -0.336623
LJ          -3.02445        -5.24382        -1.29177
LJ         -0.709683        -5.90286       -0.532568
LJ           2.54204         2.28279          2.2483
LJ          -2.69937        0.458043         1.10529
LJ         -0.556485       -0.777227         1.53026
LJ          -4.77491         6.39668        0.360471
LJ          0.769292        -1.88431        -1.02801
LJ           1.66325       -0.571174        -1.50055
LJ          -1.80201         1.55023         1.10883
LJ           1.60382         -1.1602       -0.479068
LJ         -0.177686        -1.98681         1.64491
LJ           1.38437        -2.05059        -1.92269
LJ          -1.72473       -0.471243         1.21997
LJ           1.47799        0.929069       -0.276253
LJ           1.37996         1.48518        0.772477
LJ          0.645269       -0.907007         2.26042
LJ          -1.14195       -0.868978        -2.07557
LJ          -2.04904       -0.327196       0.0555458
LJ            1.6176        0.555534         1.68868
LJ          -1.18574        -4.29893         5.23038
LJ           1.89656       -0.916278        0.662666
LJ           1.46677        0.282555        0.731775
LJ           -1.5498      -0.0552104        -1.19161
LJ         -0.836916        0.243305         1.12228
LJ         0.0627747         1.54345         2.92248
LJ         -0.847811         1.98041        -1.05437
LJ          -4.50856        -3.29232       -0.675544
LJ         -0.370244         2.96231       -0.713149
LJ          0.880601         1.29346         1.71327
LJ           3.05986        0.325793         2.49676
LJ          0.425696        0.573126       -0.177896
LJ          0.727913       -0.742116        -1.80785
LJ           1.55577        -1.46073         1.87346
LJ           2.78573        0.731189        0.447362
LJ          0.278642         1.35757        0.605792
LJ            2.9895         3.77789        -3.82978
LJ         -0.519924        -2.71929         2.44487
LJ           -2.1012         0.10782        -2.11105
LJ         -0.711236         2.12193        0.096394
LJ         -0.164052       0.0726194        -2.57115
LJ           2.44449        -1.01525         1.93787
LJ           2.40997         1.21544         1.74493
LJ          -3.33825       -0.494259        -4.12647
LJ         -0.670706         1.24449         1.31713
LJ          -3.45808        0.144066         6.41463
LJ           3.40637       -0.622129         1.68899
LJ          0.504978        0.491073         1.15593
LJ           0.70406         2.43687         1.04069
LJ          -1.85963        0.615903         1.75909
LJ           1.67133     -0.00872773         3.32245
LJ         0.0452669       -0.915578       -0.272636
LJ       -0.00314858         1.40843       -0.645582
LJ         0.0962019         3.60086         4.55186
LJ          0.877936        -0.83237        0.579949
LJ          0.641109        0.482942        -1.69201
LJ          0.735758       -0.269112       -0.795188
LJ           1.64038       -0.357582         2.34237
LJ        -0.0419892      -0.0819689        0.499543
LJ           1.79226         2.20468         1.39891
LJ           -1.6502        0.662126        0.446707
LJ          -1.22647        -1.86382         1.25369
LJ         -0.705679        0.731464        -1.50568
LJ          0.669869        0.155124         2.51483
LJ         -0.628666        -1.01301         2.63025
LJ          -1.38239         1.41881         2.19248
LJ          0.969712         1.78971         3.32853
LJ          0.648282       -0.649141         3.30345
LJ         -0.382109        -2.92956        -2.99015
LJ          -3.02382       -0.963818        0.444813
LJ           2.81862        -2.44047        -1.03409
LJ         -0.775272       -0.125947       -0.442867
LJ          0.954663         2.03657       -0.150093
LJ           1.60197       -0.146683       -0.204725
LJ           4.60168        0.294957        -5.43112
LJ           1.83959          2.9959         0.24208
LJ          -1.36439         0.84809       -0.739244
LJ           2.90349         4.07134        0.797524
LJ          -3.08944        -1.53659         6.37147
LJ           2.74646       0.0077321        -2.00039
LJ          0.888654        -3.09163        -1.50473
LJ           5.72489         6.41165        -3.67213
LJ           1.22968        -6.44104       -0.423278
