108
#Comment!
LJ          -3.65847        -3.62099        -3.64533
LJ          -1.13363        -1.11954        -4.43217
LJ          -4.42875        -1.09334        -1.11283
LJ          -1.11747        -4.44021        -1.12238
LJ          -1.19386        -2.12123        -2.13726
LJ          0.656816       -0.652214        -2.73486
LJ          0.365467        -1.01164        -1.09265
LJ          0.689415        -2.75168        -0.65053
LJ           1.39983        -2.07202        -2.10334
LJ           1.73309        0.274767       -0.954108
LJ          -5.68288         4.99365         4.99366
LJ           1.72506       -0.998563        0.270006
LJ          -2.05455        -1.21673        -2.08481
LJ         -0.571736        0.705462        -2.67407
LJ          -2.68127        0.682486       -0.588404
LJ          -1.05674        0.322528       -0.981027
LJ         -0.858248       -0.869399        -2.88478
LJ        -0.0205276      -0.0176697       -0.798916
LJ          -1.74361        0.491255        -2.53796
LJ          0.514359        -1.77049        -2.47516
LJ           2.21509       -0.875556        -2.50733
LJ           1.18951       -0.920028        -1.84824
LJ         -0.224862        -1.10534        -1.93418
LJ           5.68986        -3.50542         -4.3473
LJ          -2.10816         1.43684        -2.07336
LJ           0.25727         1.76759        -1.03464
LJ          -0.99465         1.72383        0.268206
LJ           4.99355         -5.6828         4.99354
LJ         -0.902237         2.21717        -2.52211
LJ          -1.00399         1.14141        -1.81337
LJ          -3.50557          5.6903        -4.34735
LJ          -1.08122       -0.202685        -1.94236
LJ        -0.0634307      -0.0787268        -1.98733
LJ           0.67819         0.70064        -2.32475
LJ          0.128628         1.51441        -2.32191
LJ           1.47158        0.100009        -2.36807
LJ          -2.06705        -2.09244        -1.20704
LJ          -1.07265       -0.988002        0.339646
LJ          -2.69309       -0.645386        0.657004
LJ         -0.613286        -2.69198        0.715734
LJ         -0.844923        -2.88783       -0.860324
LJ          0.475269        -2.50159        -1.75589
LJ          -1.74614        -2.56042        0.432913
LJ        -0.0496246        -0.85886      -0.0518028
LJ           2.18198        -2.49981       -0.861701
LJ           5.68998        -4.34744        -3.50586
LJ         -0.240934        -1.90936        -1.07518
LJ           1.16607        -1.85055       -0.971505
LJ          -2.91456       -0.845915       -0.847288
LJ          -2.44865        0.551968        -1.76098
LJ         -0.772237      -0.0301118      -0.0161008
LJ          -2.42207        -1.76117        0.523383
LJ          -1.16481        -1.15683        -1.11576
LJ             1.002         1.04295       -0.373505
LJ         -0.299651        0.987716        0.967184
LJ           1.00987       -0.373107          1.0443
LJ          0.881918       -0.338992       -0.324159
LJ          0.791542        0.063455        -1.56266
LJ           1.69988       -0.882525       -0.861594
LJ          0.784492        -1.56447       0.0442136
LJ          -2.54262         2.27193       -0.905814
LJ          -4.34728         5.69009        -3.50545
LJ          -1.81052         1.17704       -0.933577
LJ          -1.97132       -0.219159        -1.12007
LJ         -0.317579        0.902793       -0.317947
LJ           0.03903        0.790843        -1.54721
LJ          -1.55442        0.781127       0.0614593
LJ         -0.844024         1.74325       -0.871275
LJ             3.124         3.12344         2.37395
LJ           3.69667         3.69688         1.54654
LJ          -1.08099         3.13349        -5.69424
LJ           3.13312        -1.08098        -5.69443
LJ           -2.1196         -2.0577         1.44643
LJ           4.99362          4.9936        -5.68285
LJ         -0.954558        0.279366         1.73174
LJ          0.247899        -1.02957         1.76493
LJ         -0.905743        -2.51006         2.19164
LJ          -1.06325        -1.91786        -0.20932
LJ          -3.50579        -4.34755         5.69028
LJ         -0.992809         -1.8296         1.19271
LJ        -0.0513058        -2.03958      -0.0662544
LJ           1.49738        -2.34487        0.121737
LJ          0.125499        -2.34935         1.51168
LJ          0.679258         -2.3222        0.702799
LJ          -2.50685        -0.89844         2.25434
LJ          -1.94427        -1.11953       -0.232933
LJ          -1.81357        -0.89896           1.197
LJ          -4.34724        -3.50535         5.68981
LJ         -0.297493       -0.309821        0.914666
LJ         -0.853053       -0.871669         1.74269
LJ          -1.57481       0.0880064        0.792899
LJ          0.044176        -1.56893        0.798443
LJ           3.12265         2.37463         3.12272
LJ           3.13411        -5.69542        -1.08127
LJ          -1.08127        -5.69482         3.13362
LJ           3.69622         1.54521         3.69626
LJ          -1.98427       -0.083875      -0.0837787
LJ          -2.34302         1.48215       0.0734063
LJ          -2.31932        0.713348        0.692334
LJ          -2.38339       0.0731503          1.4606
LJ           2.37408         3.12325         3.12384
LJ          -5.69186         3.13175        -1.08157
LJ           1.54642          3.6971         3.69701
LJ          -5.69366        -1.08115         3.13336
LJ           6.10473         6.07625         6.09475
LJ           2.80103         2.78168        -0.53293
LJ         -0.552799         2.80387         2.81559
LJ           2.81709       -0.509691          2.7596
