108
#Comment!
LJ           -2.5455         -2.5455         -2.5455
LJ          -1.57609        -1.57609        -3.10727
LJ          -3.10727        -1.57609        -1.57609
LJ          -1.57609        -3.10727        -1.57609
LJ         -0.999855        -2.70909        -2.70909
LJ          -1.41114        -2.99425        -3.76256
LJ         -0.475947         -1.5987         -1.5987
LJ          -1.41114        -3.76256        -2.99425
LJ          0.394961        -2.00627        -2.00627
LJ           2.08316       -0.633465        -2.56649
LJ           3.21796         -5.7123         -5.7123
LJ           2.08316        -2.56649       -0.633465
LJ          -2.70909       -0.999855        -2.70909
LJ          -2.99425        -1.41114        -3.76256
LJ          -3.76256        -1.41114        -2.99425
LJ           -1.5987       -0.475947         -1.5987
LJ         -0.621747       -0.621747        -1.88714
LJ       -0.00802232     -0.00802233        -1.39638
LJ           -1.2338       -0.212497        -2.88065
LJ         -0.212497         -1.2338        -2.88065
LJ           1.82214        0.280988        -3.67544
LJ           1.41803        0.666291        -2.70151
LJ          0.359078       -0.833172        -1.97055
LJ           2.51207        0.426081        -2.89492
LJ          -2.00627        0.394961        -2.00627
LJ         -0.633465         2.08316        -2.56649
LJ          -2.56649         2.08316       -0.633465
LJ           -5.7123         3.21796         -5.7123
LJ          0.280988         1.82214        -3.67544
LJ          0.666291         1.41803        -2.70151
LJ          0.426081         2.51207        -2.89492
LJ         -0.833172        0.359078        -1.97055
LJ         -0.134745       -0.134745        -3.17822
LJ          0.374389        0.374389        -2.46491
LJ          0.895335         1.95284        -0.64098
LJ           1.95284        0.895335        -0.64098
LJ          -2.70909        -2.70909       -0.999855
LJ           -1.5987         -1.5987       -0.475947
LJ          -3.76256        -2.99425        -1.41114
LJ          -2.99425        -3.76256        -1.41114
LJ         -0.621747        -1.88714       -0.621747
LJ         -0.212497        -2.88065         -1.2338
LJ           -1.2338        -2.88065       -0.212497
LJ       -0.00802232        -1.39638      -0.0080223
LJ           1.82214        -3.67544        0.280988
LJ           2.51207        -2.89492        0.426081
LJ          0.359078        -1.97055       -0.833172
LJ           1.41803        -2.70151        0.666291
LJ          -1.88714       -0.621747       -0.621747
LJ          -2.88065       -0.212497         -1.2338
LJ          -1.39638     -0.00802231     -0.00802231
LJ          -2.88065         -1.2338       -0.212497
LJ         -0.629907       -0.629907       -0.629907
LJ          0.264217        0.264217       -0.470868
LJ         -0.470868        0.264217        0.264217
LJ          0.264217       -0.470868        0.264217
LJ          0.680844       -0.847771       -0.847771
LJ           1.23592       -0.150414        -1.61977
LJ           1.22217      -0.0224749      -0.0224749
LJ           1.23592        -1.61977       -0.150414
LJ          -3.67544         1.82214        0.280988
LJ          -2.89492         2.51207        0.426081
LJ          -2.70151         1.41803        0.666291
LJ          -1.97055        0.359078       -0.833172
LJ         -0.847771        0.680844       -0.847771
LJ         -0.150414         1.23592        -1.61977
LJ          -1.61977         1.23592       -0.150414
LJ        -0.0224749         1.22217      -0.0224749
LJ           1.15151         1.15151      -0.0286879
LJ           1.02117         1.02117        -1.82739
LJ           1.85515         2.79611        -1.05779
LJ           2.79611         1.85515        -1.05779
LJ          -2.00627        -2.00627        0.394961
LJ           -5.7123         -5.7123         3.21796
LJ          -2.56649       -0.633465         2.08316
LJ         -0.633465        -2.56649         2.08316
LJ          0.280988        -3.67544         1.82214
LJ         -0.833172        -1.97055        0.359078
LJ          0.426081        -2.89492         2.51207
LJ          0.666291        -2.70151         1.41803
LJ         -0.134745        -3.17822       -0.134745
LJ           1.95284        -0.64098        0.895335
LJ          0.895335        -0.64098         1.95284
LJ          0.374389        -2.46491        0.374389
LJ          -3.67544        0.280988         1.82214
LJ          -1.97055       -0.833172        0.359078
LJ          -2.70151        0.666291         1.41803
LJ          -2.89492        0.426081         2.51207
LJ         -0.847771       -0.847771        0.680844
LJ        -0.0224749      -0.0224749         1.22217
LJ          -1.61977       -0.150414         1.23592
LJ         -0.150414        -1.61977         1.23592
LJ           1.15151      -0.0286879         1.15151
LJ           2.79611        -1.05779         1.85515
LJ           1.85515        -1.05779         2.79611
LJ           1.02117        -1.82739         1.02117
LJ          -3.17822       -0.134745       -0.134745
LJ          -0.64098         1.95284        0.895335
LJ          -2.46491        0.374389        0.374389
LJ          -0.64098        0.895335         1.95284
LJ        -0.0286879         1.15151         1.15151
LJ          -1.05779         2.79611         1.85515
LJ          -1.82739         1.02117         1.02117
LJ          -1.05779         1.85515         2.79611
LJ           1.96515         1.96515         1.96515
LJ           2.17738         2.17738        -0.26923
LJ          -0.26923         2.17738         2.17738
LJ           2.17738        -0.26923         2.17738
