108
#Comment!
LJ          -2.81804        -2.81804        -2.81804
LJ          -1.94971        -1.94971        -2.84208
LJ          -2.84208        -1.94971        -1.94971
LJ          -1.94971        -2.84208        -1.94971
LJ          -1.08713        -2.80987        -2.80987
LJ         0.0145589        -1.90135        -2.76011
LJ          -1.09145        -2.02659        -2.02659
LJ         0.0145589        -2.76011        -1.90135
LJ          0.894184        -2.80894        -2.80894
LJ           1.73174         -1.9714        -2.80895
LJ          0.892806        -1.97002        -1.97002
LJ           1.73174        -2.80895         -1.9714
LJ          -2.80987        -1.08713        -2.80987
LJ          -1.90135       0.0145589        -2.76011
LJ          -2.76011       0.0145589        -1.90135
LJ          -2.02659        -1.09145        -2.02659
LJ          -1.08721        -1.08721        -2.49609
LJ        0.00998251      0.00998251        -2.49609
LJ          -1.07477     -0.00245525        -2.18945
LJ       -0.00245525        -1.07477        -2.18945
LJ          0.824141        -1.09179        -2.76012
LJ           1.73266      0.00990428        -2.80988
LJ          0.949386       0.0142179        -2.02658
LJ           1.68289        -1.09179        -1.90134
LJ          -2.80894        0.894184        -2.80894
LJ           -1.9714         1.73174        -2.80895
LJ          -2.80895         1.73174         -1.9714
LJ          -1.97002        0.892806        -1.97002
LJ          -1.09179        0.824141        -2.76012
LJ        0.00990428         1.73266        -2.80988
LJ          -1.09179         1.68289        -1.90134
LJ         0.0142179        0.949386        -2.02658
LJ          0.872516        0.872516        -2.84209
LJ            1.7408          1.7408        -2.81802
LJ          0.872485         1.76488         -1.9497
LJ           1.76488        0.872485         -1.9497
LJ          -2.80987        -2.80987        -1.08713
LJ          -2.02659        -2.02659        -1.09145
LJ          -2.76011        -1.90135       0.0145589
LJ          -1.90135        -2.76011       0.0145589
LJ          -1.08721        -2.49609        -1.08721
LJ       -0.00245525        -2.18945        -1.07477
LJ          -1.07477        -2.18945     -0.00245525
LJ        0.00998251        -2.49609      0.00998251
LJ          0.824141        -2.76012        -1.09179
LJ           1.68289        -1.90134        -1.09179
LJ          0.949386        -2.02658       0.0142179
LJ           1.73266        -2.80988      0.00990428
LJ          -2.49609        -1.08721        -1.08721
LJ          -2.18945     -0.00245525        -1.07477
LJ          -2.49609      0.00998251      0.00998251
LJ          -2.18945        -1.07477     -0.00245525
LJ          -1.09589        -1.09589        -1.09589
LJ         0.0186581       0.0186581        -1.09589
LJ          -1.09589       0.0186581       0.0186581
LJ         0.0186581        -1.09589       0.0186581
LJ           1.11224        -1.07476        -1.07476
LJ           1.41887      0.00998084        -1.08721
LJ           1.11226     -0.00246326     -0.00246326
LJ           1.41887        -1.08721      0.00998084
LJ          -2.76012        0.824141        -1.09179
LJ          -1.90134         1.68289        -1.09179
LJ          -2.80988         1.73266      0.00990428
LJ          -2.02658        0.949386       0.0142179
LJ          -1.07476         1.11224        -1.07476
LJ        0.00998084         1.41887        -1.08721
LJ          -1.08721         1.41887      0.00998084
LJ       -0.00246326         1.11226     -0.00246326
LJ          0.949364        0.949364        -1.09145
LJ           1.73267         1.73267        -1.08713
LJ          0.824135         1.68291       0.0145593
LJ           1.68291        0.824135       0.0145593
LJ          -2.80894        -2.80894        0.894184
LJ          -1.97002        -1.97002        0.892806
LJ          -2.80895         -1.9714         1.73174
LJ           -1.9714        -2.80895         1.73174
LJ          -1.09179        -2.76012        0.824141
LJ         0.0142179        -2.02658        0.949386
LJ          -1.09179        -1.90134         1.68289
LJ        0.00990428        -2.80988         1.73266
LJ          0.872516        -2.84209        0.872516
LJ           1.76488         -1.9497        0.872485
LJ          0.872485         -1.9497         1.76488
LJ            1.7408        -2.81802          1.7408
LJ          -2.76012        -1.09179        0.824141
LJ          -2.02658       0.0142179        0.949386
LJ          -2.80988      0.00990428         1.73266
LJ          -1.90134        -1.09179         1.68289
LJ          -1.07476        -1.07476         1.11224
LJ       -0.00246326     -0.00246326         1.11226
LJ          -1.08721      0.00998084         1.41887
LJ        0.00998084        -1.08721         1.41887
LJ          0.949364        -1.09145        0.949364
LJ           1.68291       0.0145593        0.824135
LJ          0.824135       0.0145593         1.68291
LJ           1.73267        -1.08713         1.73267
LJ          -2.84209        0.872516        0.872516
LJ           -1.9497         1.76488        0.872485
LJ          -2.81802          1.7408          1.7408
LJ           -1.9497        0.872485         1.76488
LJ          -1.09145        0.949364        0.949364
LJ         0.0145593         1.68291        0.824135
LJ          -1.08713         1.73267         1.73267
LJ         0.0145593        0.824135         1.68291
LJ          0.892796        0.892796        0.892796
LJ           1.73174         1.73174         0.89418
LJ           0.89418         1.73174         1.73174
LJ           1.73174         0.89418         1.73174
