108
#Comment!
LJ           3.34818       -0.707296        0.573889
LJ          -2.46468         2.80176        -3.96648
LJ           1.23021        -1.72401         1.75967
LJ          -1.13442         2.62565       -0.353383
LJ         -0.317308       -0.251925         2.78265
LJ           1.22194        -2.51037       -0.521098
LJ           1.11384      -0.0971717        -1.45585
LJ           2.32547        -2.36218       0.0820798
LJ           1.68806        -1.07644         2.51568
LJ          -0.74937        -1.73881          2.8281
LJ         -0.468565         2.08572         3.21083
LJ          0.422556        0.823623        0.407684
LJ          0.254881        -0.85174       -0.055009
LJ           2.28624        -5.35916        -3.37135
LJ            1.6389        -3.43334       -0.992504
LJ          0.236918        -2.19935        0.636538
LJ           4.37639        -1.88961         6.05129
LJ           1.06849         1.44287      -0.0580081
LJ         -0.348443         4.99785        -3.49983
LJ           1.58701         -1.4249        -0.83818
LJ          -2.43607        0.381465          2.9454
LJ           1.74009         2.95805        -2.16254
LJ           2.47216       -0.394749        0.319936
LJ          -1.42834        -3.06913         -1.0859
LJ           0.53095         1.56112         2.79731
LJ         -0.174348         1.98965       -0.869997
LJ         -0.847474        0.703075        -1.23343
LJ          -4.82002         5.51704        -1.79653
LJ           3.37642         1.47642         1.79433
LJ           1.81556          -2.363         1.17802
LJ           1.75491        -0.45225         4.87918
LJ           4.58114       -0.167098         3.04525
LJ           1.42607        -2.71739        -1.86215
LJ          0.460931       -0.797461        -2.30327
LJ        -0.0768488         2.12301        0.156473
LJ           2.96565         0.19831       -0.398795
LJ           2.12157         -1.2982        0.744211
LJ          0.483967        -3.07104        -2.38543
LJ          0.926104        0.106378       -0.330303
LJ            1.1776        0.955235        -0.95089
LJ           2.12054         2.10492       -0.141664
LJ         0.0662656        -1.97711         1.79074
LJ          0.674751        -1.82982        -1.65161
LJ         -0.556262       0.0750611        0.323477
LJ           2.28534         0.54896         3.18486
LJ           4.39895        -4.76144        -3.09828
LJ           2.67946       -0.867447         1.86884
LJ           2.82713          -1.723         3.01613
LJ           2.50118        -1.84401        -1.55157
LJ          -1.16137          2.1294         1.47807
LJ           2.44136        0.616124         1.61029
LJ         -0.351979         3.59781        -2.45758
LJ         -0.425609        -6.28531         -3.0663
LJ          0.167678        0.522983         1.62292
LJ           2.29006         -1.7444         1.94319
LJ           2.83351        -1.15776       -0.230164
LJ           2.21402        0.924136        0.129883
LJ           2.89855        -2.87753        -1.25635
LJ           1.06166       -0.987932         3.56257
LJ           3.03666        0.516808        0.729791
LJ          0.250155         1.03507         -1.2121
LJ           6.28656         6.27067        -5.01856
LJ          0.435917        -1.45769         2.59269
LJ         -0.660589         4.84007        -2.20218
LJ           1.95779         1.48823         1.16194
LJ           1.40107       -0.675075       0.0285427
LJ           1.74384        -2.46976         2.43928
LJ          0.943877         2.00056        -1.09878
LJ          0.522212             2.9        -2.43576
LJ           1.54706         1.33225         2.40977
LJ           1.95716         1.61546        -5.18192
LJ           1.12127         0.71294         3.51746
LJ          0.891471        -1.09287        0.941905
LJ             1.502        0.398316        0.840924
LJ         -0.237643        -1.05986        0.930118
LJ          0.495986       -0.137741        0.772166
LJ           1.84488        -0.44438         1.48012
LJ         -0.709958         1.04529       -0.178337
LJ            3.3347         -1.0464         5.11699
LJ          0.890969       -0.726799         1.92864
LJ           1.95273      -0.0740261       -0.655996
LJ           1.10132        -1.73707         0.12908
LJ           2.04515        -0.10457         2.39449
LJ           3.76585        -1.64092         1.35014
LJ          0.882137         1.84327          1.1879
LJ          -1.58835       0.0555666         1.13287
LJ         -0.856121        -2.05317        0.534916
LJ         -0.284137         0.98852        -2.42672
LJ            1.2071        0.269531         1.85316
LJ          0.657334        -2.73559          2.5545
LJ          0.862995         2.60398       -0.216121
LJ         -0.385073         1.52037         1.00012
LJ         -0.541421        0.880342         2.96103
LJ          0.159531       -0.955364        -1.23895
LJ          0.337165        -1.90586       -0.670514
LJ           1.39358        0.613658         6.40189
LJ        -0.0623632       0.0969071        -0.67363
LJ          0.163831         3.35809        0.329234
LJ          -2.46569        -6.40812         4.78629
LJ           5.12849         4.34658         6.26842
LJ            -1.193         3.45507        -1.14988
LJ         -0.273376        0.013332        -1.94993
LJ          0.476811         3.08951        -1.15855
LJ           3.83623       -0.243373         -2.1793
LJ         -0.025266         4.06861        -1.42592
LJ          -1.45258        -1.51936         1.38631
LJ           2.99051        -3.28802         1.05633
LJ           1.15585        -3.30049        0.804158
