108
#Comment!
LJ          0.401574        -1.38717       -0.207024
LJ           4.79982          1.1751          5.7353
LJ          -1.87362        0.958705        0.121335
LJ         -0.209115        -3.81119        -2.69925
LJ           1.19718        -2.19767       -0.861249
LJ          0.557545         2.39776       -0.229502
LJ           1.30259        -1.05311         1.11763
LJ           2.46928        -2.15256         1.03675
LJ           1.33774          -2.025        0.303904
LJ           1.16603       -0.142957        -1.77902
LJ         -0.681482         1.84253        0.353444
LJ           1.77946        0.881817         1.69289
LJ        -0.0506358        -1.41262        -2.32653
LJ            2.0877        -1.15505        -1.44128
LJ           -1.3451         1.21803         2.87344
LJ          0.771064         4.01852         1.92485
LJ         -0.179493         1.30152        -2.13988
LJ         -0.394397       -0.347297        0.617328
LJ          -0.96272          1.7074         1.31697
LJ         -0.154651       -0.813351        -1.14766
LJ          0.300288        -2.03741        -1.50567
LJ           1.18232       -0.416278        0.211227
LJ         -0.394124         2.19281        -2.90483
LJ           2.23809         5.88843        -2.69013
LJ           3.77845       -0.117028        -3.89439
LJ          -1.07649         3.72299      -0.0860674
LJ          -1.87323         2.86286      0.00943107
LJ          -5.02833         3.39351         -2.9553
LJ            1.7779           2.098         1.01442
LJ           4.80714         5.21228        -5.67887
LJ          -1.12619        0.112829           2.756
LJ           1.10113        -1.13218        -2.48682
LJ          0.389141        0.575611         -1.5466
LJ            0.7192        -1.11657        -1.25669
LJ         -0.714712        0.645466        0.384126
LJ          0.124194       -0.366612         -2.0973
LJ         -0.588893        -1.69601       -0.944932
LJ          -1.46178        0.972916        -2.20599
LJ           -1.5708        0.815167         1.16222
LJ           1.65784        0.234216        0.892761
LJ          0.258822        -1.32894        0.890799
LJ          0.252353        -2.13778         1.64771
LJ          -2.09519        -1.79187      -0.0633605
LJ         -0.913056      -0.0664015         1.51749
LJ           0.77973         -1.1845         2.03704
LJ            5.7036        -1.20665       -0.378875
LJ          0.979103        -3.21965         1.04426
LJ           2.28235       -0.729211        0.481086
LJ         -0.970721        -1.01248       -0.228901
LJ          -1.27321         1.74218       -0.762996
LJ        -0.0771247       -0.118353         2.62148
LJ           -1.3841        0.613215        -1.05242
LJ          0.261376        -2.34589        0.510693
LJ         -0.252681         1.26646       -0.811021
LJ           1.21772         1.13483        0.885504
LJ           1.68021        0.577991       -0.143346
LJ           1.57289        -1.25101       -0.366337
LJ          0.951921       0.0112922       -0.779731
LJ           1.51566        -1.99459        -1.91255
LJ           2.01865       -0.450675        -2.37079
LJ         -0.901368       -0.273946        -1.65696
LJ          -3.41642         1.21692        -2.04656
LJ          -3.01916        0.470998        0.372895
LJ          -1.55904        -2.00836        -1.27052
LJ          0.103336         1.91278         1.70791
LJ         -0.524986       0.0536405       -0.647666
LJ         -0.812133        0.884134         1.98338
LJ          0.774021         2.42855        0.971021
LJ           3.58549        -5.77191        -1.51991
LJ         -0.180716         1.04198         1.14877
LJ          -3.78497         4.86828         5.35226
LJ           5.83394         2.05286         4.41426
LJ          0.344045        -0.33181         1.38296
LJ         -0.427581         2.73378         1.12601
LJ          -1.73093         2.49949         1.77898
LJ          0.959897        0.357573         3.27137
LJ         -0.651818        -2.73152         1.39415
LJ         -0.686815        -1.60508        0.617804
LJ           1.95495        -1.29444        -6.41691
LJ           3.33015        -1.01707         2.55681
LJ          0.270273        0.608556       -0.110807
LJ           2.46034       -0.535167       -0.630137
LJ         -0.412159       -0.973434          1.6302
LJ           1.44314       -0.361296          1.9088
LJ         -0.609276         2.65667         2.17883
LJ           -2.0285      -0.0326132         1.86641
LJ           1.00709         1.63071         2.33275
LJ           2.69868         2.75893       -0.423888
LJ          -0.43834       -0.502771         3.53958
LJ          -1.33596        -1.03639          2.4087
LJ          -1.83431         1.92536        0.585114
LJ          0.231214         0.88775         2.45725
LJ           1.45517         -2.1279         1.81901
LJ          -5.10904        0.239553         4.30598
LJ           5.93439        -3.08619        -1.22706
LJ          -5.59586         4.73874        -1.89208
LJ          -1.56609       -0.232082        0.368582
LJ          0.377027         1.63864        0.433102
LJ           1.59925         1.81672       0.0114552
LJ           3.00266        -2.35758        -3.99783
LJ           4.18599         3.05954        -5.30779
LJ          -2.34297         1.42575        -1.61835
LJ          -2.42533        -4.93902         -5.9103
LJ           5.98908         2.29082         2.95415
LJ          0.764875         1.61308        -1.06081
LJ          -2.30482       -0.531374        -1.38699
LJ           6.36007         1.55358       -0.117384
LJ           5.50847        -5.58188         3.62196
