108
#Comment!
LJ          -1.81417         -1.9821       -0.233739
LJ           -4.5693        -5.12571         5.26412
LJ           -5.8081        -5.31427        -4.06232
LJ          -6.40519        -6.39463        -3.93622
LJ           1.71814        -2.36145        0.689508
LJ         -0.647169         1.05737        -2.31139
LJ           1.38909        -1.65528       -0.765317
LJ          0.302767        -2.47125      -0.0974303
LJ          -0.51329        -2.13072        -1.90727
LJ           1.30462        0.463021       -0.312036
LJ           3.45039         2.86834         3.17931
LJ           1.34118        -1.86736         1.57273
LJ         -0.807933        -1.34039        -2.56568
LJ         -0.251182         3.20577        -1.32948
LJ          -1.61378        0.890649        0.244761
LJ         -0.691115         2.12459        -1.19353
LJ           -1.6619        0.121716        -1.28468
LJ          0.436631        0.102023        0.148663
LJ          -2.37731         1.58413        -1.75458
LJ         -0.983475       -0.881867         -1.2732
LJ           1.28574        -1.27674        -2.84218
LJ           1.06947       -0.744437         -1.5584
LJ         0.0729914        -1.06013        -1.75786
LJ           4.06542         -1.8899         4.74791
LJ         -0.459527         2.65778         5.37455
LJ          0.705948         2.37887        -2.13979
LJ           1.12127         2.24211       -0.881477
LJ           4.17638        -1.08582         4.02191
LJ         -0.320167         2.02152        -2.20217
LJ          -1.10626         2.68778        -1.98918
LJ          -1.93728         3.58678         5.40585
LJ          -0.42808        0.343585        -1.41596
LJ          0.738868         1.40865        -3.23982
LJ          0.459737        0.768056        -2.34618
LJ         0.0699797         1.29648        -1.36739
LJ         -0.844773       -0.335053        -2.20368
LJ          -1.37413        -1.89846        -1.25658
LJ          -1.96215       -0.713795         1.50253
LJ          -1.95693        0.896133         1.26056
LJ           0.47117        -2.49306        0.938867
LJ          -0.99687        -1.42246       -0.102482
LJ         -0.605012        -2.90026         -1.0687
LJ          -1.76598        -1.22353        0.565395
LJ         -0.234623       -0.560303         0.40017
LJ          0.224322        -3.54294       -0.458141
LJ           6.18751         3.33974        -1.99011
LJ        -0.0990666        -1.60821       -0.631234
LJ           2.46131       -0.852604       -0.667169
LJ         -0.917755        0.471922       -0.540067
LJ          -1.20976         1.17721        -1.34228
LJ         0.0141293       0.0974785         1.20999
LJ          -2.76374       -0.882876        -0.22139
LJ        -0.0822398       -0.488536       -0.814825
LJ           1.25657         1.22675        -1.33655
LJ             1.085        0.490985         1.15107
LJ           1.01933        -0.53674         0.86018
LJ           1.01518       -0.553802       -0.474404
LJ           0.67614         0.22043        -1.16486
LJ            1.8434      -0.0273834        -1.40528
LJ          0.696504        -1.44421        0.161908
LJ          -2.06505        -1.12372        -1.04432
LJ           4.45791         4.77953          5.0305
LJ          -2.30636        0.865828         -1.0141
LJ          -1.49493       -0.563262       -0.391859
LJ          0.721489         1.16486        0.261145
LJ         0.0774503        0.720111       -0.553913
LJ         -0.585588        0.544865        0.448676
LJ         -0.546231         1.53201        -0.13897
LJ           3.39972         5.59317         2.48161
LJ           4.03688         3.83263         3.70501
LJ          -4.18043         2.76101         5.80183
LJ           2.10494        -4.23599         5.96033
LJ         -0.804923        -2.41707       -0.143931
LJ           3.19347         2.02601         2.35381
LJ         -0.566359        0.727957         1.75556
LJ          0.941528       -0.284945         1.99087
LJ           -1.2457        -3.34637        0.980812
LJ          -0.76624        -1.05526         1.22813
LJ          -1.31356         5.46242          4.6638
LJ          -1.67318        -2.41632         1.71295
LJ         -0.270132        -1.80684        0.627812
LJ           2.05995        -1.21273        0.400313
LJ         -0.656447        -2.28964         1.58074
LJ          0.246092        -1.04496         1.40295
LJ          -2.33433      -0.0470973        0.508623
LJ          -1.29065      -0.0205472         0.77278
LJ          -2.06684        -3.51751         1.76564
LJ          -6.40648        -1.65245         4.37032
LJ        -0.0116187       -0.905202         2.50293
LJ          -1.42716        -1.38143         2.20452
LJ         -0.114793         1.60121         1.02104
LJ          0.202407        -1.16332           3.554
LJ          0.393258        -2.09412         1.92029
LJ           2.42952         5.62226        -4.52238
LJ          -4.35413         5.68276         2.59065
LJ           6.22653         2.44364        -6.16221
LJ          -1.56062        0.235216         1.94369
LJ          -1.71405         2.09294       -0.534943
LJ          0.375468         2.28526        0.242122
LJ          -1.22142        -4.17616      -0.0741978
LJ           3.42124         5.72144         4.97708
LJ           5.95991         2.93895        -3.91363
LJ           3.25559         4.37765         4.17827
LJ           5.27604        -4.40297         3.30717
LJ           2.80394         3.34129         3.81206
LJ          -3.73499        -3.21783        -1.42551
LJ          -6.01364        -3.17174        -5.23782
LJ         -0.771718         -5.9324        -2.83866
