108
#Comment!
LJ           3.63793       -0.814797        0.585125
LJ          -2.37645         2.82903        -3.63114
LJ           1.16308         -1.8057         1.74727
LJ         -0.749991         2.63699       -0.197186
LJ         0.0758684       -0.405846         2.83969
LJ           1.42004        -2.34087       -0.699034
LJ          0.975228       -0.211584        -1.41056
LJ           2.32588        -2.19487        0.062122
LJ           1.79986        -1.27743         2.46769
LJ         -0.384631        -1.29351         2.65931
LJ         -0.563431         2.24857         3.12201
LJ         0.0894739        0.915135        0.503763
LJ          0.238671       -0.731342       0.0061884
LJ           2.22282        -5.70856        -3.08877
LJ           1.38023        -3.57371       -0.925689
LJ          0.210005        -2.18245        0.548396
LJ           4.66977        -1.83497         6.27685
LJ          0.976187         1.55241      -0.0915581
LJ         -0.312013         4.96325        -3.83943
LJ           1.42974         -1.2643       -0.996194
LJ          -2.38979        0.351617         3.17332
LJ           1.64642         2.68483        -2.41215
LJ           2.27386      -0.0684377        0.225965
LJ          -1.70378        -2.91572         -1.2042
LJ          0.387584         1.24529         3.32596
LJ         -0.205005         1.93674       -0.963442
LJ          -1.00927        0.578367        -1.36549
LJ          -4.27872         5.59216        -1.76868
LJ           2.99165         1.40964         1.83669
LJ           1.75412        -2.60564          1.0085
LJ           1.89972       -0.490871         4.58142
LJ            4.4366       0.0157021          3.3436
LJ           1.35984         -2.9408        -1.77674
LJ          0.676953       -0.647854         -2.5879
LJ         0.0644969         1.95804        0.345613
LJ           2.91164        0.359195       -0.468758
LJ           1.93483        -1.25186        0.594844
LJ           0.58361        -3.33311        -2.61525
LJ          0.904857         0.51507       -0.105336
LJ           1.48002        0.897956        -1.16003
LJ           1.85604         2.06527       -0.023543
LJ        -0.0890212         -1.7889         1.51734
LJ          0.671995        -2.09006        -1.93295
LJ         -0.506366       0.0593871        0.296438
LJ           2.51053        0.313465          3.5029
LJ           4.64219        -4.74699         -3.2499
LJ           2.94573       -0.684311         2.02962
LJ           2.76503        -1.70631         2.86849
LJ           2.32244        -1.83201        -1.23609
LJ          -1.31755          2.2184         1.62307
LJ           2.30996        0.543623         1.66368
LJ         -0.486957         3.53761        -2.25265
LJ        -0.0207005        -6.22653        -2.95916
LJ          0.121619         0.67353          1.6198
LJ           2.49922        -1.81949         1.57764
LJ           2.88759        -1.30187       -0.586407
LJ           1.89392        0.849895       -0.132997
LJ           2.47545        -2.90708        -1.19348
LJ           1.00512       -0.910366         3.81413
LJ           3.09357        0.361273        0.836832
LJ          0.133937          1.0036        -1.35557
LJ           -6.3229         6.18953        -4.98165
LJ          0.686545        -1.56476         2.67736
LJ         -0.579528         4.68036        -2.20943
LJ           2.20097         1.52853         1.00537
LJ           1.17612       -0.482885        0.248388
LJ           1.69057        -2.28632         2.58178
LJ           1.11832         2.26964        -1.09272
LJ          0.613287          3.1183        -2.52687
LJ           1.36215         1.38679         2.42298
LJ           1.87932          1.7327        -5.34351
LJ            1.5599        0.864408         3.32038
LJ          0.721974        -1.21729        0.973375
LJ           1.42305        0.404964        0.830819
LJ         -0.306691        -0.98451        0.914244
LJ          0.497997       -0.153185          1.0077
LJ           2.08924       -0.518569         1.32797
LJ         -0.637288         1.17038       -0.248713
LJ           3.23511        -1.09049         5.22476
LJ          0.661272        -0.69524         1.97828
LJ           1.77677       -0.196777       -0.703738
LJ          0.974141          -1.646       0.0552174
LJ            2.0446       -0.181646          2.4598
LJ           3.80657        -1.88376         1.44509
LJ           1.01755          1.3219         1.08803
LJ          -1.73169       0.0603565          1.2448
LJ          -1.00735        -2.56616        0.685152
LJ         -0.248016         1.04493        -2.41279
LJ           1.21088        0.511947         1.88076
LJ          0.542781        -2.58387         2.59186
LJ          0.730279          2.7656       -0.231039
LJ         -0.662963         1.32507         1.14844
LJ         -0.564507        0.959238         3.04205
LJ          0.339106        -1.02248        -1.58807
LJ          0.131143        -1.67912       -0.686695
LJ            1.2769        0.647477        -6.09581
LJ         -0.104978       0.0999204       -0.752676
LJ         0.0139063         3.20689        0.640196
LJ          -2.19359        -6.27738          4.5995
LJ           5.19624         4.15532         6.35491
LJ         -0.950343         3.45465        -1.28519
LJ        -0.0613027       0.0135758        -1.80652
LJ          0.115328         2.94099         -1.2558
LJ           4.30103       -0.245293        -2.36437
LJ          0.178822         4.02673        -1.56752
LJ          -1.24257        -1.36341         1.04697
LJ           2.72987        -3.03318          1.4617
LJ          0.599879        -3.07905        0.837781
