108
#Comment!
LJ           1.28174        -1.28809        0.762183
LJ           3.06942        -1.65388         2.72757
LJ          -2.13352        0.182458         1.14418
LJ           -1.0061         5.17194        0.386614
LJ           1.93775        -1.58857       -0.239354
LJ           2.33795         1.76107        -1.72045
LJ           1.57237      -0.0886616         1.59811
LJ           2.46067        0.460822       -0.045276
LJ           2.31189        -1.85563        0.989408
LJ          0.212887        -1.40037        -2.19922
LJ         -0.934687         2.71192         0.12785
LJ           1.61816         1.64941         1.21357
LJ         -0.862608        -3.29023     -0.00479197
LJ           2.15972       -0.351945        -1.11158
LJ          -2.29435        0.954506         2.17876
LJ          0.497709         1.53572         1.94651
LJ          0.530694        -0.10347          -2.595
LJ        -0.0682288        0.160764        0.644962
LJ          -0.56519         1.68338         1.88497
LJ         -0.614791       -0.701475       -0.778226
LJ          0.912986        -2.61824       -0.717527
LJ            1.5016         0.14079       -0.362242
LJ           1.46694        0.914492        -2.05192
LJ           4.41802         5.50096        0.379542
LJ         -0.784853         4.50954         6.28653
LJ          -1.90868         2.82074        0.930541
LJ          -3.45169         4.41321      0.00848696
LJ          -2.63987         5.21811        -5.36221
LJ           1.33737         1.57604         2.80765
LJ           -5.7069         2.51971         3.36847
LJ         -0.918664        0.218496         1.17347
LJ         -0.296489         -2.3093        -4.59108
LJ         0.0906476       -0.388968        -1.60273
LJ          0.217527        -1.31064       -0.793876
LJ          -1.18786         1.78833        0.544369
LJ        -0.0803888        -2.36831       -0.332925
LJ          -1.08512        -2.23207       -0.324515
LJ          0.313547         1.00246        -2.22528
LJ          -1.47935         1.10348         1.58946
LJ           1.57998        0.735223        0.645444
LJ           2.15365        -0.59925        0.506143
LJ           1.08911        -2.48142        0.649139
LJ          -1.38097        -1.22132       0.0216107
LJ         -0.869175       -0.966829         1.01848
LJ          0.309681       -0.376822         2.54605
LJ           4.01386        -3.36443         1.30201
LJ          0.556484        -1.70379        0.146203
LJ           3.18714       -0.326341        -0.41929
LJ          -1.00032       -0.286695         0.14886
LJ          -2.44099          1.4275         1.27304
LJ          -1.14166       -0.428825         1.96475
LJ          -1.72234         1.21619       -0.697307
LJ         -0.809603        -3.68557        0.994543
LJ         -0.717974         1.99083       -0.707502
LJ          0.666109         1.39241        0.952905
LJ           2.42696         1.55646        0.146916
LJ           1.05817       -0.815216       -0.309468
LJ          0.387233     -0.00522502       -0.613878
LJ            1.2286        -1.62084        -1.03082
LJ           3.05547       -0.672008        -1.47683
LJ         -0.880643        0.404458        -1.07698
LJ          -2.80172         1.82212        -2.77247
LJ          -1.92707         -0.1661       -0.204608
LJ             -1.42       -0.694823        -1.60889
LJ         -0.116684         1.75254        0.131921
LJ        -0.0568889         1.18547        -1.10111
LJ          -0.30616        0.265871         3.32741
LJ           1.07089         2.18089        -0.20456
LJ           6.35664        -4.62158         2.95709
LJ         -0.526483         1.12558        0.978713
LJ          -4.84134       -0.329553         5.12575
LJ           1.86669        0.179295         2.75444
LJ           1.01066        -0.14693        0.593125
LJ       -0.00945538         2.47013         1.36243
LJ          -1.48411         2.20503         1.59308
LJ        -0.0599278         1.58415         4.17725
LJ          0.121064        -1.48511         1.12116
LJ        -0.0187952       -0.848815       0.0836339
LJ           1.72856        -3.99884         6.44767
LJ           2.33791        -2.03934         2.15391
LJ          0.436383        0.905107      -0.0769888
LJ           1.09855       -0.418225        -1.32841
LJ          0.454649       -0.432686         1.46069
LJ          0.626741        0.545739         1.68147
LJ         -0.835592            1.46         2.96076
LJ          -1.57597        0.829777        0.358513
LJ          0.389861         1.17481         3.15784
LJ           2.06588         2.94782        -2.35461
LJ         -0.494289        0.656803         2.27987
LJ         -0.884818        -1.61386         2.08296
LJ          -2.63531         2.34325         2.10866
LJ          0.790302         2.22991          3.6053
LJ           1.41781        -1.48231         2.15432
LJ           5.23764          3.4379         2.21683
LJ          -5.81386        -5.88807        -5.29312
LJ          -3.94013         6.06848        -1.36186
LJ         -0.637359        0.787971      -0.0363808
LJ           1.39978         1.33446       -0.562864
LJ           2.06162        0.727793        -1.18616
LJ           3.26345        -1.54947        -5.12491
LJ           3.59448         2.98375         4.17036
LJ          -1.86392         2.29028       -0.125712
LJ          -5.96366        -2.27655          4.2892
LJ          -5.40497        0.346827         4.46105
LJ          0.872927        0.679867        -1.25098
LJ         -0.237796        -2.20387        -1.40906
LJ           2.10969         -5.2501         3.18934
LJ          -2.97162        -6.30249       -0.431343
