108
#Comment!
LJ          -1.80796        -1.80796        -1.80796
LJ          -1.66916        -1.66916        -3.15477
LJ          -3.15477        -1.66916        -1.66916
LJ          -1.66916        -3.15477        -1.66916
LJ          -1.94166        -2.89775        -2.89775
LJ            1.1098        -3.01324        -3.77794
LJ         -0.731748        -2.38771        -2.38771
LJ            1.1098        -3.77794        -3.01324
LJ          0.224096        -3.09512        -3.09512
LJ            2.0148        -1.29761        -3.09063
LJ          0.789749        -1.87114        -1.87114
LJ            2.0148        -3.09063        -1.29761
LJ          -2.89775        -1.94166        -2.89775
LJ          -3.01324          1.1098        -3.77794
LJ          -3.77794          1.1098        -3.01324
LJ          -2.38771       -0.731748        -2.38771
LJ          -1.02461        -1.02461        -2.56756
LJ        -0.0638908      -0.0638908        -2.60529
LJ          -1.04821      -0.0363617        -1.83022
LJ        -0.0363617        -1.04821        -1.83022
LJ           1.93532        -2.18715        -3.77297
LJ            1.8248        0.870593        -2.90522
LJ           1.33718       -0.353704        -2.40982
LJ           2.69755         -2.1839        -3.01348
LJ          -3.09512        0.224096        -3.09512
LJ          -1.29761          2.0148        -3.09063
LJ          -3.09063          2.0148        -1.29761
LJ          -1.87114        0.789749        -1.87114
LJ          -2.18715         1.93532        -3.77297
LJ          0.870593          1.8248        -2.90522
LJ           -2.1839         2.69755        -3.01348
LJ         -0.353704         1.33718        -2.40982
LJ           0.58254         0.58254        -3.13684
LJ          0.732455        0.732455        -1.79341
LJ          0.588175         2.07006        -1.66434
LJ           2.07006        0.588175        -1.66434
LJ          -2.89775        -2.89775        -1.94166
LJ          -2.38771        -2.38771       -0.731748
LJ          -3.77794        -3.01324          1.1098
LJ          -3.01324        -3.77794          1.1098
LJ          -1.02461        -2.56756        -1.02461
LJ        -0.0363617        -1.83022        -1.04821
LJ          -1.04821        -1.83022      -0.0363617
LJ        -0.0638908        -2.60529      -0.0638908
LJ           1.93532        -3.77297        -2.18715
LJ           2.69755        -3.01348         -2.1839
LJ           1.33718        -2.40982       -0.353704
LJ            1.8248        -2.90522        0.870593
LJ          -2.56756        -1.02461        -1.02461
LJ          -1.83022      -0.0363617        -1.04821
LJ          -2.60529      -0.0638908      -0.0638908
LJ          -1.83022        -1.04821      -0.0363617
LJ          -1.18324        -1.18324        -1.18324
LJ         0.0811595       0.0811595        -1.06775
LJ          -1.06775       0.0811595       0.0811595
LJ         0.0811595        -1.06775       0.0811595
LJ          0.736174        -1.04102        -1.04102
LJ           1.49086      -0.0403179        -1.03639
LJ          0.729816      -0.0423068      -0.0423068
LJ           1.49086        -1.03639      -0.0403179
LJ          -3.77297         1.93532        -2.18715
LJ          -3.01348         2.69755         -2.1839
LJ          -2.90522          1.8248        0.870593
LJ          -2.40982         1.33718       -0.353704
LJ          -1.04102        0.736174        -1.04102
LJ        -0.0403179         1.49086        -1.03639
LJ          -1.03639         1.49086      -0.0403179
LJ        -0.0423068        0.729816      -0.0423068
LJ            1.3233          1.3233       -0.727948
LJ           1.83191         1.83191        -1.94597
LJ           1.93443         2.69862         1.11038
LJ           2.69862         1.93443         1.11038
LJ          -3.09512        -3.09512        0.224096
LJ          -1.87114        -1.87114        0.789749
LJ          -3.09063        -1.29761          2.0148
LJ          -1.29761        -3.09063          2.0148
LJ          -2.18715        -3.77297         1.93532
LJ         -0.353704        -2.40982         1.33718
LJ           -2.1839        -3.01348         2.69755
LJ          0.870593        -2.90522          1.8248
LJ           0.58254        -3.13684         0.58254
LJ           2.07006        -1.66434        0.588175
LJ          0.588175        -1.66434         2.07006
LJ          0.732455        -1.79341        0.732455
LJ          -3.77297        -2.18715         1.93532
LJ          -2.40982       -0.353704         1.33718
LJ          -2.90522        0.870593          1.8248
LJ          -3.01348         -2.1839         2.69755
LJ          -1.04102        -1.04102        0.736174
LJ        -0.0423068      -0.0423068        0.729816
LJ          -1.03639      -0.0403179         1.49086
LJ        -0.0403179        -1.03639         1.49086
LJ            1.3233       -0.727948          1.3233
LJ           2.69862         1.11038         1.93443
LJ           1.93443         1.11038         2.69862
LJ           1.83191        -1.94597         1.83191
LJ          -3.13684         0.58254         0.58254
LJ          -1.66434         2.07006        0.588175
LJ          -1.79341        0.732455        0.732455
LJ          -1.66434        0.588175         2.07006
LJ         -0.727948          1.3233          1.3233
LJ           1.11038         2.69862         1.93443
LJ          -1.94597         1.83191         1.83191
LJ           1.11038         1.93443         2.69862
LJ          0.802363        0.802363        0.802363
LJ           2.01549         2.01549        0.221819
LJ          0.221819         2.01549         2.01549
LJ           2.01549        0.221819         2.01549
