108
#Comment!
LJ           2.77159         0.11463         1.27597
LJ           2.86974        -1.79548        -2.41644
LJ         -0.576792        -2.23322        0.354789
LJ          -2.45612         1.14057       -0.438327
LJ           1.53079       -0.513464         2.85904
LJ           1.88095        0.811108        -1.32851
LJ           2.22816         1.68792      -0.0476656
LJ           1.33123        0.436344        -2.42105
LJ           1.15488       -0.606929         1.96043
LJ          0.829399        -1.73704         1.08156
LJ          -1.06227         2.54324         3.09645
LJ           1.69806         1.40038           2.624
LJ            -1.127        -1.29891       -0.972604
LJ           3.24075       -0.553496       -0.158873
LJ          -1.11338       -0.350553         2.07742
LJ         -0.693781        0.615293         2.39324
LJ         -0.462528        -2.99652         -2.2291
LJ         -0.471537        0.681775        0.162986
LJ          0.955935         2.37742         2.58384
LJ          0.034062       -0.726275        -1.30864
LJ          0.191241        -1.85893         2.27474
LJ          0.941752         1.24586          -1.143
LJ            2.8475        -0.95598        -1.30762
LJ          -5.80901         1.98602        -5.99383
LJ           5.30038         1.91131         5.24724
LJ          -1.65704         1.61672      0.00307748
LJ          -2.96051        -4.95399        -1.37981
LJ          -1.94346        -5.75772       -0.771918
LJ           2.39558         2.34145         2.17781
LJ          -2.31686       -0.371167         0.87355
LJ         -0.287812       -0.990044        0.838657
LJ           -5.1713          6.0222       -0.366142
LJ          0.468888         -1.9154      -0.0870793
LJ           1.83524       -0.586159        -1.84127
LJ           -1.6934         1.82647         1.07225
LJ           1.70907        -1.24187       -0.949719
LJ         -0.263766        -2.20963         1.39933
LJ           1.15267        -1.90896        -1.35156
LJ          -1.24868        -0.55348        0.615375
LJ           1.44482        0.920753       -0.223854
LJ           1.38577         1.40691        0.766393
LJ          0.412467       -0.738023          2.7492
LJ          -1.25524       -0.634613        -2.01229
LJ          -1.85011       -0.539824       -0.282406
LJ           1.46064        0.275956         1.44707
LJ          -1.66942        -4.33689         5.53003
LJ            1.8199       -0.615483         1.00499
LJ          0.718485        0.401652        0.705598
LJ          -1.56136      -0.0665832        -1.17114
LJ         -0.599081        0.120483         1.05301
LJ           0.39595         1.05176         3.06615
LJ         -0.837613         2.12858        -1.38553
LJ          -5.05984        -3.44605        -0.84931
LJ         -0.359369         2.31798        -0.11691
LJ           1.00252         1.24362         1.74076
LJ           3.54384        0.682594         2.05359
LJ          0.268463        0.486825       -0.617704
LJ          0.751708       -0.862545        -2.07759
LJ           1.24245        -1.49316         2.44882
LJ           1.92092        0.344283        0.440433
LJ          0.337669         1.45064        0.336905
LJ           2.35388         3.94823        -3.91907
LJ         -0.528824        -2.72336         2.43683
LJ          -2.21038     -0.00425272        -2.12169
LJ         -0.722462         1.78893        0.643406
LJ          0.265221       0.0330991        -2.43983
LJ           2.33068        -1.35147         2.58933
LJ           2.29122        0.979626         1.93386
LJ          -2.92435        -1.48782        -3.82862
LJ         -0.286739         1.00327         1.40702
LJ           -3.1154        0.316587         6.38417
LJ           3.59328       -0.480261         1.72334
LJ          0.256961       -0.166063         1.53386
LJ          0.317148         2.04864          1.2331
LJ          -1.55027        0.740805          1.5369
LJ           1.41797        0.848989          3.4327
LJ         -0.370849         -1.0657       -0.178352
LJ         -0.108888         1.54105       -0.747542
LJ        -0.0484886         3.07932         4.32586
LJ          0.900618       -0.936865         0.32225
LJ          0.779017         0.29053        -1.50657
LJ          0.669124       -0.444584       -0.583336
LJ           2.43261      -0.0433848         2.49426
LJ          0.085579       -0.242838        0.216664
LJ           1.39307          2.3023         1.61555
LJ          -1.52026        0.458077        0.349108
LJ          -1.24924        -1.72235         1.00925
LJ         -0.520894        0.355926         -1.2105
LJ           1.18894        0.424863         2.49883
LJ         -0.277059        -1.06884         1.95111
LJ          -1.16978         1.52284         2.25082
LJ            1.2621         2.19639         3.60655
LJ          0.500077         0.15388          3.3651
LJ         -0.738957        -2.10696        -3.02594
LJ          -2.06318        -1.48302        0.316991
LJ           2.80194        -2.20544          -1.338
LJ         -0.784896       -0.150499       -0.363782
LJ           1.13036         2.12534      -0.0563327
LJ           1.72581       -0.534327       -0.187215
LJ           4.72587        0.463832         -5.4635
LJ           1.91637         3.66786      0.00156738
LJ           -1.5076        0.924138        -1.03081
LJ           2.59965          4.2144          0.8796
LJ           -3.0699        -1.55426        -6.19553
LJ           2.87336        0.566468        -1.98452
LJ          0.789578        -3.68128        -1.48636
LJ           4.66262        -5.60667        -3.03541
LJ           2.25564        -6.14081       -0.103399
