108
#Comment!
LJ          -2.24717         -2.1503        -2.23421
LJ          -2.13806         -2.1174        -4.74737
LJ           -4.6951        -2.03025        -2.06424
LJ          -2.11174        -4.77608        -2.12785
LJ         0.0194147        -3.09358        -2.40409
LJ          0.948967       -0.628516        -3.09392
LJ          0.720203        -1.03361        -1.18324
LJ           1.13186        -2.98508       -0.525936
LJ          0.622445        -2.25956        -2.38399
LJ           1.79081        0.496425       -0.496917
LJ           5.57383         4.82707         4.82375
LJ           1.36308       -0.944634        0.673736
LJ          -1.77784        -1.06498        -2.44696
LJ         -0.122564         1.32655        -2.82745
LJ          -2.62799        0.754459       -0.601238
LJ          -1.11956        0.813027        -1.20404
LJ         -0.840338       -0.618149        -2.42425
LJ        -0.0628825     -0.00268914       -0.438608
LJ          -1.45492        0.323806        -2.71021
LJ         -0.118378        -1.64301        -1.84223
LJ           2.09565        -1.53788        -3.00429
LJ            1.1351        -1.15769        -2.18759
LJ           -0.1189       -0.363912          -1.574
LJ          -6.39127        -4.06821        -5.28702
LJ          -2.15143         1.66864        -2.48735
LJ          0.673128          1.5053       -0.795886
LJ         -0.676074         1.88955        0.827328
LJ           4.88468         5.67183         4.89336
LJ          -1.29603         1.49905        -3.33104
LJ          -1.08689         1.32278        -2.19714
LJ          -4.06863        -6.39066        -5.28719
LJ         -0.525091        0.451759        -2.14237
LJ          0.308454        0.309145         -3.0903
LJ          0.529867        0.842623        -2.11467
LJ        -0.0821525         1.92365        -1.74256
LJ           1.33636        0.344006        -2.59612
LJ          -2.03635        -2.80948       -0.427724
LJ          -1.25475        -1.16463        0.649194
LJ          -2.70732       -0.746233        0.859054
LJ         -0.194927        -3.10963         1.39876
LJ         -0.920927         -2.5431       -0.559507
LJ          0.519863        -2.17291        -1.04071
LJ          -1.36388        -2.93513        0.560011
LJ          0.225834       -0.601536        0.405169
LJ           1.67899        -3.12675        -1.47668
LJ          -6.39107         -5.2874          -4.069
LJ         -0.311919        -1.32703       -0.930218
LJ           1.57157        -1.88478       -0.698744
LJ          -2.84699       -0.455269       -0.161916
LJ          -2.16244        0.651915        -1.69479
LJ         -0.842553       -0.189652        0.301354
LJ          -2.01107        -1.75961        0.210459
LJ         -0.924723       -0.428981       -0.749915
LJ          0.711761        0.623452       -0.184356
LJ        -0.0248637        0.457442         0.66663
LJ           1.06272        0.160267        0.713443
LJ           1.09161       -0.394513       -0.314215
LJ          0.711156        0.147475        -1.23447
LJ           1.66688       -0.477427        -1.29293
LJ          0.445306        -1.53079       -0.131381
LJ           -3.4823         1.95643        -1.10314
LJ            -5.287        -6.39114        -4.06836
LJ          -1.98312         1.71215        -1.35291
LJ          -1.81156       0.0723104       -0.948217
LJ         -0.328398         1.32877        -0.10492
LJ        -0.0612714        0.811581        -1.18365
LJ          -1.40459        0.859171      -0.0218266
LJ          -1.00095         1.83417        -0.85394
LJ           3.54436         3.55845         2.42019
LJ           4.43101         4.43046         2.39183
LJ          -1.79237         3.47318         6.39316
LJ           3.47263        -1.79229         6.39284
LJ          -2.14875        -2.45425         1.06202
LJ            4.8436         4.85583         5.61181
LJ          -0.22527         1.07093         1.59765
LJ          0.783509       -0.689412         1.43714
LJ          -1.39991        -3.09963         1.51461
LJ         -0.369112        -1.95848        0.273494
LJ          -4.06901        -5.28752        -6.39054
LJ          -1.06904        -2.09977         1.17847
LJ           0.17054        -3.02091      -0.0318589
LJ           1.49894        -1.97025        0.444533
LJ           0.12881        -2.10806         1.76666
LJ          0.560811         -2.3712        0.686778
LJ          -3.18136        -1.27185         1.89191
LJ          -1.74622       -0.939926       -0.376166
LJ          -2.07779        -1.40157          1.5232
LJ          -5.28681        -4.06812        -6.39153
LJ         -0.426745       -0.242903         1.54608
LJ          -1.10285        -1.03506         1.78904
LJ          -1.35623        0.364237         1.12208
LJ         -0.221978        -1.29706         1.14624
LJ           3.50735         2.33256         3.52261
LJ           3.47401         6.39137        -1.79267
LJ           -1.7927         6.39241         3.47328
LJ           4.44056         2.38022         4.43948
LJ          -1.88711      -0.0682844        0.152157
LJ           -2.3218         1.69218      -0.0699885
LJ          -1.57228          1.4183         1.09397
LJ          -2.69112        0.295862         1.32012
LJ           2.48263         3.55574         3.55477
LJ           6.39713          3.4705        -1.79317
LJ           2.39028         4.43279         4.43332
LJ           6.39385        -1.79256         3.47307
LJ           3.54166         3.52851         3.52511
LJ           3.74752         3.71284       0.0394683
LJ        0.00773806         3.75913         3.78047
LJ           3.77803       0.0810772         3.67403
