108
#Comment!
LJ          -1.86914        -1.93886       -0.241562
LJ          -4.58556        -5.19072          5.1057
LJ          -5.89917        -5.47624        -4.08612
LJ           6.37644        -6.41282        -3.87311
LJ           1.90438        -2.35515        0.601159
LJ         -0.670327         1.14181        -2.37493
LJ           1.26452        -1.53671       -0.773846
LJ          0.221164        -2.44886       -0.153245
LJ         -0.552741        -2.22771        -1.77411
LJ           1.29983        0.395493       -0.329659
LJ           3.40728         2.77263         3.06156
LJ           1.31203        -1.78437         1.76334
LJ         -0.665428        -1.40934        -2.49526
LJ         -0.199655         3.23894         -1.2908
LJ          -1.47783        0.992798        0.204115
LJ          -0.58382         2.23222         -1.2068
LJ          -1.68295      -0.0320833         -1.2789
LJ          0.470301        0.116699        0.251537
LJ            -2.391         1.58948        -1.66668
LJ         -0.969561       -0.827909        -1.33601
LJ           1.28577        -1.21881        -2.83577
LJ           1.03279       -0.711533        -1.45098
LJ          0.058147        -1.22089          -1.786
LJ           3.98155        -1.83902         4.60667
LJ         -0.422841         2.75748         5.18431
LJ          0.636126         2.49718         -2.2009
LJ           1.16298         2.21735       -0.969307
LJ            4.0705       -0.833351         3.94859
LJ         -0.294494         2.14737         -2.2694
LJ          -1.11186         2.78908        -2.02453
LJ          -1.85154         3.46212         5.32505
LJ         -0.440264        0.335902        -1.48415
LJ          0.757484         1.47903        -3.17624
LJ          0.480819        0.712466        -2.35498
LJ         0.0285062         1.34043        -1.39621
LJ         -0.959281       -0.323686        -2.23408
LJ          -1.33881        -1.79929        -1.19772
LJ          -1.99064       -0.674481         1.55706
LJ          -1.86255        0.904975         1.23835
LJ          0.446517        -2.49108        0.925262
LJ         -0.900582          -1.366       -0.072051
LJ         -0.562362         -2.9967        -1.13024
LJ          -1.80272        -1.12628        0.501774
LJ         -0.384442       -0.584548        0.328377
LJ          0.081588        -3.48188       -0.455359
LJ           6.21124         3.13524        -1.92696
LJ        -0.0736458        -1.58617       -0.698484
LJ           2.43309       -0.929185       -0.695551
LJ         -0.897782        0.395637       -0.484847
LJ          -1.25639         1.19556        -1.21618
LJ         0.0540864      0.00438568         1.22909
LJ          -2.82718       -0.782041       -0.369968
LJ        0.00443695       -0.594525       -0.867803
LJ           1.26274         1.21445         -1.3905
LJ           1.13009        0.408359         1.23864
LJ           1.05943        -0.60444        0.937266
LJ           1.08208       -0.657646       -0.368264
LJ          0.706899        0.244606        -1.21783
LJ           1.85889      -0.0178215        -1.33063
LJ           0.68664        -1.47262        0.215913
LJ          -2.14345        -1.15326       -0.999974
LJ           4.28789         4.73511         4.77491
LJ          -2.29825        0.842504       -0.778305
LJ          -1.51681       -0.480533       -0.271836
LJ          0.527428         1.18068        0.357415
LJ          0.104575        0.796127       -0.462408
LJ         -0.432291        0.621239        0.448044
LJ         -0.536219          1.5926       -0.157853
LJ           3.39182         5.62999           2.559
LJ           4.01253         3.73059         3.68363
LJ          -4.23541          2.6953         5.85942
LJ           1.98544        -4.29074         6.03062
LJ         -0.786444        -2.49527      -0.0563368
LJ           3.18786          1.9816         2.25119
LJ         -0.648641        0.716006         1.72461
LJ           1.00653       -0.211087          2.0138
LJ          -1.19586        -3.30934           0.944
LJ         -0.909396        -1.13301          1.1192
LJ          -1.19484         5.37957         4.61336
LJ          -1.70657        -2.45669         1.73821
LJ         -0.256303        -1.77543        0.609458
LJ           2.00522        -1.17814        0.479174
LJ          -0.65336        -2.30059         1.54828
LJ          0.251941       -0.971246         1.47951
LJ          -2.33328      -0.0884462        0.430803
LJ          -1.33978      -0.0725723        0.789931
LJ           -1.9424        -3.47057         1.80111
LJ          -6.31235        -1.53957         4.33247
LJ         0.0399436        -1.02765         2.48442
LJ          -1.36666        -1.41432         2.25987
LJ         -0.189212         1.62402        0.944532
LJ          0.225716        -1.18869         3.53623
LJ          0.281865        -1.96266         2.00453
LJ           2.33536         5.66428        -4.60759
LJ          -4.42817         5.72961         2.50678
LJ           6.28017         2.42868        -6.08986
LJ          -1.48256        0.149734         1.88888
LJ           -1.6408         2.03123        -0.56194
LJ          0.435463         2.23954        0.270185
LJ          -1.07342        -4.30037       -0.129003
LJ           3.53692         5.73979         4.99966
LJ           6.02514         2.88432        -3.95245
LJ           3.22677         4.44413         4.19906
LJ           5.28675        -4.46784         3.29089
LJ           2.74393         3.34549          3.8976
LJ          -3.59707        -3.00712        -1.36519
LJ          -6.21522        -2.94894        -5.22026
LJ         -0.524983        -6.17028        -2.63906
