108
#Comment!
LJ           -2.8981         -2.8981         -2.8981
LJ          -2.02194        -2.02194        -2.84467
LJ          -2.84467        -2.02194        -2.02194
LJ          -2.02194        -2.84467        -2.02194
LJ          -1.08232        -2.82302        -2.82302
LJ        0.00817655         -1.9904        -2.77825
LJ          -1.08692        -2.11168        -2.11168
LJ        0.00817655        -2.77825         -1.9904
LJ          0.987355        -2.82978        -2.82978
LJ           1.75257        -2.06456        -2.82978
LJ          0.988912        -2.06612        -2.06612
LJ           1.75257        -2.82978        -2.06456
LJ          -2.82302        -1.08232        -2.82302
LJ           -1.9904      0.00817655        -2.77825
LJ          -2.77825      0.00817655         -1.9904
LJ          -2.11168        -1.08692        -2.11168
LJ           -1.0845         -1.0845        -2.62052
LJ        0.00727459      0.00727459        -2.62053
LJ           -1.0852      0.00797016        -2.19444
LJ        0.00797016         -1.0852        -2.19444
LJ          0.913192        -1.08541        -2.77826
LJ            1.7458      0.00509244        -2.82303
LJ           1.03448      0.00969142        -2.11167
LJ           1.70103        -1.08541        -1.99038
LJ          -2.82978        0.987355        -2.82978
LJ          -2.06456         1.75257        -2.82978
LJ          -2.82978         1.75257        -2.06456
LJ          -2.06612        0.988912        -2.06612
LJ          -1.08541        0.913192        -2.77826
LJ        0.00509244          1.7458        -2.82303
LJ          -1.08541         1.70103        -1.99038
LJ        0.00969142         1.03448        -2.11167
LJ          0.944739        0.944739        -2.84468
LJ           1.82087         1.82087        -2.89809
LJ          0.944716         1.76747        -2.02193
LJ           1.76747        0.944716        -2.02193
LJ          -2.82302        -2.82302        -1.08232
LJ          -2.11168        -2.11168        -1.08692
LJ          -2.77825         -1.9904      0.00817655
LJ           -1.9904        -2.77825      0.00817655
LJ           -1.0845        -2.62052         -1.0845
LJ        0.00797016        -2.19444         -1.0852
LJ           -1.0852        -2.19444      0.00797016
LJ        0.00727459        -2.62053      0.00727459
LJ          0.913192        -2.77826        -1.08541
LJ           1.70103        -1.99038        -1.08541
LJ           1.03448        -2.11167      0.00969142
LJ            1.7458        -2.82303      0.00509244
LJ          -2.62052         -1.0845         -1.0845
LJ          -2.19444      0.00797016         -1.0852
LJ          -2.62053      0.00727459      0.00727459
LJ          -2.19444         -1.0852      0.00797016
LJ          -1.08689        -1.08689        -1.08689
LJ        0.00965366      0.00965366        -1.08689
LJ          -1.08689      0.00965366      0.00965366
LJ        0.00965366        -1.08689      0.00965366
LJ           1.11725         -1.0852         -1.0852
LJ            1.5433      0.00727496         -1.0845
LJ           1.11725      0.00796893      0.00796893
LJ            1.5433         -1.0845      0.00727496
LJ          -2.77826        0.913192        -1.08541
LJ          -1.99038         1.70103        -1.08541
LJ          -2.82303          1.7458      0.00509244
LJ          -2.11167         1.03448      0.00969142
LJ           -1.0852         1.11725         -1.0852
LJ        0.00727496          1.5433         -1.0845
LJ           -1.0845          1.5433      0.00727496
LJ        0.00796893         1.11725      0.00796893
LJ           1.03446         1.03446        -1.08692
LJ           1.74581         1.74581        -1.08232
LJ          0.913181         1.70104      0.00817672
LJ           1.70104        0.913181      0.00817672
LJ          -2.82978        -2.82978        0.987355
LJ          -2.06612        -2.06612        0.988912
LJ          -2.82978        -2.06456         1.75257
LJ          -2.06456        -2.82978         1.75257
LJ          -1.08541        -2.77826        0.913192
LJ        0.00969142        -2.11167         1.03448
LJ          -1.08541        -1.99038         1.70103
LJ        0.00509244        -2.82303          1.7458
LJ          0.944739        -2.84468        0.944739
LJ           1.76747        -2.02193        0.944716
LJ          0.944716        -2.02193         1.76747
LJ           1.82087        -2.89809         1.82087
LJ          -2.77826        -1.08541        0.913192
LJ          -2.11167      0.00969142         1.03448
LJ          -2.82303      0.00509244          1.7458
LJ          -1.99038        -1.08541         1.70103
LJ           -1.0852         -1.0852         1.11725
LJ        0.00796893      0.00796893         1.11725
LJ           -1.0845      0.00727496          1.5433
LJ        0.00727496         -1.0845          1.5433
LJ           1.03446        -1.08692         1.03446
LJ           1.70104      0.00817672        0.913181
LJ          0.913181      0.00817672         1.70104
LJ           1.74581        -1.08232         1.74581
LJ          -2.84468        0.944739        0.944739
LJ          -2.02193         1.76747        0.944716
LJ          -2.89809         1.82087         1.82087
LJ          -2.02193        0.944716         1.76747
LJ          -1.08692         1.03446         1.03446
LJ        0.00817672         1.70104        0.913181
LJ          -1.08232         1.74581         1.74581
LJ        0.00817672        0.913181         1.70104
LJ          0.988898        0.988898        0.988898
LJ           1.75257         1.75257        0.987346
LJ          0.987346         1.75257         1.75257
LJ           1.75257        0.987346         1.75257
