108
#Comment!
LJ           3.44909       -0.409063        0.558682
LJ          -2.61695         2.75456        -4.56439
LJ           1.10304        -1.92982         2.10002
LJ          -1.60101         2.68638       -0.215484
LJ          -0.57738       -0.276958         2.26558
LJ           1.25165        -2.83993       -0.588551
LJ          0.704161       -0.122994        -1.22763
LJ           2.63099        -2.71289       -0.307796
LJ           1.79249        -1.03299         2.16803
LJ         -0.885024        -2.33401         2.64832
LJ        -0.0950655         1.71977         3.31091
LJ            0.3796        0.796377        0.115697
LJ          0.459459        -1.08406         0.24616
LJ           2.41582        -4.72375        -3.87128
LJ           2.29514        -3.24768        -1.14481
LJ          0.354965        -1.90359        0.815263
LJ           3.75962        -1.89093         5.55147
LJ           1.22382         1.56942        0.148703
LJ         -0.354943         5.09527        -3.01999
LJ           2.01103        -1.85084       -0.583182
LJ            -2.444        0.432216         2.50222
LJ           1.44127         3.33068         -1.6292
LJ           2.45617       -0.323711        0.470514
LJ         -0.869585        -3.29932       -0.851283
LJ          0.369285         1.69938         1.89391
LJ        -0.0229144         2.32444        -1.13469
LJ          -1.13715        0.851106        -1.27075
LJ          -5.79407         5.38174        -1.84708
LJ           3.60191         1.27934         1.58524
LJ           1.65292        -2.60588         1.26043
LJ           1.48155       -0.401207         5.29598
LJ           4.78364       -0.505572         2.48095
LJ           1.44203        -2.37133        -1.56365
LJ          0.420567       -0.820189         -2.0257
LJ         0.0111278         2.19623        0.052266
LJ           3.19535      -0.0237088       -0.486296
LJ           2.29289        -1.27131         1.03522
LJ          0.289262        -2.43952        -1.88101
LJ          0.904063       -0.148675       -0.190544
LJ           1.67673        0.733794       -0.652333
LJ           2.10321         2.03336       -0.400175
LJ         -0.231517        -1.91999         1.73927
LJ          0.939605        -1.45088        -1.01446
LJ        -0.0730373       -0.279971        0.390325
LJ           1.99138         1.13787         3.34296
LJ           3.94047        -4.78926        -2.82899
LJ           2.73986       -0.470871         1.40604
LJ           2.48134        -1.48519         2.94357
LJ           2.71445        -1.73566        -1.63504
LJ            -0.819          1.9751           1.135
LJ           2.31085        0.567104          1.4517
LJ         -0.147672         3.93562        -2.51784
LJ          -1.13804         6.41589        -3.25785
LJ        -0.0782486        0.335278         1.30726
LJ           2.45149        -1.96888         2.02781
LJ           2.73576        -1.23912        0.016358
LJ           2.43536        0.821878        0.178347
LJ           3.19133        -2.57271        -1.21732
LJ           1.06027       -0.877382         3.45658
LJ           3.24724        0.713125        0.740459
LJ          0.428422        0.918929        -1.14702
LJ           5.71396         6.41492        -5.08614
LJ         0.0796187        -1.45118         2.57708
LJ         -0.765206         4.82475         -1.9093
LJ           1.42878         1.47132         1.22492
LJ           1.53296       -0.869701        0.259611
LJ           1.81606        -2.82979         2.38782
LJ          0.969278         1.85481        -1.18008
LJ          0.642163          2.4269        -1.93255
LJ           2.05435         1.46814         2.29302
LJ           2.07677         1.36947        -4.93139
LJ           0.30479        0.458138         3.37174
LJ           1.16052        -1.37777         1.22629
LJ           1.61014        0.457117        0.643287
LJ         -0.176285        -0.97021         1.32863
LJ          0.786857       -0.436384        0.961714
LJ           1.72013       -0.472645         1.37274
LJ         -0.749022         1.39993     -0.00385354
LJ           3.52435         -1.0351         4.98029
LJ           0.43453       -0.178576         2.08633
LJ           2.12896       -0.414627       -0.566373
LJ           1.29921        -2.09766        0.270186
LJ           2.03625       0.0887976         2.49184
LJ           3.28187        -1.50443         1.60495
LJ          0.812284         2.28501        0.840272
LJ          -1.19164       0.0143566         1.05421
LJ         -0.528665        -1.11227        0.227398
LJ         -0.371359         1.02648        -2.05827
LJ           1.06351        0.600481         1.71382
LJ          0.540731        -2.68013         2.43639
LJ           1.03513         2.44013       -0.262739
LJ          0.138053         1.37392          1.0084
LJ        -0.0432761        0.767987         2.41233
LJ          0.127598       -0.824778       -0.682505
LJ          0.394344        -2.28786       -0.403211
LJ           1.64007         0.56717         5.61799
LJ         -0.208189        0.201844       -0.557846
LJ          0.113109         3.29334       -0.246956
LJ          -2.95548         6.28315         5.12252
LJ           5.00773         4.69306         6.11478
LJ          -1.35319         3.36699       -0.991047
LJ         -0.289602       0.0629493        -1.55388
LJ          0.633335         3.19874        -1.10099
LJ           2.93074       -0.250741        -1.71699
LJ         -0.305298         3.89182        -1.29151
LJ          -1.31275        -1.78858         1.88786
LJ           3.17993        -3.37826        0.208768
LJ           2.17293        -3.29617        0.426654
