108
#Comment!
LJ          -2.95689        -2.95689        -2.95689
LJ          -1.08987        -1.08987        -3.21904
LJ          -3.21903        -1.08987        -1.08987
LJ          -1.08987        -3.21904        -1.08987
LJ          -1.35488        -2.19433        -2.19433
LJ          -0.66952        -2.04689        -3.75356
LJ         -0.379697        -1.25183        -1.25183
LJ         -0.669519        -3.75355        -2.04689
LJ          0.976194        -1.70902        -1.70902
LJ            2.1234       -0.363723        -1.55878
LJ           3.96804         5.09648         5.09648
LJ            2.1234        -1.55878       -0.363724
LJ          -2.19433        -1.35488        -2.19433
LJ          -2.04689       -0.669519        -3.75355
LJ          -3.75356       -0.669519        -2.04689
LJ          -1.25183       -0.379696        -1.25183
LJ         -0.904898       -0.904899        -2.09101
LJ         -0.207609       -0.207607         -1.5192
LJ          -1.75588      0.00334454        -2.50519
LJ        0.00334567        -1.75588        -2.50519
LJ           1.20939        0.388597        -3.33937
LJ           1.38038       -0.741012        -2.42336
LJ          0.434588       -0.798002        -2.16121
LJ           3.25728      -0.0162866        -2.25146
LJ          -1.70902        0.976196        -1.70902
LJ         -0.363722          2.1234        -1.55878
LJ          -1.55878          2.1234       -0.363721
LJ           5.09648         3.96804         5.09648
LJ          0.388596         1.20939        -3.33936
LJ         -0.741016         1.38038        -2.42336
LJ        -0.0162871         3.25728        -2.25146
LJ            -0.798         0.43459        -2.16121
LJ         0.0208818       0.0208822        -2.68714
LJ          0.734942        0.734941        -2.33541
LJ          0.751514         1.82365        -2.16175
LJ           1.82365        0.751514        -2.16174
LJ          -2.19433        -2.19433        -1.35488
LJ          -1.25183        -1.25183       -0.379697
LJ          -3.75355        -2.04689       -0.669519
LJ          -2.04689        -3.75355       -0.669519
LJ         -0.904898        -2.09101         -0.9049
LJ        0.00334281        -2.50519        -1.75588
LJ          -1.75588        -2.50519      0.00334187
LJ         -0.207609        -1.51921       -0.207608
LJ           1.20939        -3.33937        0.388597
LJ           3.25728        -2.25146      -0.0162864
LJ          0.434588        -2.16121       -0.798001
LJ           1.38038        -2.42336        -0.74101
LJ          -2.09101       -0.904898       -0.904897
LJ          -2.50519      0.00334483        -1.75588
LJ           -1.5192       -0.207608       -0.207608
LJ          -2.50519        -1.75588      0.00334715
LJ         -0.561709       -0.561707       -0.561708
LJ          0.216819        0.216819       -0.618091
LJ          -0.61809         0.21682         0.21682
LJ          0.216817       -0.618092        0.216818
LJ          0.656016       -0.809462       -0.809461
LJ          0.971154       -0.036405        -1.55041
LJ           1.35134       -0.309557        -0.30955
LJ          0.971153        -1.55041      -0.0364033
LJ          -3.33936         1.20939        0.388596
LJ          -2.25146         3.25728      -0.0162871
LJ          -2.42336         1.38038       -0.741016
LJ          -2.16121        0.434589          -0.798
LJ         -0.809461        0.656016       -0.809461
LJ        -0.0364045        0.971155        -1.55041
LJ          -1.55041        0.971156      -0.0364051
LJ         -0.309554         1.35134       -0.309555
LJ          0.949987         0.94999        0.178288
LJ           1.18169         1.18169       -0.935337
LJ           1.75183         2.71055        -2.23832
LJ           2.71055         1.75183        -2.23832
LJ          -1.70902        -1.70902        0.976195
LJ           5.09648         5.09648         3.96804
LJ          -1.55878       -0.363722          2.1234
LJ         -0.363724        -1.55878          2.1234
LJ          0.388596        -3.33936         1.20939
LJ            -0.798        -2.16121         0.43459
LJ        -0.0162872        -2.25146         3.25728
LJ         -0.741013        -2.42336         1.38038
LJ         0.0208812        -2.68714        0.020882
LJ           1.82365        -2.16175        0.751513
LJ          0.751515        -2.16175         1.82365
LJ          0.734942        -2.33541        0.734941
LJ          -3.33937        0.388597         1.20939
LJ          -2.16121       -0.798001        0.434588
LJ          -2.42336       -0.741014         1.38038
LJ          -2.25146      -0.0162866         3.25728
LJ         -0.809461       -0.809462        0.656015
LJ         -0.309553       -0.309559         1.35134
LJ          -1.55041      -0.0364054        0.971155
LJ        -0.0364034        -1.55041        0.971154
LJ          0.949989        0.178291        0.949991
LJ           2.71056        -2.23832         1.75183
LJ           1.75183        -2.23832         2.71056
LJ           1.18169       -0.935335         1.18168
LJ          -2.68714       0.0208824        0.020882
LJ          -2.16175         1.82365        0.751512
LJ          -2.33541        0.734941        0.734942
LJ          -2.16174        0.751512         1.82365
LJ          0.178285        0.949988        0.949986
LJ          -2.23832         2.71055         1.75183
LJ         -0.935338         1.18169         1.18169
LJ          -2.23832         1.75183         2.71055
LJ           3.69104         3.69104         3.69104
LJ            2.0128          2.0128       -0.822229
LJ          -0.82223          2.0128          2.0128
LJ            2.0128        -0.82223          2.0128
