108
#Comment!
LJ          -1.54136        -1.19205        -1.64216
LJ          -3.11335        -3.08233        -4.93702
LJ          -4.82937        -2.93278        -2.97928
LJ          -3.06819        -4.98289        -3.09528
LJ          0.579269        -3.66496        -2.45034
LJ         0.0963362       -0.518416        -2.83274
LJ          0.805044        -1.60959        -1.15152
LJ           1.26822        -2.52877       -0.348264
LJ          0.403139        -1.92949         -2.0189
LJ           1.88696      -0.0653801       -0.590469
LJ           5.07097         3.98145         4.15256
LJ           0.87974        -1.14914         1.42194
LJ          -1.82357        -1.10645        -2.62929
LJ          -0.17853         2.20863        -2.58534
LJ          -2.46801        0.864574        0.601768
LJ          -1.11588        0.876126        -1.30346
LJ          -1.10499        -0.14251        -1.93384
LJ          0.110207        0.194812       -0.175661
LJ           -1.2012        0.144776         -3.0131
LJ         -0.543362        -1.28472        -1.87573
LJ           1.48594        -2.02813        -2.50201
LJ           1.16006       -0.871501        -2.20112
LJ          0.189858       -0.356628        -1.58777
LJ           6.16601        -4.12052        -5.51994
LJ          -1.98559         1.34563         -3.2854
LJ          0.282989         1.80645       -0.735869
LJ         0.0068645         2.51403       0.0930274
LJ           4.24697         5.60997          4.3459
LJ         -0.842344         1.26719        -3.16934
LJ          -1.17178         1.75272        -2.23806
LJ          -4.12126         6.16453        -5.51843
LJ         -0.606888        0.728989        -2.13026
LJ       -0.00869084        0.625955         -3.2454
LJ          0.522317         1.12016        -1.81656
LJ         -0.363233         1.77028        -1.58082
LJ           1.01226        0.176558        -2.38688
LJ          -1.59756         -2.9425       -0.259351
LJ          -1.51643       -0.949478        0.969011
LJ          -1.97327    -9.14046e-05         1.56327
LJ          0.287593        -2.94793         1.04405
LJ          -1.19417        -1.90686       -0.768028
LJ         -0.271416        -2.22151        -1.10389
LJ         -0.921224        -2.61998        0.747284
LJ          0.221029       -0.774238         0.49356
LJ           1.08721        -3.11298        -1.37058
LJ           6.16402        -5.52144        -4.12405
LJ        -0.0240498        -1.34417       -0.553609
LJ           1.89445        -1.68232       -0.634837
LJ          -1.62357       -0.328442        -0.42312
LJ          -2.02029        0.968578        -2.23007
LJ         -0.655081       -0.208665        0.712042
LJ          -1.80293        -1.82629        0.332823
LJ         -0.609749       -0.276771       -0.869304
LJ           1.13248        0.733478       -0.425813
LJ          0.221795        0.488418        0.909846
LJ           1.10409      -0.0330786        0.412113
LJ          0.875691         -0.4961       -0.681759
LJ           1.17799        0.355247          -1.366
LJ           2.09712        0.240093        -2.07295
LJ            0.9023        -1.55862       0.0202861
LJ          -3.19232         0.99812       -0.534822
LJ          -5.51884         6.16527        -4.12029
LJ          -2.20629         1.83938        -1.03182
LJ          -1.92832        0.237004        -1.29792
LJ          0.151499         1.23048        0.123466
LJ         -0.115909        0.920872       -0.915404
LJ         -0.808423        0.677062       -0.175578
LJ         -0.776244         1.59897       -0.602639
LJ           3.71733         4.27181         1.26478
LJ           4.51279         4.43084         3.12982
LJ          -2.49935         3.81524         5.55132
LJ           3.81493        -2.49976         5.55105
LJ          -1.78449         -3.5078        0.894659
LJ           4.28479         4.08003         5.07822
LJ         -0.173027        0.522818         2.13722
LJ          0.460545        -0.18663         1.75413
LJ          -1.12576        -3.48178         1.71365
LJ         -0.652687        -1.54867        0.732021
LJ          -4.12319         -5.5201         6.16432
LJ          -1.64426        -2.45666          1.5862
LJ        -0.0796766        -2.29413      -0.0201097
LJ           1.48801         -2.2204        0.858975
LJ         -0.465557        -2.21845         1.63523
LJ          0.349299        -1.88103        0.923544
LJ          -2.42696        -0.70032         0.40935
LJ         -0.955264        -0.95149      -0.0529743
LJ          -2.71711        -2.16969        0.906771
LJ          -5.51971        -4.12002         6.16528
LJ         -0.958633       -0.274656         1.75646
LJ          -1.11614        -1.41055         1.78487
LJ         -0.755975          1.0678         1.07869
LJ         -0.203427       -0.964635         1.48634
LJ           2.87512        0.177401         3.48818
LJ           3.81691         5.54838         -2.4994
LJ          -2.50003         5.55061         3.81518
LJ           4.72784         3.10522         4.75665
LJ          -1.59829        0.256362        0.515844
LJ           -1.8805        0.856787       -0.395233
LJ           -1.9183         2.05138        0.899376
LJ          -3.16586      -0.0939628         1.12653
LJ           1.44613         4.34935         4.20773
LJ            5.5563         3.81286         -2.4977
LJ           2.99157         4.39256         4.43208
LJ           5.55111        -2.49721         3.81659
LJ           4.02995         4.70806          4.1393
LJ           5.29522         4.93435       -0.992579
LJ         -0.577345         4.96853         5.08083
LJ           5.74025       -0.727217         5.17927
