108
#Comment!
LJ          -1.94499         -1.8855       -0.245597
LJ          -4.63452        -5.38588         4.63014
LJ          -6.13374        -5.93242         -4.1789
LJ           5.90271         6.43001        -3.66281
LJ           2.30966        -2.21727        0.337362
LJ          -0.71294         1.05883        -2.31616
LJ          0.873386        -1.77895       -0.729995
LJ          0.416676        -2.50213      -0.0657198
LJ         -0.297476        -2.24101        -1.71363
LJ           1.16868        0.615986       -0.310412
LJ           3.29622         2.61811         2.83168
LJ           1.15514        -1.36097         2.01643
LJ         -0.665395        -1.46323        -2.52783
LJ        -0.0158604         3.30082        -1.35685
LJ          -1.13734         1.23146        0.096331
LJ         -0.536288         2.30114        -1.17796
LJ          -1.65209      -0.0459311        -1.25668
LJ          0.473265        0.144289        0.360029
LJ          -2.15781         1.52266        -1.19382
LJ         -0.625918       -0.826718         -1.1728
LJ           1.20793        -1.00819        -2.66698
LJ           1.10379       -0.736103        -1.37122
LJ          0.317032        -1.33205         -1.8435
LJ           3.73741        -1.58315         4.12722
LJ          -0.37804         3.08007         4.62513
LJ          0.816237         2.84571        -2.17173
LJ           1.02863         2.17976        -1.24983
LJ           3.74634       -0.179222         3.78317
LJ         -0.386456         2.26964        -2.34226
LJ          -1.11573         3.13012        -1.95239
LJ          -1.52868         3.07138         5.06863
LJ         -0.420533        0.262411         -1.6153
LJ          0.685569         1.70026        -2.72131
LJ          0.382278        0.721089         -2.3377
LJ         0.0738273         1.46697        -1.59907
LJ          -1.22805       -0.159456        -2.33279
LJ          -1.23776        -2.00081        -1.09739
LJ           -2.0973       -0.893534         1.52933
LJ          -1.56757        0.839213        0.991147
LJ          0.460897        -2.35859          1.0458
LJ           -1.0191        -1.26722      -0.0317849
LJ         -0.819311        -3.23116         -1.1768
LJ          -2.23987        -1.12952        0.445457
LJ         -0.441476       -0.454594        0.276057
LJ         -0.157592        -3.53538       0.0548464
LJ           6.28182         2.52113        -1.74539
LJ         -0.204154        -1.67852       -0.659183
LJ           1.98576        -1.11635       -0.726202
LJ         -0.657651        0.205033       -0.519737
LJ          -1.12817        0.944083          -1.158
LJ         0.0231547      0.00278018         1.47416
LJ          -3.10662       -0.352346       -0.496467
LJ          0.172577       -0.360955       -0.531094
LJ           1.18711         1.16069        -1.58551
LJ           1.24934        0.344258         1.21675
LJ           1.00639        -0.65812         1.13553
LJ            1.2804        -0.65147       -0.225662
LJ           0.67279        0.225221         -1.3472
LJ           1.79984      -0.0657878        -1.09831
LJ          0.833845        -1.56619         0.36604
LJ           -2.0335        -1.09811        -1.00617
LJ           4.13223         4.74433         4.12145
LJ          -2.00329        0.717545       -0.207575
LJ          -1.56633       -0.454143       -0.255605
LJ          0.681903         1.23084        0.581183
LJ          0.211243        0.869454       -0.584668
LJ         -0.404792        0.662184        0.459883
LJ          -0.29622         1.71533       -0.267288
LJ            3.3696         5.72671          2.8095
LJ           3.71256         3.43782         3.66776
LJ          -4.40074         2.49849         6.03267
LJ           1.62721        -4.45518          6.2413
LJ         -0.970896        -2.48829      -0.0166472
LJ           3.17219         1.86366         1.95892
LJ          -0.64518        0.893005         1.52284
LJ          0.850044       -0.455842         2.14584
LJ          -1.11356        -3.21233        0.931544
LJ          -1.16708        -1.28294          1.0856
LJ         -0.840121         5.12364          4.4643
LJ           -1.7461        -2.20519         1.69037
LJ         -0.270664        -1.66042        0.467741
LJ           1.90011        -1.26208        0.383175
LJ         -0.763445        -2.20663         1.28902
LJ          0.144772        -1.30022         1.35985
LJ          -2.49004       0.0430032        0.434533
LJ          -1.35993       -0.172191        0.882658
LJ          -1.54389        -3.56192         1.84057
LJ          -6.03229        -1.20105         4.21897
LJ        -0.0383813       -0.760122          2.5986
LJ          -1.01608        -1.49001         2.10458
LJ         -0.832235         1.83933        0.850785
LJ          0.358368        -1.32866         3.72259
LJ         0.0732294        -2.12824         2.07157
LJ           2.05284         5.79042         -4.8634
LJ          -4.65023         5.87042         2.25562
LJ           6.44192         2.38563        -5.86619
LJ          -1.14776       -0.201876         1.98415
LJ          -1.45056         2.02129       -0.522485
LJ          0.466056         2.19157        0.157971
LJ         -0.556903        -4.50621        -0.28254
LJ           3.93303         5.63796         4.99117
LJ           6.22245         2.71978        -4.06877
LJ           2.74505         4.46086         4.07801
LJ           5.31872         -4.6624         3.24244
LJ           2.75787         3.40503         4.09373
LJ          -3.16353        -2.36033        -1.17518
LJ           6.10674        -2.28135        -5.16751
LJ          0.215263         6.04292        -2.03962
