108
#Comment!
LJ           3.61301       -0.515936        0.443213
LJ          -2.66692         2.73909        -4.76287
LJ           1.16939        -1.94632         2.28977
LJ          -1.66365         2.59343       -0.084064
LJ         -0.662747       -0.333012         2.00651
LJ             1.386        -2.97743        -0.47848
LJ          0.767504       -0.192386        -1.12331
LJ           2.83137        -2.68768       -0.405126
LJ           1.82878        -1.15336         2.09258
LJ         -0.696363        -2.54683         2.60101
LJ         0.0933035         1.57421         3.28262
LJ          0.468015        0.704061      -0.0807402
LJ          0.628098        -1.26893        0.289942
LJ           2.46882        -4.51099        -4.03118
LJ           2.21317        -3.20563        -1.21841
LJ          0.286522        -2.09902        0.952928
LJ           3.55442         -1.9661         5.42532
LJ           1.15123         1.41603        0.129799
LJ         -0.348748          5.0954        -2.88636
LJ           2.09378        -1.82958       -0.435387
LJ          -2.42393        0.444759         2.34468
LJ           1.63434         3.42846            -1.7
LJ           2.40515         -0.3409        0.368058
LJ         -0.649718        -3.34919       -0.771347
LJ          0.494671         1.76752         1.89735
LJ        -0.0697524         2.35269       -0.950711
LJ          -1.18934         0.92016        -1.15619
LJ          -6.11877         5.33667        -1.86405
LJ           3.68537         1.35768         1.75446
LJ           1.51512        -2.60759         1.11531
LJ           1.36882       -0.565037          5.3476
LJ           4.83188       -0.620661         2.28251
LJ           1.35864        -2.31084        -1.54806
LJ          0.422854       -0.829007        -1.91874
LJ           0.08674         2.02214       0.0327219
LJ           3.07586      -0.0967894       -0.388352
LJ           2.41423        -1.41128        0.948784
LJ          0.317234         -2.1476        -1.58718
LJ           1.00584       -0.177499      -0.0790507
LJ           1.60674        0.493505       -0.630987
LJ           1.93831         1.94151       -0.498018
LJ          -0.36526        -2.03994          1.7172
LJ           1.03684        -1.41103       -0.678911
LJ         0.0670989       -0.100879        0.402059
LJ            1.8819         1.20698         3.44057
LJ           3.77676        -4.79761        -2.74394
LJ           2.96131       -0.273158         1.60809
LJ           2.31877        -1.30863         3.03009
LJ           2.72658        -1.54838        -1.53023
LJ         -0.710926         1.96264        0.950421
LJ           2.31761        0.804827         1.52293
LJ        -0.0747574         4.07217        -2.48077
LJ          -1.35826         6.29868        -3.31396
LJ        -0.0938611        0.283565         1.28002
LJ           2.29667        -2.13672         2.06932
LJ           2.93586        -1.24878      -0.0882658
LJ           2.38958        0.762612       0.0291502
LJ           3.47645        -2.35608        -1.20715
LJ            1.0561       -0.794671         3.36484
LJ           3.45889        0.642921        0.684755
LJ          0.532988        0.992227       -0.974538
LJ           5.52254         6.46217        -5.10932
LJ         0.0577814        -1.39319         2.57438
LJ         -0.835777         4.88648        -1.83153
LJ           1.29284         1.53729         1.17742
LJ           1.60059       -0.949733        0.509602
LJ            1.7203        -2.93751         2.51444
LJ           1.07758          1.8915        -1.02306
LJ          0.712722         2.38299        -2.08953
LJ           2.17731         1.49396         2.36105
LJ           2.11552         1.28586        -4.85035
LJ         0.0869975        0.353704         3.26939
LJ           1.18145        -1.46981         1.29593
LJ           1.48881        0.368643        0.567817
LJ         -0.268087       -0.905153         1.28302
LJ          0.780629       -0.335252         1.11955
LJ           1.85076       -0.242985         1.30739
LJ          -0.94403         1.63375      -0.0413285
LJ           3.57471       -0.952519         4.88797
LJ          0.599139        -0.20928         2.33914
LJ           2.13084       -0.591604       -0.728903
LJ           1.25828        -2.01787        0.260636
LJ           1.93853        0.287474         2.36544
LJ           3.26772        -1.29054         1.57799
LJ          0.816104         2.39821        0.710857
LJ          -1.02915      -0.0490393         1.09342
LJ          -0.66634         -1.1214         0.14817
LJ         -0.380608         1.09358        -1.93267
LJ           0.98583        0.632912         1.66929
LJ          0.334922         -2.7717         2.48187
LJ          0.995076         2.67117       -0.300489
LJ          0.300224          1.3827        0.821678
LJ          0.103971         0.82896         2.08574
LJ         0.0719625       -0.819437       -0.537197
LJ          0.386922        -2.33217       -0.506886
LJ           1.74882         0.72926         5.42124
LJ          -0.26387        0.233984       -0.632605
LJ         -0.146478         3.22057       -0.105159
LJ          -3.11874          6.2047         5.23461
LJ            4.9679         4.80949         6.06451
LJ          -1.42768         3.30358        -0.96499
LJ         -0.379763       0.0097024         -1.6861
LJ           0.59542         3.14217         -1.2014
LJ           2.62793       -0.259633        -1.48308
LJ         -0.246466         3.76611        -1.18715
LJ          -1.36959        -1.71012         1.95659
LJ           3.64194        -3.54547      -0.0435491
LJ            2.0851        -3.22506        0.311041
