108
#Comment!
LJ          -1.66454        -1.66454        -1.66454
LJ          -2.00689        -2.00689        -3.35698
LJ          -3.35698        -2.00689        -2.00689
LJ          -2.00689        -3.35698        -2.00689
LJ           -1.8305        -3.05688        -3.05688
LJ         0.0884215        -2.35154         -3.8222
LJ         -0.929542        -2.30901        -2.30901
LJ         0.0884215         -3.8222        -2.35154
LJ          0.661204        -2.85005        -2.85005
LJ            1.7714         -1.7385        -2.84819
LJ          0.995619        -2.07542        -2.07542
LJ            1.7714        -2.84819         -1.7385
LJ          -3.05688         -1.8305        -3.05688
LJ          -2.35154       0.0884215         -3.8222
LJ           -3.8222       0.0884215        -2.35154
LJ          -2.30901       -0.929542        -2.30901
LJ         -0.901161       -0.901161        -2.64626
LJ          -0.17865        -0.17865        -2.64694
LJ          -1.03045       -0.048284        -1.82049
LJ         -0.048284        -1.03045        -1.82049
LJ           1.27533        -1.16551         -3.8212
LJ           1.98053         0.75323        -3.05719
LJ           1.23318       -0.147901        -2.31064
LJ           2.74428        -1.16535        -2.35136
LJ          -2.85005        0.661204        -2.85005
LJ           -1.7385          1.7714        -2.84819
LJ          -2.84819          1.7714         -1.7385
LJ          -2.07542        0.995619        -2.07542
LJ          -1.16551         1.27533         -3.8212
LJ           0.75323         1.98053        -3.05719
LJ          -1.16535         2.74428        -2.35136
LJ         -0.147901         1.23318        -2.31064
LJ          0.931171        0.931171        -3.35811
LJ          0.588538        0.588538        -1.66547
LJ          0.930925         2.28077        -2.00763
LJ           2.28077        0.930925        -2.00763
LJ          -3.05688        -3.05688         -1.8305
LJ          -2.30901        -2.30901       -0.929542
LJ           -3.8222        -2.35154       0.0884215
LJ          -2.35154         -3.8222       0.0884215
LJ         -0.901161        -2.64626       -0.901161
LJ         -0.048284        -1.82049        -1.03045
LJ          -1.03045        -1.82049       -0.048284
LJ          -0.17865        -2.64694        -0.17865
LJ           1.27533         -3.8212        -1.16551
LJ           2.74428        -2.35136        -1.16535
LJ           1.23318        -2.31064       -0.147901
LJ           1.98053        -3.05719         0.75323
LJ          -2.64626       -0.901161       -0.901161
LJ          -1.82049       -0.048284        -1.03045
LJ          -2.64694        -0.17865        -0.17865
LJ          -1.82049        -1.03045       -0.048284
LJ          -0.94767        -0.94767        -0.94767
LJ         -0.129607       -0.129607       -0.947125
LJ         -0.947125       -0.129607       -0.129607
LJ         -0.129607       -0.947125       -0.129607
LJ          0.741394        -1.03028        -1.03028
LJ           1.56885       -0.176786        -0.89958
LJ          0.743039      -0.0475488      -0.0475488
LJ           1.56885        -0.89958       -0.176786
LJ           -3.8212         1.27533        -1.16551
LJ          -2.35136         2.74428        -1.16535
LJ          -3.05719         1.98053         0.75323
LJ          -2.31064         1.23318       -0.147901
LJ          -1.03028        0.741394        -1.03028
LJ         -0.176786         1.56885        -0.89958
LJ          -0.89958         1.56885       -0.176786
LJ        -0.0475488        0.743039      -0.0475488
LJ           1.23317         1.23317       -0.929589
LJ           1.98074         1.98074        -1.83067
LJ           1.27479         2.74476        0.088097
LJ           2.74476         1.27479        0.088097
LJ          -2.85005        -2.85005        0.661204
LJ          -2.07542        -2.07542        0.995619
LJ          -2.84819         -1.7385          1.7714
LJ           -1.7385        -2.84819          1.7714
LJ          -1.16551         -3.8212         1.27533
LJ         -0.147901        -2.31064         1.23318
LJ          -1.16535        -2.35136         2.74428
LJ           0.75323        -3.05719         1.98053
LJ          0.931171        -3.35811        0.931171
LJ           2.28077        -2.00763        0.930925
LJ          0.930925        -2.00763         2.28077
LJ          0.588538        -1.66547        0.588538
LJ           -3.8212        -1.16551         1.27533
LJ          -2.31064       -0.147901         1.23318
LJ          -3.05719         0.75323         1.98053
LJ          -2.35136        -1.16535         2.74428
LJ          -1.03028        -1.03028        0.741394
LJ        -0.0475488      -0.0475488        0.743039
LJ          -0.89958       -0.176786         1.56885
LJ         -0.176786        -0.89958         1.56885
LJ           1.23317       -0.929589         1.23317
LJ           2.74476        0.088097         1.27479
LJ           1.27479        0.088097         2.74476
LJ           1.98074        -1.83067         1.98074
LJ          -3.35811        0.931171        0.931171
LJ          -2.00763         2.28077        0.930925
LJ          -1.66547        0.588538        0.588538
LJ          -2.00763        0.930925         2.28077
LJ         -0.929589         1.23317         1.23317
LJ          0.088097         2.74476         1.27479
LJ          -1.83067         1.98074         1.98074
LJ          0.088097         1.27479         2.74476
LJ          0.997562        0.997562        0.997562
LJ           1.77192         1.77192        0.661215
LJ          0.661215         1.77192         1.77192
LJ           1.77192        0.661215         1.77192
