108
#Comment!
LJ           1.47442        -1.17797        0.818372
LJ           3.25455        -1.61606         2.73691
LJ          -1.86364      -0.0396904         1.45015
LJ          -1.11176         4.68127        0.761561
LJ           2.37128        -1.49483       -0.431268
LJ           2.42019         1.84584        -1.76783
LJ           1.49637       -0.110921         1.67169
LJ            2.4819        0.601266       -0.142405
LJ           2.10068        -2.02809        0.654046
LJ          0.777207        -1.41593        -2.07211
LJ         -0.705757         2.86101        0.580249
LJ           1.71607         1.67434         1.22956
LJ         -0.923335        -3.13748        0.158603
LJ           2.27028       -0.360097        -0.45833
LJ           -1.9445        0.574209         2.41519
LJ          0.692776         1.97037          2.2205
LJ          0.649011       -0.238307        -2.33332
LJ          0.177958        0.497547        0.623024
LJ         -0.531689          1.5089         2.12796
LJ         -0.782494       -0.715137       -0.834055
LJ          0.865887        -2.83785       -0.449942
LJ           1.13892       0.0634223       -0.388609
LJ           1.48357        0.635208        -2.32076
LJ           4.68227         5.45279        0.757685
LJ          -1.34455         5.06828         5.96346
LJ          -1.84675         2.89145        0.640876
LJ          -3.47174         4.60539      -0.0876558
LJ          -2.34624         5.44049        -5.65285
LJ           1.39357         1.64783         3.12781
LJ          -5.37758         2.21063         3.05265
LJ         -0.624676        0.129729         1.24213
LJ         -0.575448        -2.56985        -5.08427
LJ         -0.306418       -0.675707        -1.78167
LJ          0.276002        -1.25316       -0.967251
LJ          -1.40215         1.88138         0.74364
LJ          -0.21077        -2.32457       -0.110429
LJ           -1.2933         -2.2172       -0.409142
LJ          0.412517        0.980129        -2.14032
LJ          -1.41297         1.10818          1.5809
LJ           1.46501        0.823267        0.398904
LJ           2.05752      -0.0885414         0.49156
LJ           1.44555        -2.81019        0.390024
LJ          -1.43591        -1.05717       0.0109181
LJ          -1.31163        -0.80749        0.977469
LJ          0.366007       -0.258889          2.3747
LJ           3.74418        -3.51503         1.58768
LJ          0.752856        -1.86882       0.0349899
LJ           3.26324       -0.161207       -0.239553
LJ         -0.866525       0.0133612        0.139521
LJ          -2.43554         1.76481         1.06326
LJ          -1.53526       -0.525764          2.2721
LJ          -1.67334          1.0074         -0.5443
LJ         -0.856535        -3.56634         1.34555
LJ          -1.16944          1.8657       -0.819204
LJ          0.610452         1.31662         1.16885
LJ           2.37627         1.57758        0.521347
LJ           1.37643       -0.901708       -0.148202
LJ         0.0802728       -0.134424       -0.771248
LJ           1.18501        -2.00197        -1.14339
LJ           3.32645       -0.879245        -1.41357
LJ         -0.511365        0.661384        -1.41129
LJ          -3.25869          1.9477        -2.85104
LJ          -2.14192       -0.214162      -0.0797901
LJ          -1.71514       -0.274642         -1.5872
LJ         -0.227942         1.97069       -0.222957
LJ          0.108143         1.52199         -1.0945
LJ         -0.170525       0.0570317         3.30236
LJ          0.841248         2.01165      -0.0143239
LJ          -6.24275        -4.47284          3.4922
LJ         -0.651568           1.128        0.763915
LJ          -4.87965        -1.09924         5.20446
LJ           1.72339       -0.283981         2.81323
LJ           1.01773       -0.197427        0.702017
LJ          0.246565         2.32721        0.724046
LJ          -1.52295         2.16672         1.89959
LJ          0.317923         1.39655         4.03509
LJ          0.582651        -1.76098         1.28529
LJ          0.116553       -0.531836        0.315397
LJ           1.63896        -4.33433         6.34307
LJ           2.25648        -2.07477         1.73281
LJ          0.654909         1.03959         -0.2225
LJ          0.950689       -0.586605        -1.41778
LJ         -0.102323       -0.749354         1.32536
LJ         0.0689705         0.66954         1.75513
LJ         -0.858716          1.1363         3.21564
LJ          -1.55195        0.766956        0.451409
LJ          0.247799         1.11193         2.88361
LJ           1.81622         3.00463        -2.36136
LJ         -0.881292        0.558742         2.31783
LJ         -0.645421        -1.34659          2.1547
LJ          -2.70477         2.65482         1.76254
LJ          0.462077         2.25663         3.34099
LJ            1.2484        -1.31841         1.96918
LJ           4.79116         3.69555         1.84654
LJ          -5.63946        -6.31735        -5.85332
LJ          -3.50604         6.42802        -1.22337
LJ         -0.471268        0.935314       -0.280948
LJ           1.90506         1.62412       -0.612269
LJ           2.23441        0.567263        -1.43359
LJ           3.34996        -1.43501        -5.14876
LJ           3.53233         2.97732         3.74055
LJ          -2.14573         2.23579       -0.354982
LJ          -6.38785        -1.94829         3.96216
LJ          -5.25095        0.347252         4.49135
LJ          0.998074        0.688365        -1.24059
LJ          0.134394        -2.33127        -1.23316
LJ           1.59706        -4.50896         3.58385
LJ          -2.66094         6.30674        0.576983
