108
#Comment!
LJ           3.51508       -0.602922        0.727031
LJ          -2.53299         2.78058        -4.23284
LJ           1.15014        -1.81034         1.90207
LJ          -1.41174         2.69743       -0.319507
LJ          -0.51003       -0.184844         2.63088
LJ           1.31051        -2.69945       -0.559025
LJ          0.978337      -0.0669452        -1.39686
LJ           2.22123         -2.4558      -0.0813018
LJ           1.72755        -1.08733         2.48798
LJ         -0.882007        -2.04403         2.82569
LJ         -0.333988         1.82975         3.23167
LJ          0.467926        0.815682        0.343719
LJ          0.499409         -1.0023      -0.0285473
LJ           2.33948        -5.07782        -3.59588
LJ           1.95352        -3.38775        -1.04864
LJ          0.303049        -2.02324        0.746178
LJ           4.12168        -1.91647          5.8524
LJ           1.33552         1.45355        0.162486
LJ         -0.390357         5.01969        -3.15031
LJ           1.69271        -1.57728       -0.805958
LJ          -2.45184        0.405495         2.75324
LJ           1.65665         3.15317        -1.92501
LJ           2.22424      -0.0250732        0.488782
LJ          -1.19214        -3.18051       -0.983018
LJ          0.449082         1.71415          2.4227
LJ        -0.0893613         2.12288        -1.03566
LJ         -0.856164        0.705992        -1.29618
LJ          -5.25295          5.4569        -1.81893
LJ           3.52315         1.40477         1.68195
LJ           1.78692        -2.35984         1.16787
LJ           1.63498       -0.426524         5.06915
LJ           4.68092       -0.316026         2.79988
LJ           1.64333        -2.43568        -1.73566
LJ          0.375322       -0.842932        -2.05126
LJ        -0.0757237         2.25647       0.0806875
LJ           3.10946        0.103495       -0.560222
LJ           2.11219         -1.4227         0.94284
LJ           0.34352        -2.83337        -2.21189
LJ          0.858759      -0.0233536       -0.296433
LJ            1.4773         0.86425       -0.796005
LJ           2.15004          2.0094       -0.207681
LJ          0.118503        -2.10873         1.76681
LJ          0.813698        -1.58361        -1.46938
LJ          -0.48361      -0.0145965        0.445011
LJ           2.13825        0.903634         3.12894
LJ           4.20017        -4.77366        -2.97723
LJ           2.82336       -0.641681         1.71737
LJ            2.7158        -1.66794         2.97294
LJ           2.47231        -1.88069        -1.69006
LJ         -0.997872         2.03888         1.34303
LJ           2.31698        0.535669         1.60461
LJ         -0.295238         3.77706        -2.47434
LJ         -0.748135        -6.36152        -3.15378
LJ          0.081211        0.480341           1.477
LJ           2.28327        -1.81923         2.01285
LJ           2.59905        -1.20304      0.00577749
LJ           2.35229         1.01623       0.0992075
LJ            3.0696        -2.82812        -1.25711
LJ           1.06157        -1.00262         3.39065
LJ           3.07565        0.530022        0.809188
LJ           0.15761        0.943671        -1.27317
LJ           6.03237         6.33515        -5.04833
LJ          0.340132        -1.34028         2.70046
LJ         -0.637499         4.80039         -2.1968
LJ           1.71507         1.37642         1.14245
LJ           1.54633        -0.99184        0.066364
LJ           1.72485        -2.67934         2.39419
LJ          0.973442         1.68222        -1.13816
LJ          0.569604         2.71515        -2.18335
LJ           1.84178         1.18541         2.20003
LJ            2.0114         1.50784         -5.0679
LJ          0.753812        0.596083         3.52624
LJ          0.950297        -1.17984        0.921169
LJ            1.4067         0.51014        0.698655
LJ        -0.0270336        -1.05616         1.05257
LJ          0.545683       -0.214007        0.716454
LJ           1.64956       -0.507616         1.36162
LJ         -0.488478         1.04087       0.0583678
LJ           3.40846        -1.01797         5.03696
LJ          0.644346       -0.589729         1.96043
LJ           1.99492      0.00509621       -0.648952
LJ           1.39985        -1.99841        0.321755
LJ           2.12204      -0.0668305         2.42905
LJ           3.59383        -1.50984          1.3741
LJ          0.691366         2.05212         1.09867
LJ          -1.33937       0.0282816        0.998097
LJ         -0.728995        -1.58474        0.435478
LJ         -0.294768         1.03274        -2.27551
LJ           1.19388         0.47806         1.81183
LJ          0.611849        -2.70497         2.43177
LJ          0.986139         2.52416       -0.275465
LJ         -0.111576         1.45915        0.920522
LJ          -0.39903        0.883341         2.83119
LJ         0.0686493        -0.77875        -1.07299
LJ          0.338444        -1.97929        -0.37856
LJ           1.49737        0.591414         6.06202
LJ         -0.201365        0.230721       -0.587031
LJ          0.144931         3.39156       0.0970662
LJ          -2.68337          6.4139         4.93572
LJ            5.0746         4.50014         6.19972
LJ          -1.21148         3.46692        -1.08989
LJ         -0.288749      -0.0770556        -1.75261
LJ          0.629047         3.11089        -1.12579
LJ            3.4507       -0.244586        -2.01411
LJ         -0.305208         4.04237        -1.41209
LJ          -1.48204        -1.64576         1.61595
LJ           3.09627        -3.37076        0.706608
LJ           1.65025        -3.29065         0.74643
