108
#Comment!
LJ           3.60968       -0.531735         1.33224
LJ           2.38171         2.30978        -2.02962
LJ          0.192167        -2.48063        0.653186
LJ          -2.21789        0.474961        -0.62378
LJ         -0.174671          0.3255         3.65653
LJ          0.192869       -0.102711        -2.71799
LJ           1.25754        0.858167        -1.30518
LJ          0.752973        -1.41111        -2.18832
LJ           1.39255       -0.371708           2.684
LJ          0.216567       -0.976373         2.14852
LJ          0.250923         1.94301         2.24224
LJ          0.776863          1.0522         1.81268
LJ          -2.08883        -1.42096       -0.847367
LJ           3.77617         1.34204       -0.167337
LJ          -1.82368        -1.63096        0.371342
LJ          -1.60287       -0.837588         1.09331
LJ          -2.40834        -1.40935        -3.33376
LJ          0.700197        -0.14028        0.537152
LJ          0.323307          3.9861         4.64155
LJ         -0.645324       -0.879094        -1.01543
LJ          0.819577        -0.22159         4.22391
LJ          0.833244         1.82931       -0.705783
LJ           3.25439        0.828539       -0.927166
LJ          -5.05654        0.373036        -3.64275
LJ           3.44358         6.11952         5.39486
LJ         -0.132561         1.28571       -0.812887
LJ          -2.81388        -2.14308        -2.68989
LJ           5.78211        -6.35405        -1.11624
LJ            2.2244        0.763247         1.34735
LJ         -0.988152        -1.07394       0.0950014
LJ         -0.331899        -2.15744         2.00522
LJ           5.97543         4.34987        -3.69721
LJ         -0.193404        -4.63397        -0.17418
LJ           1.77883        0.128507         -2.5898
LJ          0.106692        0.665836          1.0314
LJ           3.02265       -0.304441        -1.38848
LJ           1.31576       -0.850023      -0.0413707
LJ         -0.053113        -1.69352        -1.21734
LJ         -0.383854       -0.226284         0.38465
LJ           2.23896         0.34008       -0.773602
LJ           1.49299         2.29571       0.0698124
LJ         -0.586589       -0.195311         2.46677
LJ          -1.39441       -0.757399        -2.27429
LJ          -1.25558       -0.333757       -0.529668
LJ           2.65374        -1.05811        0.992728
LJ          -3.89568        -4.49008        -6.01221
LJ           2.45815       -0.488711         2.04907
LJ           2.82783      -0.0868366        0.542931
LJ           -1.9943       -0.375916        -1.49927
LJ         -0.937937        0.229873          1.3434
LJ          0.861997         1.28512         2.98561
LJ         -0.188878         1.52214        -2.29539
LJ           5.39505        -4.21279        -1.64447
LJ          0.240087         1.74185          1.0397
LJ          0.921937       -0.188516         1.67147
LJ           3.28063         1.06025          1.0471
LJ          0.855905      -0.0356139       -0.682343
LJ           1.18726        -1.29916         -1.1698
LJ          0.605352       -0.765485         3.26355
LJ           3.70329        -0.48237        0.173417
LJ           1.37709        0.944526       -0.309363
LJ         -0.573792         4.70873        -4.30225
LJ           1.97713        -1.28606         2.33031
LJ          -1.64769       0.0288058        -2.88206
LJ           1.54736        0.421628        0.644385
LJ          0.369964       -0.615647        -1.53795
LJ           1.09981        -1.80211         3.24513
LJ           2.34124        0.869463        0.214711
LJ         -0.459713        -5.41809        -2.35605
LJ          -0.17314        0.707425         1.99793
LJ          -1.55206        0.642579         6.36529
LJ           2.74136         1.37894         2.23064
LJ         -0.134435       -0.362408         1.41093
LJ           1.52985         1.52858         1.13577
LJ          -1.45442       0.0370036        0.327584
LJ           1.22951        0.393761         3.61394
LJ          0.419987        -1.25607        0.811203
LJ          0.351279        0.737578       0.0316525
LJ          0.638879         1.67216         5.07198
LJ           1.39853        -2.61265         1.49959
LJ           1.61596       -0.361018        -1.49417
LJ          0.279024        -0.94982       -0.479542
LJ           1.58209        0.518401         2.29934
LJ           1.61372        -1.18244         1.28472
LJ           1.58902         1.70355         2.23195
LJ          -1.09854        0.672824       -0.331551
LJ          -0.99324        -2.17809        0.853101
LJ          0.246678        0.559733        -1.88597
LJ          0.511264        0.279875         2.78556
LJ         -0.620852        -1.29134         1.35247
LJ         -0.538944         1.31205        0.216641
LJ          0.257123         3.52162         1.77273
LJ         -0.522016         1.10809         2.98393
LJ          -1.26201        -1.74273        -1.52649
LJ          -1.00773        -1.98185       -0.423107
LJ           1.01132          1.2872        -2.29324
LJ          -0.21029        -0.02981       -0.727361
LJ         -0.246533         2.49907        0.459007
LJ           2.40424        -3.04751         1.02419
LJ           5.35823         1.28058        -5.62167
LJ           1.80247         5.17809       0.0890442
LJ          -1.02748        0.323899        -1.34144
LJ          0.850259         4.05329        0.508448
LJ          -2.85636         -1.2016        -4.42066
LJ             1.814         2.48541        -0.82802
LJ          0.125796        -3.87516        -1.04743
LJ          0.490286        -1.83421       -0.119484
LJ          -5.95946          -4.779         1.33778
