108
#Comment!
LJ           2.77081        0.192702          1.2376
LJ           3.17206       -0.768685        -2.36909
LJ         -0.970934        -2.60596        0.378895
LJ          -2.40038         1.09458       -0.760521
LJ            1.5575       -0.237814         3.24431
LJ           1.69986        0.811712        -1.73384
LJ           1.57217         1.57627       -0.523497
LJ            1.3461       0.0678437        -2.45953
LJ           1.52634       -0.741698         2.10583
LJ           0.34208        -1.79391         1.84243
LJ         -0.481633         2.36191         3.01677
LJ           1.24903         1.54093         2.82668
LJ          -1.35353       -0.957976       -0.988593
LJ           3.40737       -0.454736      -0.0735149
LJ          -1.50457       -0.412821         1.51707
LJ         -0.943692        0.313592         2.46082
LJ         -0.735439        -2.65164        -2.72208
LJ         -0.223716        0.540268        0.231049
LJ           0.58343         2.89693         2.85826
LJ         -0.141099        -0.66523        -1.34854
LJ         -0.242383        -1.63925         3.02786
LJ          0.715981         1.55975        -1.13119
LJ           3.10548       -0.572375        -1.32327
LJ          -5.65368         1.67416        -5.53072
LJ           4.93775         2.73742         5.27472
LJ          -1.20712         1.53733      0.00484737
LJ          -2.91057        -4.52474         -1.5446
LJ          -3.04867        -5.78846       -0.900027
LJ           2.24393         2.23847         2.09558
LJ          -1.75623        -1.05156        0.735611
LJ          -0.25998        -1.66062        0.894513
LJ          -5.52586         5.68757        -1.02117
LJ          0.155623        -2.24561       0.0920708
LJ           2.26941       -0.392117        -1.96696
LJ          -1.63824         1.75996         1.17419
LJ            2.1489       -0.917174        -0.96934
LJ          0.442802        -2.71885         1.05024
LJ          0.119408        -2.07518        -1.23969
LJ         -0.832438       -0.645358        0.271875
LJ           1.26203        0.445723       -0.255031
LJ           1.78964         1.51464        0.594941
LJ          0.509308       -0.577615         2.57687
LJ         -0.900908       -0.696889        -2.05437
LJ          -1.91832       -0.400186       -0.323977
LJ           1.66766        0.116757         1.39232
LJ           -2.1049        -4.36955         5.79945
LJ           2.40194       -0.879372         1.45803
LJ          0.600611        0.812445        0.864576
LJ          -1.58861       0.0725617        -1.44455
LJ         -0.425529       -0.126173          1.2476
LJ          0.316293         1.67176         3.36775
LJ         -0.609928         2.33757        -1.27249
LJ          -5.54997        -3.58787         -1.0067
LJ          -0.31485         2.36938       -0.266524
LJ           1.10914          0.9738         1.72346
LJ           3.67888        0.885329         1.51704
LJ           0.28201       0.0761168       -0.701527
LJ           0.64592        -1.20837        -1.85774
LJ           1.00294        -1.63757         2.99921
LJ           2.11041        0.359611        0.449897
LJ          0.454234         1.65321       0.0389627
LJ           1.78147         4.10017        -3.99767
LJ          -0.41456        -2.57661         1.90057
LJ          -2.18925      -0.0947685        -2.32253
LJ         -0.481431         1.44568         0.76509
LJ          0.158289       -0.177685        -2.56832
LJ           2.20111        -1.13169         2.76037
LJ             2.246         1.25359         1.61516
LJ          -2.52807        -2.37318        -3.55013
LJ         0.0881289        0.753158          1.7993
LJ          -2.80486        0.415571         6.36718
LJ            3.5677       -0.323717         1.86288
LJ          0.564611       -0.301615         1.52112
LJ          0.635151         1.83499         1.15362
LJ          -1.44506        0.703758          1.4473
LJ            1.1526          1.0402         3.74292
LJ         -0.640762         -1.5741       -0.364191
LJ         -0.182614         1.22492         -0.6338
LJ        -0.0780977         2.48796         4.02789
LJ            1.0038        -1.07513        0.700657
LJ          0.994665     -0.00750141        -1.46358
LJ           1.02986       -0.854948       -0.599554
LJ           2.20769      -0.0609536         2.44317
LJ           0.23061       -0.395146         0.27108
LJ           1.31153         2.40228         1.63944
LJ          -1.53199        0.214138        0.488916
LJ          -1.09617        -1.99198         1.46343
LJ         -0.554729        0.502582        -1.71179
LJ           1.11293        0.458012         2.63854
LJ         -0.401211       -0.992357         1.87188
LJ         -0.966207         1.81557         2.20296
LJ           1.44624         2.25189         3.65247
LJ          0.536215         0.22712         3.55762
LJ         -0.952232         -1.5106        -2.63458
LJ          -1.59091        -1.79128      -0.0383212
LJ           2.66243        -1.74424        -1.81376
LJ         -0.941478       0.0384099       -0.613918
LJ          0.889865         2.41095       -0.577454
LJ           2.23919       -0.659439       0.0677136
LJ           4.84081        0.619748         -5.4963
LJ           1.94729         4.08374       -0.231688
LJ          -1.20595        0.972394       -0.965268
LJ           2.28049         4.26806         1.02551
LJ          -3.05377        -1.51442        -5.86999
LJ           2.79971        0.890608        -1.99927
LJ          0.609857        -3.93978        -1.52328
LJ           3.70606        -4.78904        -2.46156
LJ            3.1777        -5.87351        0.184415
