108
#Comment!
LJ          -2.97983        -2.97983        -2.97983
LJ          -1.03156        -1.03156        -3.26393
LJ          -3.26393        -1.03157        -1.03157
LJ          -1.03157        -3.26392        -1.03156
LJ          -1.33127        -1.99989         -1.9999
LJ        -0.0416215        -1.67343         -3.6191
LJ         -0.392256        -1.52457        -1.52457
LJ        -0.0416207         -3.6191        -1.67343
LJ          0.653935        -1.82523        -1.82524
LJ           2.33079     -0.00942668        -1.48256
LJ           2.93255         5.10844         5.10844
LJ           2.33079        -1.48257     -0.00941911
LJ           -1.9999        -1.33126         -1.9999
LJ          -1.67343       -0.041623        -3.61909
LJ          -3.61909       -0.041621        -1.67343
LJ          -1.52456       -0.392251        -1.52456
LJ         -0.780915       -0.780916        -2.13001
LJ        0.00167419      0.00167278        -1.45388
LJ          -1.74469       -0.432895        -2.56697
LJ         -0.432897         -1.7447        -2.56697
LJ           1.00778        0.241843        -2.93542
LJ           1.71227        -1.01611         -1.9901
LJ          0.251328       -0.818771        -2.25219
LJ           2.99918       -0.514064        -2.09904
LJ          -1.82523        0.653941        -1.82523
LJ       -0.00942104         2.33079        -1.48257
LJ          -1.48256         2.33079     -0.00942153
LJ           5.10844         2.93255         5.10844
LJ          0.241839         1.00778        -2.93542
LJ          -1.01611         1.71228        -1.99009
LJ         -0.514068         2.99919        -2.09905
LJ         -0.818767        0.251336        -2.25219
LJ         0.0596439       0.0596424        -2.61632
LJ          0.709492        0.709491        -2.08262
LJ          0.473943         1.96837        -2.42152
LJ           1.96837        0.473942        -2.42152
LJ           -1.9999        -1.99989        -1.33126
LJ          -1.52457        -1.52457       -0.392257
LJ          -3.61909        -1.67342      -0.0416233
LJ          -1.67343         -3.6191      -0.0416199
LJ         -0.780913        -2.13001       -0.780915
LJ         -0.432899        -2.56697        -1.74469
LJ          -1.74469        -2.56698       -0.432901
LJ        0.00168223        -1.45387      0.00168103
LJ           1.00778        -2.93542        0.241842
LJ           2.99919        -2.09905       -0.514068
LJ           0.25133        -2.25219       -0.818771
LJ           1.71228         -1.9901         -1.0161
LJ          -2.13001       -0.780918       -0.780915
LJ          -2.56697       -0.432898        -1.74469
LJ          -1.45389      0.00166764      0.00166667
LJ          -2.56697         -1.7447       -0.432891
LJ         -0.534715       -0.534716       -0.534714
LJ          0.296464        0.296466       -0.390477
LJ         -0.390484        0.296467        0.296472
LJ          0.296462       -0.390473        0.296463
LJ          0.580022        -0.74432        -0.74432
LJ           1.07497       -0.338858        -1.54028
LJ           1.72244       -0.707963       -0.707963
LJ           1.07497        -1.54028       -0.338855
LJ          -2.93542         1.00778        0.241838
LJ          -2.09905         2.99919       -0.514067
LJ          -1.99009         1.71228        -1.01611
LJ          -2.25219        0.251334       -0.818767
LJ         -0.744331        0.580009       -0.744331
LJ         -0.338867         1.07497        -1.54029
LJ          -1.54029         1.07497       -0.338866
LJ         -0.707974         1.72244       -0.707974
LJ           1.18836         1.18838        0.424584
LJ           1.14566         1.14566       -0.784734
LJ           1.74169         2.47485        -2.66534
LJ           2.47486         1.74169        -2.66534
LJ          -1.82524        -1.82523        0.653936
LJ           5.10844         5.10844         2.93255
LJ          -1.48256      -0.0094244         2.33079
LJ        -0.0094185        -1.48257         2.33079
LJ          0.241839        -2.93542         1.00778
LJ         -0.818769        -2.25219        0.251335
LJ         -0.514071        -2.09905         2.99919
LJ          -1.01611         -1.9901         1.71228
LJ           0.05964        -2.61633       0.0596399
LJ           1.96837        -2.42152        0.473937
LJ          0.473941        -2.42152         1.96837
LJ          0.709487        -2.08262        0.709489
LJ          -2.93542        0.241843         1.00778
LJ          -2.25218       -0.818768        0.251328
LJ           -1.9901        -1.01611         1.71227
LJ          -2.09904       -0.514065         2.99919
LJ         -0.744326       -0.744328        0.580014
LJ         -0.707968       -0.707969         1.72244
LJ          -1.54028        -0.33886         1.07497
LJ         -0.338862        -1.54029         1.07497
LJ           1.18837         0.42459         1.18837
LJ           2.47486        -2.66534         1.74169
LJ           1.74169        -2.66534         2.47485
LJ           1.14567        -0.78474         1.14566
LJ          -2.61632       0.0596419       0.0596441
LJ          -2.42152         1.96837        0.473936
LJ          -2.08262        0.709492        0.709493
LJ          -2.42152        0.473934         1.96837
LJ          0.424586         1.18838         1.18836
LJ          -2.66534         2.47485         1.74169
LJ         -0.784732         1.14566         1.14566
LJ          -2.66534         1.74169         2.47485
LJ           4.20691         4.20691         4.20691
LJ           2.06816         2.06817        -1.03308
LJ          -1.03308         2.06816         2.06816
LJ           2.06817        -1.03308         2.06817
