108
#Comment!
LJ         -0.748977        -2.00633      -0.0337728
LJ          -5.38957         5.20514        -1.09285
LJ           1.95021          3.9086        -2.80913
LJ           2.68112         3.27655        -3.61907
LJ           1.41863        -1.88812        -1.41944
LJ         -0.017165         2.72174        -0.49365
LJ           1.01878        -1.64771        0.251861
LJ           0.70103        -3.05736        0.522135
LJ            1.2873         -2.5467       -0.597329
LJ            1.4042        0.161726       -0.438568
LJ           1.29845         1.38315         0.76169
LJ           1.07007        -1.00231         2.19092
LJ          -1.06835       -0.820339        -1.78265
LJ          0.537011         1.49603        -2.02394
LJ         -0.607538         1.93642        0.488615
LJ        -0.0441963         3.00469        0.549111
LJ          -1.18726         1.43235        -1.22766
LJ       -0.00132069      -0.0699558        0.631178
LJ         -0.981717         3.30405       -0.228304
LJ        -0.0478856       -0.522194        -1.60228
LJ           1.15276        -0.48471        -1.35934
LJ         0.0806555        -1.23243       -0.181291
LJ          -0.99289      -0.0214405        -2.44065
LJ          0.754658         3.94685         3.41947
LJ           -2.4915         5.74581       0.0450665
LJ         -0.591971         2.21605        -1.78867
LJ          0.986551         2.26582        -2.50338
LJ           4.25364         1.54665         1.46417
LJ          0.557308         3.66183       -0.465735
LJ           1.67435         5.27561        -1.42199
LJ          -1.67255        0.743416         1.48243
LJ          0.419812        0.327622        -2.07818
LJ         -0.368112        0.724889        -2.96674
LJ           1.26346        0.854572        -1.34913
LJ          0.350944         1.48662         0.35688
LJ         -0.212872         0.83693        -1.41832
LJ         -0.988282        -2.91532       -0.617187
LJ          -3.09496       -0.517647       0.0113031
LJ          -1.55927         1.30063        0.254865
LJ           1.05741        -1.95117         1.34687
LJ          -0.59901        -1.12951         0.59848
LJ         -0.454191        -2.99369        0.376691
LJ          -1.63799        -1.48006         0.50607
LJ         -0.747787       -0.405622         1.49424
LJ        -0.0603685        -3.78472        0.884779
LJ          -5.83424        -4.34127        0.191763
LJ          0.189286        -2.31947       -0.486998
LJ           1.57872        -2.47546        0.561581
LJ         -0.595704       -0.335989       -0.487224
LJ         -0.957846          2.2779       -0.633306
LJ          0.247438      -0.0929381         1.73635
LJ          -1.81421        0.471943       -0.254437
LJ         -0.516407        -1.73971        -1.33063
LJ          0.628794         1.48011       -0.647406
LJ          0.846154        0.487425        0.512125
LJ           1.36859       -0.709117        0.918596
LJ          0.892723       -0.584169      -0.0638667
LJ          0.311919       0.0301739       -0.734266
LJ            2.0911        0.168993        -1.28121
LJ           2.38802        0.341464      -0.0142463
LJ          -1.10842        0.167388        -1.27684
LJ           6.23098         3.73394         1.74716
LJ          -1.88904         1.95101       -0.475319
LJ          -1.29792        -1.24245       -0.482728
LJ         -0.227969         1.64452         1.58209
LJ         -0.491645        0.945904       -0.135932
LJ         -0.359729         0.87656        0.932492
LJ           1.57216         2.14394       -0.177765
LJ           2.85341         6.27819         6.22317
LJ          0.982752         1.55936         1.77559
LJ          -3.99641       -0.942503          6.1968
LJ          -1.44989         5.59515        -5.24994
LJ         0.0286928        -2.00518        0.663816
LJ           1.87299         1.16467       -0.193253
LJ         -0.748064        0.839593         2.14148
LJ          0.244909        0.873663         2.58387
LJ           -1.2064        -3.47696          0.8949
LJ         -0.866825        -1.93556         1.20403
LJ           1.29384         2.16702         5.21759
LJ          -5.13279         -1.9225         2.25003
LJ          0.353599        -1.00596           1.009
LJ           1.87034        -1.78009       -0.239523
LJ         -0.251604        -2.75948         1.37858
LJ         -0.218156        -1.26525         1.85264
LJ          -2.21878      0.00851494        0.776338
LJ          -1.06739       -0.194527         0.48845
LJ          0.462258         -3.4961         1.80379
LJ           -2.8782         2.55479          2.9131
LJ           1.20605       -0.257276         2.98987
LJ          -1.32996        -1.22528         2.26028
LJ          -1.65988         2.62104        0.338568
LJ         0.0786272        -1.18131         3.30511
LJ          0.167125        -2.24436         2.10303
LJ          -1.98231        -4.73251         6.12223
LJ           5.87684        -5.29121      -0.0440834
LJ           6.45808         2.80599        -4.19584
LJ          -1.90574       -0.673316         1.52445
LJ           1.08577         2.52198        0.667249
LJ           1.20272         3.62834        0.282455
LJ           2.42375          -2.974       -0.074623
LJ           5.16863         3.54179       -0.192195
LJ          -4.96628         1.21604        -2.71625
LJ          -0.55467         5.55213       -0.299772
LJ           5.70248         5.84255         2.62694
LJ           2.33215         1.17101         2.24707
LJ          -2.00353       -0.560856      -0.0855535
LJ         -0.672856         5.20807        -4.51283
LJ          -3.69735        -1.14964         4.90244
