108
#Comment!
LJ           1.80943       -0.992962        0.974494
LJ           3.31148        -1.59582         2.44259
LJ          -1.69704       0.0465037         1.82915
LJ          -1.63268         3.48139         1.50389
LJ           2.91422        -1.93852       -0.231176
LJ           2.05201         1.50797        -1.96266
LJ            1.2207        0.167492         1.76166
LJ           2.25114            0.56       -0.474818
LJ           1.85756         -1.5692       0.0748841
LJ           1.53085        -1.40784        -1.31008
LJ          -1.04674          2.7213        0.950715
LJ            1.9599         1.90717         2.33243
LJ         -0.693814        -2.15911        0.521458
LJ           1.97953       -0.687779       -0.517961
LJ          -1.30408        0.608574         3.06039
LJ          0.128504          1.4679         1.66772
LJ          0.867233       -0.528456        -1.95774
LJ        -0.0450977        0.440137        0.309957
LJ         -0.905884         2.02439         2.21122
LJ         -0.738579        -0.71924       -0.432665
LJ          0.655109        -3.71589      -0.0824014
LJ           1.16664        0.320011      -0.0121491
LJ           1.60161        0.218672        -2.32322
LJ           5.20991         5.16837         1.66142
LJ          -2.73542         6.38306         5.57198
LJ          -1.69931         3.02406       0.0294565
LJ           -3.4555         5.09006       -0.289954
LJ          -1.56552         5.91146         6.26188
LJ          0.760593          1.5558         2.50098
LJ          -4.61404         1.48686         2.34003
LJ         -0.644214        0.139243         1.07926
LJ          -1.20903        -3.16498        -6.20846
LJ         -0.262066       -0.586666        -1.87243
LJ          0.394934         -1.1148        -1.20823
LJ          -0.91528         2.23114       0.0158592
LJ         0.0980798        -1.40739       -0.183476
LJ          -0.84033        -1.76171       -0.453937
LJ          0.310209        0.727024        -1.63591
LJ          -1.43358         1.14172         1.90405
LJ           1.79182          1.4354        0.317684
LJ           1.78245        0.469999        0.958534
LJ           1.68164        -3.39275        0.234888
LJ          -1.83918       -0.940691       0.0806316
LJ         -0.887868       -0.783488        0.794916
LJ          0.290749       -0.497736         2.02607
LJ           3.05424         -3.7668         2.23711
LJ          0.980334        -2.13667        -0.32997
LJ           2.83788        0.175344        0.267698
LJ          -1.08517       0.0353787         0.18218
LJ          -2.07408         1.81412         1.09102
LJ          -1.61481       -0.441378         2.74591
LJ          -1.79468        0.727985       -0.557644
LJ         -0.896219        -2.91987         1.53077
LJ          -1.23235         1.88569       -0.924704
LJ          0.866831         1.13031        0.650099
LJ           2.69503         1.68106         1.05008
LJ           1.02886        -1.05087       -0.337281
LJ         -0.252435         0.35633       -0.758212
LJ           2.05265          -2.348       -0.648691
LJ           3.41179       -0.398845        -1.25685
LJ         -0.644333         1.15864        -1.42293
LJ          -4.28499         2.22867        -3.00819
LJ          -1.85997       -0.128899         0.78473
LJ          -1.07086        0.016005        -1.25349
LJ          0.109134         2.01297       -0.434089
LJ          0.220969          1.8694        -1.48519
LJ           0.40242       -0.199392         3.13322
LJ           0.96716          2.1244        0.233945
LJ          -5.49453        -4.11602         4.71964
LJ         -0.475835         1.34009        0.811986
LJ          -5.06547         -2.6671         5.24174
LJ           1.52558       -0.330286         2.65424
LJ          0.886902       -0.297413        0.740629
LJ          0.151674         2.23469        0.952876
LJ          -1.97805         2.24804         2.25061
LJ          0.246683        0.716521         3.73662
LJ          0.628471        -1.44559        0.843705
LJ          0.172991       -0.465454      -0.0347266
LJ           1.43067        -5.09632         6.09425
LJ           1.46048        -2.11224        0.978529
LJ          0.454601         1.02215       -0.534688
LJ          0.727136        -0.18326       -0.837179
LJ         -0.267265        -1.55044         1.39347
LJ            0.3054        0.424185         1.28886
LJ         -0.448161         1.09495         2.52154
LJ          -1.53644        0.830666        0.798363
LJ          0.538038        0.562782         2.49235
LJ           1.42041         2.38341        -1.97662
LJ         -0.669152       0.0737713         2.21573
LJ         -0.460804       -0.996465         2.69353
LJ          -2.51397         2.93166        0.724201
LJ        -0.0360588         1.80239         3.25482
LJ           1.08932        -1.61299          1.9967
LJ           3.82943         4.44022        0.983539
LJ          -5.23837          5.6283         5.79202
LJ          -2.47406        -5.71291       -0.814121
LJ         -0.834794         1.17636       -0.340266
LJ           1.44729         1.58134       -0.720359
LJ           2.29664        -0.26026        -1.53717
LJ           3.54507        -1.17322        -5.20002
LJ           3.37113         2.95266         2.71645
LJ          -1.84768         1.68957      -0.0258955
LJ           5.59775        -1.18732         3.23589
LJ           -4.8327        0.147536         4.65812
LJ           1.43842        0.614455        -1.42039
LJ          0.356742        -2.16448        -1.34912
LJ          0.427663         -2.8038         4.48295
LJ          -1.99026         5.50004         2.78968
