108
#Comment!
LJ           2.74898        0.119907          1.3052
LJ           2.82448        -1.88269        -2.41012
LJ          -0.48109        -2.18543        0.358544
LJ          -2.50705         1.10975       -0.375876
LJ           1.58026        -0.60029         2.91739
LJ           1.90981        0.769047        -1.28262
LJ           2.31302          1.7266        0.012223
LJ           1.39666         0.47595        -2.39842
LJ           1.10459       -0.539425         1.90347
LJ          0.836719        -1.73203        0.941713
LJ          -1.11435         2.53972         3.07964
LJ           1.72945         1.43907         2.63998
LJ          -1.08335        -1.27923       -0.955601
LJ           3.18408       -0.566215       -0.180667
LJ          -1.09809       -0.338757         2.07493
LJ         -0.645283        0.628428         2.38644
LJ         -0.430874        -3.01586        -2.17923
LJ         -0.474401        0.714197        0.160291
LJ          0.971071         2.36016         2.57518
LJ        -0.0757808       -0.783059         -1.2953
LJ          0.243671        -1.94824         2.25302
LJ          0.933636         1.26103        -1.14589
LJ            2.7855       -0.994616        -1.30207
LJ          -5.82662         2.02053        -6.04549
LJ           5.34081         1.81935         5.24453
LJ          -1.70756         1.66302      -0.0597897
LJ          -2.97093        -4.98063        -1.37328
LJ          -1.81593        -5.77495       -0.745833
LJ           2.41442         2.34305         2.16423
LJ          -2.32357        -0.28357        0.877843
LJ         -0.354611        -0.96656        0.895388
LJ          -5.13178         6.05951       -0.293397
LJ          0.470885         -1.9222       -0.123389
LJ           1.88383       -0.539975        -1.79213
LJ          -1.68165         1.78834         1.09092
LJ           1.73009        -1.18536       -0.891468
LJ         -0.379696         -2.1016         1.43663
LJ           1.18006        -1.93605        -1.40921
LJ          -1.32364       -0.521888        0.678733
LJ           1.47744         0.89167       -0.273329
LJ           1.34629         1.43914         0.79889
LJ          0.411737       -0.757733         2.72296
LJ           -1.2714       -0.638283         -2.0071
LJ          -1.84462       -0.496219       -0.277168
LJ           1.46538         0.33271         1.46573
LJ          -1.62105        -4.33317         5.50009
LJ           1.80563       -0.588488        0.917492
LJ          0.714985        0.402067        0.661872
LJ          -1.58752      -0.0861823          -1.181
LJ         -0.655424        0.110702         1.09329
LJ          0.391502          1.0869         2.95658
LJ         -0.831186         2.13399        -1.38849
LJ          -5.00507        -3.43047       -0.831874
LJ         -0.362383         2.41318       -0.176531
LJ          0.994803         1.25459         1.72526
LJ           3.47182        0.614262         2.09725
LJ          0.333413          0.5826       -0.609831
LJ           0.70701       -0.834644        -2.09502
LJ           1.26643        -1.48103         2.38698
LJ           1.88936        0.338444        0.447086
LJ          0.360412         1.39954        0.390954
LJ           2.41746         3.93127        -3.91023
LJ         -0.545251        -2.74648         2.45092
LJ           -2.1713     -0.00431954        -2.06601
LJ         -0.759155         1.78017        0.656153
LJ          0.240858       0.0482654        -2.41486
LJ           2.38507         -1.3521          2.5312
LJ           2.34493        0.961571         1.91212
LJ          -2.96646        -1.38873        -3.85867
LJ          -0.41167         1.05072         1.34057
LJ          -3.14999         0.30295         6.38671
LJ           3.58476       -0.475599         1.72572
LJ          0.267389       -0.117188         1.50931
LJ          0.344971         2.09441         1.23465
LJ          -1.58879          0.7427         1.55166
LJ           1.42992        0.742191         3.45044
LJ         -0.334137        -1.01401       -0.235571
LJ        -0.0827865         1.53916       -0.737408
LJ        -0.0350599         3.13517         4.35284
LJ          0.972487       -0.891413        0.333717
LJ          0.730385        0.267577        -1.53059
LJ          0.674367       -0.417626       -0.524173
LJ           2.42999      -0.0631846         2.50576
LJ         0.0782262       -0.239748        0.244513
LJ           1.45519         2.28677          1.5708
LJ          -1.46433        0.439103        0.331291
LJ          -1.25379        -1.75069         1.03889
LJ          -0.55312        0.362851        -1.23658
LJ           1.15622        0.410561         2.47539
LJ          -0.35102        -1.10701         1.99717
LJ          -1.20022         1.52144         2.28727
LJ           1.22586         2.18732          3.5587
LJ          0.503087       0.0800898         3.39342
LJ         -0.710415        -2.17851        -3.04759
LJ          -2.08356        -1.47711        0.393647
LJ           2.81938        -2.26591        -1.29159
LJ         -0.795646       -0.133417       -0.434635
LJ           1.12786         2.02195       0.0101595
LJ           1.74903        -0.47232       -0.228477
LJ           4.71329        0.446746        -5.46002
LJ           1.90089         3.60727      0.00955065
LJ          -1.53042        0.897348       -0.988461
LJ           2.64249         4.21204        0.882305
LJ          -3.07154        -1.55614        -6.23163
LJ           2.84029        0.517035         -1.9643
LJ          0.805447        -3.64289        -1.48366
LJ           4.76886         -5.6975         -3.0991
LJ           2.15314        -6.17072       -0.135398
