108
#Comment!
LJ           -3.0573        -3.05663        -3.05707
LJ         -0.287037       -0.287271        -3.56738
LJ          -3.56798       -0.286641       -0.286608
LJ         -0.286335        -3.56726       -0.287155
LJ         -0.303381        -2.86837        -2.86926
LJ          0.945192       -0.620114        -2.97282
LJ          0.292632        -1.60218        -1.60202
LJ          0.944998        -2.97239       -0.619598
LJ          0.776467        -2.33306        -2.33207
LJ            1.3533        0.227917       -0.549182
LJ          -1.52079         5.04863         5.04863
LJ           1.35428       -0.549147        0.227965
LJ          -2.87116       -0.303644        -2.87072
LJ         -0.620004        0.944591        -2.97153
LJ           -2.9717        0.944627        -0.62047
LJ              -1.6        0.292346         -1.6002
LJ         -0.741781       -0.740702        -2.58187
LJ         -0.309471        -0.30948        -1.25726
LJ          -1.63258       -0.100994        -2.55439
LJ          -0.10067        -1.63048         -2.5555
LJ           1.53508        -0.14948        -2.27247
LJ           1.17408          -1.282        -2.15936
LJ          0.225172       -0.525652        -2.11121
LJ           4.33723         -2.1403        -3.30396
LJ          -2.33084        0.773619         -2.3305
LJ          0.227036         1.35607       -0.549526
LJ         -0.549155         1.35483        0.226493
LJ           5.04863        -1.52079         5.04863
LJ         -0.148666         1.53435        -2.27169
LJ          -1.28058         1.17408        -2.15828
LJ          -2.14044         4.33747        -3.30402
LJ         -0.524178        0.225917        -2.10999
LJ          0.483844        0.484418        -2.51645
LJ          0.929559        0.929501         -3.4795
LJ          0.179961         2.29544        -1.21903
LJ           2.29361        0.179419        -1.21922
LJ          -2.87111        -2.86957        -0.30348
LJ          -1.60015        -1.60046        0.292771
LJ           -2.9727       -0.620486        0.945015
LJ         -0.619632        -2.97171        0.944676
LJ         -0.741464        -2.58172       -0.740694
LJ         -0.100394        -2.55551        -1.63048
LJ           -1.6321        -2.55413       -0.100855
LJ         -0.310363        -1.25796        -0.31031
LJ           1.53453        -2.27187       -0.149653
LJ           4.33731        -3.30411        -2.14059
LJ          0.225332        -2.11131       -0.524924
LJ           1.17394        -2.15927        -1.28194
LJ          -2.58286       -0.741438       -0.741462
LJ          -2.55395       -0.101762        -1.63191
LJ           -1.2573       -0.309758       -0.309914
LJ          -2.55418        -1.63158       -0.101303
LJ          -2.25765        -2.25976        -2.25838
LJ          0.300385        0.300912       -0.549948
LJ         -0.551498        0.300583        0.300078
LJ           0.30003       -0.549563         0.30033
LJ          0.579191       -0.745272       -0.745098
LJ          0.755034       0.0795717        -1.45237
LJ           1.58855        -1.12732        -1.12673
LJ          0.754992        -1.45245       0.0796321
LJ          -2.27236         1.53496       -0.148295
LJ          -3.30397         4.33733        -2.14037
LJ          -2.15839         1.17431        -1.28102
LJ          -2.11024        0.225151       -0.524875
LJ         -0.746296        0.581385       -0.746247
LJ         0.0795913        0.755657        -1.45153
LJ          -1.45217        0.755456       0.0796682
LJ          -1.12672         1.59062        -1.12684
LJ           2.38585         2.38586         1.62663
LJ            2.4477         2.44788        0.541697
LJ         0.0629859         2.55532         -4.2947
LJ            2.5552       0.0629512        -4.29472
LJ          -2.33054        -2.33164        0.774071
LJ           5.04863         5.04863        -1.52079
LJ         -0.549041        0.226958          1.3537
LJ          0.227775       -0.548913         1.35584
LJ         -0.149235        -2.27197         1.53427
LJ         -0.524084        -2.11037        0.225962
LJ          -2.14059        -3.30416          4.3375
LJ          -1.28114         -2.1584         1.17393
LJ          0.483795        -2.51698        0.484375
LJ           2.29445        -1.21912        0.179901
LJ          0.179799        -1.21919         2.29519
LJ          0.929751        -3.47958        0.929956
LJ          -2.27289        -0.14934          1.5351
LJ          -2.11049       -0.525594        0.224998
LJ          -2.15934        -1.28165         1.17436
LJ           -3.3039        -2.14028         4.33716
LJ         -0.745471       -0.745734        0.579929
LJ          -1.12682         -1.1267         1.58897
LJ          -1.45248       0.0795219        0.755385
LJ         0.0798133        -1.45169        0.755632
LJ           2.38581         1.62662         2.38579
LJ           2.55546        -4.29492       0.0628312
LJ          0.062834        -4.29487         2.55537
LJ           2.44755        0.541261         2.44762
LJ          -2.51631        0.483952        0.483869
LJ          -1.21881         2.29442        0.179652
LJ          -3.47935         0.92951        0.929446
LJ          -1.21879        0.180043         2.29374
LJ            1.6267         2.38593         2.38588
LJ          -4.29416         2.55496       0.0627644
LJ          0.541451         2.44784         2.44767
LJ          -4.29452       0.0629131         2.55533
LJ           -6.3428         -6.3428         -6.3428
LJ           1.25445          1.2536        -1.66701
LJ          -1.66778         1.25411         1.25438
LJ             1.255        -1.66712         1.25363
