108
#Comment!
LJ          -2.04176        -1.10386       -0.907024
LJ          -3.88922        -3.84746        -5.04613
LJ           -4.9014        -3.65142        -3.71235
LJ          -3.82515        -5.11061        -3.86304
LJ           1.02861        -3.43691        -2.33444
LJ         -0.610305       -0.413331        -2.96051
LJ           1.03877        -1.99731       -0.959377
LJ           1.16603        -2.77121      -0.0786163
LJ          0.128793        -1.55853        -1.93231
LJ           1.68865       -0.163136       -0.530898
LJ           4.78652         3.56211         3.73218
LJ           1.66174       -0.998194         1.43104
LJ          -1.60132       -0.788896        -2.86903
LJ         -0.156092         2.33991        -2.61876
LJ          -2.31423         1.05239        0.853407
LJ          -1.20244         1.81857       -0.963758
LJ           -1.3768      -0.0355838        -2.07253
LJ           0.40561        0.276199       0.0318132
LJ          -1.39938        0.469462         -2.9592
LJ          -1.07364       -0.926448        -1.62001
LJ          0.985833        -1.97832        -2.24361
LJ           1.25211        -0.82175         -1.6611
LJ         0.0289061       -0.321411        -1.54874
LJ           5.75324        -3.46191        -6.26988
LJ          -1.33516        0.997208        -4.12969
LJ          0.490776         1.77431       -0.910092
LJ         -0.162319         2.58056       -0.436387
LJ           4.32143        -5.48127         4.47572
LJ         -0.617066          1.2814         -2.8856
LJ          -1.19202         2.22545         -2.1237
LJ          -3.45975         5.74772        -6.26606
LJ         -0.334903        0.693305        -2.11233
LJ         -0.205969        0.842374        -3.79225
LJ          0.689411          1.0519        -1.90447
LJ         -0.251823         1.76137         -1.7299
LJ           1.11511       -0.148828        -2.53118
LJ         -0.955917        -2.46048       -0.246563
LJ          -1.77279       -0.860367         1.25478
LJ          -2.36048      -0.0638176         1.73143
LJ          0.407682        -2.58418        0.680624
LJ          -1.01473        -1.28767         -0.6311
LJ         0.0562899        -2.78592        -1.37763
LJ          -0.70964        -2.68101        0.772644
LJ        0.00215944       -0.773702        0.228825
LJ           1.03849        -3.20864        -1.24428
LJ           5.75411        -6.28309        -3.45865
LJ          0.114016        -1.63639       -0.753791
LJ           2.01684        -1.36863       -0.833796
LJ          -1.19115        0.382344        -1.12499
LJ           -1.4007         1.10314        -2.04963
LJ         -0.457166       0.0128524        0.834761
LJ          -1.52899        -1.62664        0.144578
LJ         -0.589802       -0.335626       -0.720027
LJ           1.09093        0.946392       -0.344483
LJ          0.525096        0.371289         1.17475
LJ          0.957288       -0.589039        0.533612
LJ          0.575796       -0.546785        -0.58064
LJ          0.933981        0.190696        -1.35213
LJ           1.88899       0.0220379        -1.90288
LJ          0.909167        -1.58535        0.090116
LJ          -2.97049       -0.256676       -0.699939
LJ          -6.24363         5.70962        -3.72096
LJ          -2.25321         1.46438        -0.97544
LJ          -2.20775         0.54522         -1.3668
LJ          0.268301         1.31438        0.314374
LJ         0.0167495        0.614381        -1.01744
LJ         -0.663689        0.470094      -0.0588007
LJ            -0.728         1.56062         0.12183
LJ           3.58746           4.705         1.46979
LJ            4.8272         4.63391         3.14908
LJ          -3.02709         4.15522         4.84386
LJ           4.14522         -3.0438         4.84089
LJ          -1.69541        -3.11017        0.738506
LJ           3.58547         3.43442         4.45579
LJ         -0.630816        0.821929         2.28073
LJ          0.790822       -0.247663         1.99055
LJ         -0.972078         -3.5339         1.48298
LJ          -0.89396        -1.56549         1.05814
LJ          -3.46503         -6.2693         5.74776
LJ          -1.85699         -2.0303         1.20177
LJ         -0.249923        -1.77447        0.255432
LJ           1.55304        -2.17831         0.84638
LJ          0.113346         -1.9962          1.9785
LJ          0.508431        -1.55321         1.13604
LJ          -1.99816       -0.101045        0.206461
LJ          -1.14249       -0.692121        0.439705
LJ          -2.77534        -2.75757        0.921856
LJ          -6.26695        -3.45494         5.75231
LJ          -1.27109      -0.0624599         1.91293
LJ          -1.26877        -1.87052         2.14407
LJ         -0.356725         1.00725         1.19064
LJ          -0.27545        -1.03204         1.83787
LJ            1.9601       -0.853256         3.20188
LJ           4.15408         4.84531        -3.02939
LJ          -3.03363         4.84201         4.15155
LJ           5.27167         2.74699         5.50486
LJ          -1.42034        0.308693        0.902856
LJ          -1.70219        0.918535      -0.0777023
LJ          -1.49288         2.51342        0.436209
LJ          -2.84165        -1.10832         1.07351
LJ           1.87661          4.8808         4.47569
LJ           4.86588         4.18751        -2.98252
LJ           2.99043         4.31093         4.82695
LJ           4.84225        -3.02678         4.15597
LJ           3.55679         4.11654          3.6108
LJ          -6.15081         6.04437        -2.57684
LJ           -2.0726         6.10372          6.3531
LJ          -5.25689         -2.0093        -6.34579
