108
#Comment!
LJ           2.81859        0.224823         1.23676
LJ           3.20103       -0.658196        -2.38687
LJ         -0.931245        -2.66013        0.442801
LJ          -2.46287         1.06988       -0.747413
LJ           1.56394       -0.251847         3.29319
LJ           1.68591        0.816556        -1.74539
LJ           1.51487         1.55382         -0.5587
LJ           1.33668       0.0132285        -2.48369
LJ           1.46565       -0.768829         2.11634
LJ          0.272349        -1.79954         1.87295
LJ          -0.41725         2.31663         2.92071
LJ           1.20146         1.53919         2.82332
LJ          -1.31093       -0.928701        -1.01678
LJ           3.38121       -0.444998      -0.0752644
LJ          -1.54167       -0.441239         1.45617
LJ          -1.00608        0.256521         2.46033
LJ         -0.765107        -2.59588         -2.7731
LJ         -0.252907        0.449958        0.178909
LJ          0.547135         2.99331         2.88148
LJ         -0.161638       -0.759536        -1.30489
LJ         -0.292794        -1.60375         3.11336
LJ          0.704268         1.54517        -1.14305
LJ           3.15636       -0.499562        -1.28487
LJ           -5.6367         1.63937        -5.47936
LJ           4.89749         2.82905         5.27794
LJ          -1.17918         1.54203      -0.0276333
LJ           -2.9167        -4.45819        -1.57476
LJ           -3.1599         -5.8103        -0.90237
LJ           2.28578         2.21561         2.09791
LJ          -1.67955        -1.11241        0.734364
LJ         -0.282984          -1.677        0.912078
LJ          -5.56512         5.65052        -1.09397
LJ          0.109208        -2.28671       0.0231357
LJ           2.31784       -0.347096        -1.93952
LJ          -1.58629         1.71093         1.15643
LJ           2.16828       -0.851977       -0.952156
LJ          0.483422        -2.73271         1.07002
LJ        -0.0031239        -2.04668        -1.21191
LJ         -0.780426       -0.612382        0.244224
LJ           1.21746        0.359829       -0.310345
LJ           1.78902         1.57847        0.553673
LJ          0.535251       -0.530609         2.57637
LJ         -0.897755       -0.630409        -2.03057
LJ          -1.93543       -0.381493       -0.335022
LJ           1.61364        0.107982         1.39365
LJ           -2.1533        -4.37309          5.8294
LJ           2.48934       -0.861161         1.53183
LJ          0.659353        0.752136        0.843725
LJ          -1.62005        0.106435        -1.49961
LJ         -0.435456       -0.109178         1.26333
LJ           0.30218         1.68837         3.41182
LJ         -0.582302         2.35661        -1.34239
LJ          -5.60416        -3.60377        -1.02423
LJ         -0.308017         2.36642       -0.208697
LJ           1.16497        0.960769         1.74872
LJ           3.64589        0.863543         1.45165
LJ          0.318358       0.0970808       -0.637767
LJ          0.615924        -1.20796         -1.7997
LJ          0.955014        -1.59412         3.01133
LJ           2.17269        0.382099        0.390899
LJ          0.529707         1.65294       0.0597018
LJ           1.71785         4.11696        -4.00629
LJ         -0.359483        -2.59243         1.81605
LJ          -2.15618       -0.115959        -2.32589
LJ         -0.470135         1.47785        0.689903
LJ          0.158507       -0.202964        -2.55244
LJ           2.25498        -1.14898         2.76239
LJ           2.24991         1.28004         1.58529
LJ          -2.48096        -2.47047        -3.51757
LJ         0.0724071        0.728474         1.84892
LJ          -2.77055        0.424511         6.36593
LJ           3.55155       -0.291334          1.8871
LJ           0.61576       -0.381613         1.51326
LJ          0.683208         1.83657         1.13049
LJ          -1.46651        0.735956         1.46485
LJ           1.15256          1.0526         3.76653
LJ         -0.553942        -1.57441       -0.405535
LJ         -0.210838         1.20625       -0.596084
LJ        -0.0267238         2.42248          4.0465
LJ            1.0064         -1.0803         0.76859
LJ            1.0141      -0.0682905        -1.48061
LJ          0.962618       -0.857467       -0.550574
LJ           2.24791      -0.0210111         2.51347
LJ          0.296388       -0.457543         0.25519
LJ           1.33138         2.45377         1.66493
LJ          -1.43302        0.189367         0.53552
LJ          -1.13076        -2.00794         1.50419
LJ         -0.506323        0.466903        -1.77004
LJ           1.08057        0.434775         2.63143
LJ          -0.41117        -1.00143         1.84825
LJ         -0.947345         1.82195         2.24968
LJ           1.42446         2.26713         3.60951
LJ          0.448816        0.217161         3.56231
LJ         -0.972512        -1.49375        -2.60963
LJ          -1.60422        -1.78581      -0.0758116
LJ           2.68108         -1.7121        -1.89713
LJ         -0.971673       0.0176878       -0.650934
LJ          0.821733         2.44681       -0.610314
LJ           2.33243       -0.680693       0.0378871
LJ           4.85382        0.637297        -5.50004
LJ           1.94289         4.12007       -0.261703
LJ          -1.18427        0.960462       -0.935615
LJ            2.2491         4.27576         1.04643
LJ          -3.05168        -1.50809        -5.83387
LJ           2.75572        0.902014         -1.9879
LJ          0.587535        -3.96127        -1.52725
LJ           3.59969        -4.69816        -2.39766
LJ           3.28008        -5.84397        0.216304
