108
#Comment!
LJ           3.99312       -0.833925          1.2328
LJ          -1.48804         3.01354        -1.57822
LJ          0.545891         -1.9471         1.57912
LJ         -0.628749         2.39335        -1.68949
LJ          0.569743        0.548839         3.40355
LJ        -0.0160527         -2.5916         -0.8253
LJ          0.374491        0.130601        -1.18651
LJ           1.62076        -1.60609        -1.21564
LJ           1.40787        -2.24807         2.50028
LJ          0.125281       -0.910577         1.91593
LJ         0.0715873         1.49821         3.47109
LJ          0.433117        0.909764          1.1717
LJ         -0.052363       -0.856886       -0.573334
LJ           2.10674         4.99417        -1.32799
LJ           0.58147        -3.14848       0.0636976
LJ         -0.643612        -1.87702        0.165232
LJ           6.21853        -1.47927         -5.4541
LJ           0.73508         1.56304        0.353187
LJ         -0.125211         4.70046        -5.26619
LJ          0.643976        -1.02329        -1.38928
LJ          -1.64763        0.321316         4.14983
LJ          0.795674         1.56657        -2.13728
LJ           3.64475        0.196387       -0.586101
LJ          -3.02224        -1.94472        -1.71897
LJ          0.858855       -0.915473         5.31058
LJ          0.215193         1.91312         -1.2381
LJ         -0.793006       0.0356201        -1.66934
LJ           -1.2256         5.98971        -1.60969
LJ           2.16096         2.42218         1.85449
LJ          0.471082          -2.238        0.467987
LJ           1.67509        -1.63068          4.2316
LJ           4.27152         1.42664         4.98404
LJ          0.723733        -3.76782        -1.52937
LJ          0.933926       -0.336788        -2.27307
LJ         -0.130941         2.06889        0.873272
LJ           2.68193        0.755861        -0.85814
LJ           1.47813         -1.2827        0.283312
LJ           1.32928        -3.59731        -2.48529
LJ          0.915199         0.50134        0.229109
LJ           1.24285         0.64575        -1.94893
LJ          0.918467         2.29836       -0.435849
LJ         -0.904754        -1.23886         1.76574
LJ          0.775586        -2.02538        -1.67846
LJ         -0.280727        0.383227        0.596346
LJ           2.36712        -1.10254         3.32165
LJ           5.98995        -4.67138        -4.09881
LJ           3.51482       -0.456897         2.11227
LJ           2.96775        -1.59447         2.28684
LJ           1.54522        -1.18095        -2.71839
LJ          -1.69104         1.60203         1.61091
LJ           1.20593        0.714276         1.98847
LJ         0.0889096         2.44869        -2.35915
LJ           1.96146        -5.72416        -2.54471
LJ         -0.240185         1.39313         1.74993
LJ           2.53127       -0.581598         1.25253
LJ           2.30669       -0.803354       -0.337091
LJ            1.8526        0.207404       -0.282951
LJ           1.13144        -2.52415       -0.692459
LJ          0.727741       -0.482708         3.32427
LJ           4.23727        0.197152        0.849066
LJ          0.860383         1.04056       -0.687275
LJ          -4.55449         5.73267        -4.77538
LJ           1.63836       -0.363388         2.56622
LJ        0.00155441         3.57519        -1.69336
LJ           2.78265        0.120152        0.282808
LJ          0.956103       -0.493451       -0.483771
LJ           1.04903        -1.42974         3.09235
LJ           1.42192         1.69293        -1.25829
LJ           1.06143         3.00842        -3.06588
LJ          0.758853         1.59127         2.51066
LJ          0.946815          1.4797        -6.14767
LJ           1.94486         1.32787         2.69777
LJ          0.441329        -1.15784        0.425531
LJ           1.58051         1.28965         1.03985
LJ         -0.545575       -0.714401        0.857311
LJ          0.414776       -0.194393         1.16302
LJ           1.47777       -0.273669        0.713187
LJ        -0.0804774          1.3811        -0.28555
LJ           2.17039        -1.09482         4.98808
LJ           1.35102         -1.0805         1.53232
LJ           1.79968       -0.255492        -1.73423
LJ          0.645842        -1.62686       -0.543011
LJ           2.08042        0.430407         1.28624
LJ           2.32863        -2.23304         1.64422
LJ           0.88055         1.95898         1.29839
LJ          -1.54239        0.200569        0.885056
LJ          -1.03381        -2.85211         1.57373
LJ         -0.336596         1.10197        -1.80997
LJ           0.47383       0.0995852         2.33595
LJ         -0.386017        -2.11645         2.23348
LJ         0.0463765          2.7554       0.0662427
LJ         -0.767483         1.21407        0.790976
LJ         -0.720348        0.749331         2.98819
LJ          0.173991        -1.22076        -2.30823
LJ          -0.37488        -1.50036        -1.35544
LJ           1.10188         1.74752         -3.7094
LJ         -0.629093        0.253007       -0.507522
LJ          0.349791         2.68298         1.84178
LJ          -0.66907         -5.5438         3.55231
LJ           5.57912         3.08908        -6.08327
LJ         -0.745734          4.4487      -0.0928188
LJ         -0.170313      -0.0538743        -2.56473
LJ           1.10671          2.6237        -1.72135
LJ           -6.0903       -0.267486        -3.34163
LJ          0.460218         3.18509       -0.888418
LJ          -1.24179        -3.25533        0.340378
LJ           1.42121        -2.11844         1.09457
LJ          0.547411        -2.68781         2.32923
