108
#Comment!
LJ          0.954394        -1.21985        0.701641
LJ           3.16861        -1.42832         3.00277
LJ          -2.74093        0.439567         1.03366
LJ         -0.854002         5.91239       -0.204701
LJ            1.7177        -2.06696        0.335961
LJ           1.76167         1.72769        -1.48767
LJ           1.88879       -0.275384         1.25104
LJ           2.81913        0.114648         0.82765
LJ           2.28702        -1.29209         1.34912
LJ           0.39111       -0.909978        -1.95193
LJ          -1.03021         2.76504        0.244201
LJ           2.02804         1.55833         1.37604
LJ         -0.821851        -3.28551       -0.438743
LJ           2.38797       -0.500551        -1.42872
LJ          -2.58114        0.897623         2.96775
LJ          0.394971         1.88011         1.59722
LJ           0.78052        0.178774        -2.28301
LJ         -0.358785       -0.269394         0.60691
LJ         -0.639425         1.48946         1.75538
LJ         -0.528982       -0.769077       -0.669027
LJ           1.06497        -2.12239        -0.79231
LJ           1.46396      -0.0284728       -0.396128
LJ           1.06972         1.18048        -2.30721
LJ           4.00331         5.57332       -0.211577
LJ         0.0821574          3.6354        -6.12272
LJ          -2.03923           2.849        0.667382
LJ          -3.39154         4.11651        0.154168
LJ          -3.08907           4.864        -4.91566
LJ           1.13214         1.71442         2.33428
LJ          -6.25577         3.00443         3.83846
LJ          -1.06563        0.216822         1.42863
LJ          0.145495        -1.89233        -3.79861
LJ         -0.274583      -0.0271413        -1.77614
LJ           0.39104        -1.22622       -0.937849
LJ          -1.13237         1.72562        0.613235
LJ         0.0183765        -2.46122       -0.882349
LJ          -1.18875        -2.21792       -0.502546
LJ           0.13699        0.951484        -1.82627
LJ          -1.71723         1.16633         1.54843
LJ           1.71549        0.643119        0.728454
LJ           1.89199       -0.640346        0.371895
LJ           1.25267        -2.22967         1.38307
LJ          -1.38203        -1.02712        0.140198
LJ          -1.12958       -0.743116         1.17782
LJ          0.530757       -0.817956         2.67277
LJ           4.40409        -3.09797        0.861916
LJ          0.598782         -2.1764        0.265304
LJ           2.81754       -0.574263       -0.320997
LJ          -1.10642       0.0283165    -0.000245959
LJ          -2.30446         1.73563        0.736445
LJ         -0.538429       -0.624025          2.1587
LJ          -1.55091         1.03693        -0.60888
LJ         -0.673898         -3.7817        0.521895
LJ         -0.550881         1.87226       -0.487992
LJ           1.08896         1.70361        0.822425
LJ           2.17097         1.17962       -0.282143
LJ            1.3357        -1.17064       -0.305551
LJ          0.386874       -0.171626       -0.508944
LJ           1.55906        -1.37734        -1.44202
LJ           3.10122       -0.780962        -2.23136
LJ          -1.29805       0.0990652         -1.0356
LJ          -2.06149         1.61455        -2.61574
LJ          -2.28467        0.282221       -0.256682
LJ          -1.51054        -1.08383        -1.76031
LJ         -0.128135         1.92257        0.770736
LJ        -0.0964734        0.745661       -0.789818
LJ         -0.634307        0.755449         3.48434
LJ           1.00979         2.74085        0.142201
LJ           5.84074        -4.85058          2.1166
LJ          0.123196        0.916323         1.03805
LJ          -4.55554        0.690618         5.24241
LJ           1.95527        0.324667         2.07825
LJ          0.799689        -0.14422        0.489971
LJ         -0.574715         2.64317         1.85799
LJ          -1.53137         2.21657         1.52166
LJ         -0.466309         1.86188         3.65697
LJ          0.271536        -2.15216         1.25666
LJ         -0.145012        -1.29748        0.533375
LJ           1.86981        -3.46909        -6.31366
LJ           2.25941        -2.01441         2.14715
LJ          0.776216        0.970316        0.141663
LJ          0.949839        -0.30378        -1.30265
LJ          0.474944       -0.365146          1.5524
LJ           1.10173         0.59048         1.58136
LJ         -0.525427         2.04521         2.63664
LJ          -1.79214        0.827346        0.558804
LJ          0.199319         1.32483         2.63041
LJ           2.45186         2.39378        -2.08949
LJ           0.20993        0.357385         2.15446
LJ         -0.804842        -1.79055         1.63518
LJ          -2.48085         1.90828         2.02745
LJ          0.892544         1.63651         3.59473
LJ           1.26239        -1.06634         1.71277
LJ           5.96754         3.02386         2.83178
LJ          -6.08726        -5.21379        -4.41273
LJ          -4.38949         5.66652         -1.4294
LJ         -0.574248         1.00147        0.193692
LJ          0.974862         1.79776        -0.59754
LJ           2.07434        0.589004        -1.13994
LJ           3.12461         -1.7306        -5.08619
LJ           3.69045         2.99131         4.83687
LJ          -1.85346         2.06824       -0.380111
LJ          -5.29127         -2.7826         4.80596
LJ          -5.87979        0.534164         4.16116
LJ           1.03006        0.738927       -0.996221
LJ          -1.10918        -2.16622        -1.64164
LJ           2.91601         -6.4111         2.56772
LJ          -3.68432        -6.00215        -2.14866
