108
#Comment!
LJ          -0.71551        -2.00337      -0.0656289
LJ          -5.54069         4.93214        -1.85503
LJ           1.58409         3.60028        -2.77416
LJ           1.80455         2.59496        -3.33742
LJ           1.16914        -1.56862       -0.697088
LJ         0.0947582         2.36032       -0.275302
LJ           1.13991        -1.80537        0.256347
LJ          0.667582        -2.62076        0.859067
LJ           1.35773        -2.65845       -0.397226
LJ           1.68374      -0.0351803       -0.537735
LJ           1.49733         1.63256          0.6609
LJ           1.09734       -0.927927         2.06204
LJ          -1.29977       -0.760178        -1.87209
LJ          0.408359         1.59232        -1.72068
LJ         -0.166028         1.95224        0.733318
LJ         -0.385059          3.4223         1.06677
LJ          -1.04919         1.24036        -1.03149
LJ        -0.0898996      0.00557827         0.57447
LJ          -0.57707         3.18786      -0.0814334
LJ        -0.0867678       -0.447752        -1.24115
LJ           0.99106       -0.704212        -1.46106
LJ          0.207853        -1.06231       -0.212901
LJ         -0.984674        0.347925        -2.16364
LJ          0.718405         4.30767         4.26993
LJ           -3.2054         6.45645        -0.32022
LJ         -0.476876         2.05672        -1.94771
LJ          0.490506         2.36621        -2.69587
LJ           4.62025         1.69512           1.022
LJ          0.616955         3.83316       -0.621167
LJ           1.92149         5.60995        -1.66547
LJ          -1.75598        0.403547         1.43002
LJ          0.335771        0.627006        -2.33671
LJ         -0.291517         0.58475        -3.48572
LJ          0.834088        0.701535        -1.35352
LJ          0.239369         1.01542        0.385177
LJ           -0.1601        0.499891        -1.38593
LJ          -1.27479        -2.58606        -0.83991
LJ          -3.07316       -0.298405       -0.312494
LJ          -1.15229         1.35559        0.134593
LJ          0.982274        -1.78808         1.48694
LJ         -0.696932       -0.951304        0.675861
LJ         -0.543559        -2.91658        0.486886
LJ          -1.66792        -1.46866        0.227423
LJ         -0.798835       -0.321878         1.52828
LJ         -0.162542        -3.77032         1.03492
LJ          -5.87517        -5.35945        0.417463
LJ          0.278508        -2.33075       -0.176551
LJ           1.73084        -2.51142        0.972069
LJ         -0.675313       -0.483431       -0.375126
LJ          -0.91038         2.26088       -0.710622
LJ          0.268293      -0.0702911         1.60955
LJ          -1.87587        0.496399       -0.298122
LJ         0.0796752        -1.77859          -1.086
LJ         -0.140206         1.47411       -0.725783
LJ           1.07892        0.306253        0.477926
LJ           1.85857       -0.633493         1.10767
LJ           1.22053       -0.666432        0.238855
LJ          0.408631      0.00215017       -0.346705
LJ           2.49362        0.066618        -1.43252
LJ           3.01092        0.254796       -0.418653
LJ          -1.21846      -0.0578686        -1.06898
LJ          -6.24979         3.38629         1.32911
LJ          -2.24855         1.73595       -0.305198
LJ           -1.2956        -1.16429       -0.785069
LJ         -0.226301         1.78986         1.88075
LJ         -0.490453        0.594999       -0.266934
LJ         -0.540577        0.961358          1.1274
LJ           1.88886         2.61976      -0.0224376
LJ           2.79276         6.32997        -6.26966
LJ          0.658697        0.836598         1.34567
LJ          -3.78811        -1.48434         5.95669
LJ          -1.99938         5.18375        -5.57384
LJ         0.0140696        -1.82827        0.732493
LJ           1.19365         1.05521       -0.313875
LJ          -1.03899         1.05375         2.28589
LJ          0.082272        0.878217         2.45282
LJ          -1.21048        -3.35255         1.25973
LJ          -1.19883        -2.04549         1.09951
LJ           1.37069         1.80938         5.37057
LJ          -5.59033        -1.82886          2.2899
LJ          0.487209       -0.879435        0.959511
LJ           2.39269        -1.77676       -0.540538
LJ         -0.408063        -2.57681         1.61176
LJ         -0.072885         -1.3027         1.73365
LJ          -2.48439        0.404065          0.5298
LJ           -1.1353       0.0191615         0.38664
LJ          0.911208        -3.00562         1.81872
LJ          -2.42921         3.03729         2.70862
LJ           1.18205        -0.36441         3.40159
LJ          -1.36268        -1.19939         1.88639
LJ          -1.14276         2.40427         0.42871
LJ          0.590962        -1.10059         2.84448
LJ          0.402222        -2.19879         2.33265
LJ          -2.63064        -4.38312         6.07015
LJ           5.74338        -5.00243       -0.297644
LJ           6.35085         2.88555        -3.87401
LJ          -1.84614       -0.792513        0.972099
LJ          0.663022         2.69457        0.860101
LJ           1.70042         3.81441        0.640416
LJ           2.68277        -2.87011       -0.468985
LJ           5.12535         3.50069       -0.754478
LJ          -4.75677         1.05173        -2.52525
LJ         -0.524734         5.72409       -0.994419
LJ           5.76083         5.45905         2.51398
LJ           1.88129        0.739496         1.20946
LJ          -1.96466       -0.471236       0.0424948
LJ          -1.33306         6.20874         -4.0904
LJ          -2.41094         -1.9633         6.00025
