108
#Comment!
LJ          0.393817        -1.46634       -0.252804
LJ           4.72453         1.07216         5.60955
LJ          -2.01066        0.868998       0.0971716
LJ         -0.238676        -3.95714        -2.59702
LJ           1.14686        -2.14358       -0.775157
LJ          0.662863         2.40839       -0.305612
LJ           1.36546        -1.06262         1.06508
LJ            2.5263        -2.11412         1.05106
LJ           1.27367        -1.92988        0.450582
LJ           1.15019        -0.18511          -1.742
LJ         -0.546668         1.93436        0.210682
LJ           1.80136         1.02987         1.74663
LJ        -0.0961101        -1.54582        -2.35441
LJ           1.97654        -1.17664        -1.50053
LJ          -1.43517         1.18083         2.95082
LJ          0.870073         3.97187         1.91964
LJ         -0.149237         1.38413        -2.05445
LJ         -0.354627       -0.259723        0.591826
LJ         -0.941465         1.68711         1.38707
LJ         -0.279899       -0.826652        -1.20165
LJ          0.256047        -2.02104        -1.49131
LJ           1.20409       -0.336089         0.30171
LJ         -0.383773          2.2413        -2.88357
LJ           2.31146         5.87345        -2.58694
LJ           3.62339       0.0452064        -3.99183
LJ          -1.20223         3.64346       0.0217492
LJ          -1.89923         2.90464       0.0930612
LJ           -4.9428         3.45012          -3.046
LJ            1.7668         2.11049         1.04073
LJ           4.88825         5.12714        -5.82697
LJ          -1.07636       0.0724512          2.7127
LJ            1.0753        -1.13477        -2.50342
LJ          0.292543        0.443393        -1.46314
LJ          0.927237        -1.16671        -1.32243
LJ         -0.749001        0.659156        0.283378
LJ         0.0966505       -0.335765        -2.14565
LJ         -0.510542        -1.81708       -0.898365
LJ          -1.34189        0.959256        -2.21658
LJ          -1.61599        0.833593         1.16427
LJ           1.75786        0.211073        0.975062
LJ          0.349198        -1.16493        0.804408
LJ          0.317922        -2.13835           1.619
LJ          -2.11435        -1.74577     -0.00194613
LJ         -0.885895      -0.0238446         1.52008
LJ          0.652309        -1.08342         2.15323
LJ           5.69646        -1.42732       -0.447209
LJ          0.974878        -3.12738         1.05093
LJ           2.23634       -0.681874         0.42924
LJ         -0.942209        -0.97381       -0.202663
LJ          -1.42007         1.69881       -0.707373
LJ        -0.0589866       -0.205866         2.60472
LJ          -1.37149        0.666037        -1.02314
LJ          0.184932         -2.3545        0.637004
LJ         -0.288905         1.15174       -0.765516
LJ            1.0548         1.09703        0.890089
LJ           1.60869        0.662036       0.0108322
LJ           1.60613        -1.17175       -0.389745
LJ          0.918599       0.0164884       -0.624949
LJ           1.48539         -2.0017        -1.97237
LJ           2.01251       -0.615856        -2.41589
LJ         -0.908376       -0.162689        -1.73331
LJ          -3.33526         1.20821        -2.09476
LJ          -3.00571        0.414815        0.312831
LJ          -1.47902         -1.9952        -1.13661
LJ         0.0339369          1.9518         1.55654
LJ         -0.597571       0.0376733        -0.68663
LJ         -0.779633        0.900351         2.12837
LJ          0.766903          2.4723        0.804682
LJ           3.68336        -5.73225        -1.36296
LJ         -0.142522        0.885183         1.18992
LJ          -3.81616         4.69131          5.3494
LJ           5.69376         1.97027         4.31761
LJ          0.323226       -0.176512         1.43867
LJ         -0.385153         2.80364         1.12141
LJ          -1.69713         2.64698         1.71114
LJ          0.997587        0.392183         3.29172
LJ         -0.612867        -2.72754         1.30712
LJ         -0.614723        -1.73096        0.610605
LJ           1.96938        -1.37552        -6.38879
LJ           3.20642       -0.995079         2.55079
LJ          0.279929         0.61375        -0.12222
LJ           2.47888       -0.395471       -0.535705
LJ         -0.455699        -1.05012         1.58593
LJ           1.44582       -0.259387         1.75633
LJ         -0.459867         2.68883         2.23989
LJ          -2.11038       -0.095855         1.83599
LJ          0.927565         1.65583         2.35749
LJ           2.76482         2.62927       -0.460541
LJ         -0.393661       -0.559041         3.61736
LJ          -1.21133         -1.0333         2.26981
LJ          -1.86594         1.91926        0.695534
LJ          0.171954        0.860236         2.48286
LJ           1.52433        -2.13083         1.70305
LJ          -5.14172        0.367157          4.2473
LJ           5.92758        -3.03603        -1.24208
LJ          -5.54816         4.78432        -1.86518
LJ          -1.49313       -0.184745        0.309316
LJ          0.354673         1.52719        0.408447
LJ            1.6776         1.68026       -0.127694
LJ           2.99299        -2.34719         -4.0743
LJ           4.15974         3.05153        -5.42334
LJ          -2.29025         1.45237        -1.55095
LJ          -2.54692        -4.84692         -6.0045
LJ           5.98788         2.20105         3.01972
LJ          0.790431         1.63561        -1.06291
LJ          -2.23992       -0.592034        -1.48818
LJ           6.21447         1.76532     -0.00336211
LJ           5.66779        -5.59926         3.92578
