108
#Comment!
LJ            3.7791       -0.880138        0.649523
LJ          -2.79949         2.69821         -5.2913
LJ           1.20162        -1.97768          2.6148
LJ          -1.79624         2.72932        0.250186
LJ         -0.786723       -0.214766         2.02551
LJ           1.33271        -2.92298       -0.423554
LJ          0.734644        -0.19493       -0.917808
LJ           3.09546        -2.67934       -0.546507
LJ            1.9952        -0.96037         1.64884
LJ          -1.12311        -2.94965         2.87893
LJ          0.695104        0.920896         3.20968
LJ          0.434563        0.650266       -0.101256
LJ          0.622096         -1.5901        0.495331
LJ            2.6281          -3.948        -4.43541
LJ           2.18372        -2.78402        -1.34193
LJ          0.445262        -2.65446        0.948499
LJ            3.0391        -2.15223          5.0965
LJ           1.44375         1.36205       -0.145238
LJ         -0.438305         5.32205        -2.60999
LJ            2.1436        -1.83598        -0.32342
LJ          -2.29967        0.451414         1.89909
LJ           1.93104         3.48895        -1.83198
LJ           2.43923      -0.0256556        0.578087
LJ         0.0902267        -3.37263       -0.559891
LJ          0.824287         2.03641         1.73261
LJ         -0.286653         2.42224          -1.079
LJ          -1.27621        0.895115       -0.938758
LJ           5.94178         5.21668        -1.90959
LJ           3.65385          1.4024         2.06243
LJ           1.42071        -2.93959           1.393
LJ            1.1108       -0.892453         5.45631
LJ           4.86649       -0.921556         1.70822
LJ           1.57861        -1.91611        -1.27058
LJ          0.483349       -0.739839        -1.95084
LJ          0.159871          1.5782       -0.268281
LJ           2.89999       -0.147144       -0.562583
LJ           2.62773        -1.92497        0.842573
LJ         0.0503252        -2.12969        -1.16443
LJ          0.899259       -0.521515        0.184082
LJ           1.53229        0.255547       -0.411382
LJ           2.40143         1.87316       -0.446996
LJ         -0.344599        -2.05148         1.88922
LJ           1.10973        -1.27491       -0.444452
LJ         -0.189903       -0.237297        0.190842
LJ           1.69305         1.29487         3.38937
LJ           3.32029        -4.80956        -2.53246
LJ           3.19409        0.521265         1.77609
LJ           2.18191        -1.06982         3.07995
LJ           2.45874        -1.03877        -1.17528
LJ         -0.274737         2.00344        0.665982
LJ           2.49707         1.02521         1.09935
LJ         0.0561594         4.24318        -1.93721
LJ          -1.89586          5.9288        -3.43275
LJ         0.0654869       0.0987892         1.37481
LJ           1.97678        -1.97968         1.77467
LJ           3.18699        -1.18139       -0.138485
LJ           2.42049        0.815772      -0.0839443
LJ           4.06958         -1.7285         -1.1685
LJ          0.864402       -0.876486         3.31909
LJ           3.75362        0.219137        0.859249
LJ          0.749102         1.00585        -1.42017
LJ           5.01077         -6.3415        -5.17416
LJ          0.383536        -1.14089         2.25214
LJ         -0.832574         4.73888        -1.63619
LJ           1.48257         1.69568        0.896216
LJ           1.74113        -1.24921         0.66645
LJ           1.41568        -3.36626         2.91434
LJ          0.757415         2.02974       -0.975405
LJ          0.852964          2.0865        -2.30442
LJ           2.35999         1.42599         2.47122
LJ           2.21765         1.06232        -4.63394
LJ        -0.0504104         0.26388         2.79021
LJ          0.917425        -1.92968         1.56966
LJ           1.48905        0.589127        0.658184
LJ         -0.348886        -1.12916         1.43372
LJ          0.961687       -0.694869         1.19715
LJ           2.07144        0.108323         1.65716
LJ         -0.882697          1.8401       -0.395514
LJ           3.65236       -0.738781         4.61759
LJ          0.744172       -0.145981         2.10542
LJ            1.9925       -0.737908       -0.186373
LJ           1.47353        -2.19531        0.484762
LJ           1.65297        0.517196         2.63332
LJ            3.0817       -0.719904         1.46923
LJ          0.671547         2.33048         0.68762
LJ          -1.09393       -0.297404        0.827856
LJ         -0.789365        -1.31741        0.168002
LJ         -0.360121         1.39665        -1.39301
LJ           1.17817         0.76059         1.68325
LJ          0.395469         -2.7369         2.10327
LJ           0.59024         3.13116        -0.24414
LJ          0.482303         1.30381        0.850813
LJ        -0.0710853         1.19334         2.03348
LJ        -0.0573819       -0.829892       -0.647741
LJ           0.25592        -2.42607       -0.167275
LJ            2.0013         1.05076         4.85062
LJ         -0.267094        0.386462       -0.910345
LJ         -0.603208         2.87263       0.0477631
LJ           -3.5541         5.99542         5.53363
LJ           4.86262         5.12334         5.93415
LJ          -1.37161         2.92587       -0.700785
LJ         -0.532012      -0.0210044        -2.01675
LJ          0.902119         3.24253        -1.51091
LJ            2.1911        -0.06063        -1.57783
LJ         -0.450351         3.60117       -0.963865
LJ          -1.61994        -1.27404         2.13607
LJ           4.80689        -3.96578       -0.691739
LJ           2.32006        -2.82561        0.471406
