108
#Comment!
LJ           0.56833        -1.41305       0.0340443
LJ           3.64501       -0.730225         3.72194
LJ          -2.45231        0.974734        0.531518
LJ         -0.665939        -6.08129       -0.955432
LJ           1.56637        -2.08244      -0.0372191
LJ          0.942706         1.87404        -1.14056
LJ           1.89385      -0.0478386         1.37426
LJ           2.76962       -0.666711        0.991517
LJ           2.14887        -1.51131         1.17462
LJ          0.948194       -0.423388        -2.11155
LJ           -1.1835         2.78449       -0.032147
LJ           2.38656        0.941145         2.15488
LJ         -0.545154        -2.49894        -1.08212
LJ           2.40283       -0.644893        -1.50486
LJ          -2.46892        0.922875         3.33828
LJ          0.735011         2.55563         1.50837
LJ           0.42941         0.65153        -1.94902
LJ         -0.427502         -0.2228         0.32153
LJ         -0.839414         1.56104         1.47142
LJ         -0.663748       -0.960003       -0.566952
LJ          0.740406        -2.04691       -0.883976
LJ           1.35933       0.0511874      -0.0113006
LJ          0.625272         1.62214        -2.22497
LJ           3.47432         5.66527        -0.95899
LJ           1.18426         2.52178        -5.46506
LJ          -1.84178         3.34981         0.63467
LJ          -3.12738         3.60037        0.394255
LJ           -3.6603         4.41488        -4.34532
LJ           1.89863         2.00313         1.95082
LJ           6.08658         3.71577         4.82846
LJ          -0.99283        0.350566         1.77284
LJ          0.709528        -1.41334        -2.63492
LJ        -0.0279872       -0.479668        -1.35325
LJ           1.01563        -1.16376        -1.36165
LJ          -1.18925         1.73802        0.487228
LJ         -0.023714        -1.53716        -1.38906
LJ         -0.457479        -2.04068       -0.134021
LJ         -0.201748         1.55312        -1.46994
LJ          -1.85929         1.19684         1.43465
LJ           1.99693        0.794499        0.730198
LJ           1.45197       -0.796724         0.58906
LJ           1.20009        -2.01322         1.14412
LJ          -1.93353        -1.46032        0.651249
LJ         -0.977617       -0.623997         1.23893
LJ           0.52951        -1.26707         2.20317
LJ           4.87422        -2.74573        0.314036
LJ          0.408917        -2.50814     -0.00485576
LJ           2.66697       -0.588428       -0.365465
LJ          -1.43368       -0.433309       -0.136379
LJ          -2.32198         2.23766        0.674434
LJ         -0.425103       -0.771753         2.14149
LJ          -1.45341        0.700524       -0.408627
LJ          -0.34315        -3.31564       -0.323103
LJ         -0.674926         1.43142       -0.506776
LJ           1.14088         1.48772        0.995103
LJ           1.64633         1.23169       -0.520697
LJ           1.67499        -1.02436       -0.541712
LJ          0.536939       -0.487804       -0.432907
LJ           1.81531        -1.67487        -1.76496
LJ           2.70072       -0.840119        -2.67375
LJ         -0.990386       -0.206451        -1.30681
LJ         -0.969394         1.26488        -2.19298
LJ          -2.38928        0.166975       -0.225207
LJ          -2.05087        -1.12321         -1.5049
LJ        -0.0458706         2.02284          0.8872
LJ         -0.468558         0.27001       -0.633839
LJ         -0.934986         1.05874         2.84606
LJ           1.02368         2.47735        0.517807
LJ            5.1753        -5.13281         1.04135
LJ         0.0148815        0.684342         1.17665
LJ          -4.30919         1.94146         5.29608
LJ           3.23067        0.850445         2.96027
LJ          0.716466      -0.0134045        0.906365
LJ         -0.581947         2.99091        0.849806
LJ           -1.7449         2.22756         1.57224
LJ        -0.0190478         1.84955         3.50815
LJ          0.213978         -2.0246         1.63153
LJ         -0.476923        -1.70977        0.942217
LJ           2.06957        -2.76878        -6.08044
LJ           2.44944        -1.59965         2.60737
LJ          0.460978        0.796429        0.172847
LJ           1.35854       -0.218034        -1.16523
LJ           0.40506        -0.99716         1.15083
LJ            1.3329        0.678918         2.02662
LJ         -0.254178         2.41886         1.85797
LJ          -1.61345        0.264036        0.670093
LJ         0.0043319         1.34856         2.28009
LJ           2.48327         1.28419        -1.15351
LJ          0.220087       -0.279974         2.83519
LJ          -1.16568        -1.63454         1.72187
LJ          -2.86316         2.06827         1.88818
LJ          0.632146        0.741963         2.83927
LJ           1.36561       -0.971553         1.61321
LJ          -6.14469         2.36947          3.2369
LJ          -6.42842        -4.35966        -3.29022
LJ          -4.75928          5.3935         -1.5494
LJ         -0.756284        0.802983        0.369245
LJ          0.425752         1.80117       -0.269288
LJ           1.49315        0.804299        -1.73972
LJ           2.92314        -1.98302        -5.04948
LJ           3.81565         2.99892         5.67741
LJ          -1.89629         1.96732       -0.500853
LJ           -4.4356        -3.42314         5.46317
LJ          -6.36852        0.848661         3.85713
LJ          0.602683        0.893077       -0.813932
LJ          -1.42733        -2.03231        -1.60886
LJ           3.94516         5.03923         1.77162
LJ          -4.78774        -5.87295        -4.28909
