108
#Comment!
LJ           3.73805       -0.634321        0.490987
LJ          -2.71672          2.7237        -4.96114
LJ           1.18926        -2.01892         2.48316
LJ          -1.71001         2.53695       0.0599085
LJ         -0.694199       -0.289923         2.07121
LJ           1.40802        -2.92789       -0.529087
LJ          0.752458       -0.168337        -1.06821
LJ           2.88812        -2.61047       -0.434117
LJ           1.91413        -1.04545         1.89657
LJ           -0.7851        -2.73138         2.69413
LJ          0.303552         1.35266         3.18397
LJ          0.559487        0.550449      -0.0161964
LJ           0.44398        -1.24098        0.433641
LJ           2.52645        -4.29896        -4.18611
LJ           2.12648        -3.08164        -1.27936
LJ          0.444172        -2.31023        0.868838
LJ           3.35619        -2.06533         5.31543
LJ            1.2121         1.39066       0.0191272
LJ          -0.37358         5.11889        -2.73186
LJ           2.15266        -1.84518       -0.379311
LJ          -2.39066        0.453069         2.18147
LJ           1.78365         3.47876        -1.76248
LJ           2.33624       -0.204865        0.407978
LJ         -0.397092         -3.3662       -0.687499
LJ          0.653596         1.93366         1.84663
LJ         -0.156054         2.36355       -0.898783
LJ          -1.14989        0.978966        -1.00002
LJ           -6.4435         5.29163        -1.88108
LJ           3.70884         1.38559         1.88335
LJ           1.41599        -2.59101           1.144
LJ           1.26705       -0.697442         5.39393
LJ           4.86488       -0.735998         2.07684
LJ            1.3972        -2.24657        -1.36299
LJ          0.383813       -0.881116         -1.7693
LJ          0.211768         1.82371      0.00141062
LJ           2.99311      -0.0998444       -0.538651
LJ           2.47971        -1.61676         0.90309
LJ          0.279123        -1.74358        -1.36438
LJ           1.02482       -0.521354      -0.0544685
LJ           1.49278        0.339053       -0.588433
LJ           2.01335         1.83855       -0.441098
LJ         -0.422755        -2.11294         1.80391
LJ           1.09907        -1.41836       -0.487565
LJ        -0.0470029       -0.324208        0.298158
LJ           1.76311         1.24865          3.4756
LJ           3.60793        -4.80406        -2.66256
LJ           3.14424       0.0423878         1.75732
LJ           2.15876        -1.16602         3.14801
LJ           2.66271        -1.30778        -1.30971
LJ          -0.49043         1.95266        0.778612
LJ           2.29294        0.987174         1.38555
LJ        -0.0213204         4.19578        -2.35033
LJ          -1.56773         6.16713        -3.36378
LJ         0.0229317        0.327323         1.33148
LJ           2.19021        -2.12961         1.95967
LJ           3.09203        -1.19684       -0.202553
LJ           2.33595        0.741444       -0.116658
LJ           3.76952        -2.13214        -1.23445
LJ           1.08381        -0.76137         3.24456
LJ           3.65438        0.471156        0.711068
LJ          0.555194        0.975548         -1.2477
LJ           5.33083        -6.41776        -5.13303
LJ         0.0939154        -1.31966         2.49145
LJ         -0.848084         4.88579        -1.79013
LJ           1.42804         1.60062         1.14326
LJ           1.65053        -1.03715        0.576536
LJ           1.46637        -3.11235         2.65657
LJ          0.956772          2.0106         -1.0665
LJ          0.773867         2.35668        -2.15355
LJ           2.24784         1.46194         2.42501
LJ           2.15402         1.20209        -4.76942
LJ        -0.0907508        0.264126         3.05079
LJ           1.11451        -1.60942         1.32957
LJ           1.38774        0.533986        0.605972
LJ         -0.187568       -0.929242         1.06705
LJ          0.851607       -0.461061          1.2754
LJ           2.02161       -0.100896         1.41412
LJ          -1.07244         1.75679       -0.202443
LJ           3.61321       -0.844351         4.77621
LJ          0.750148       -0.285127         2.41796
LJ            1.9318       -0.848074       -0.440004
LJ           1.32058         -2.1145        0.213625
LJ            1.7741        0.442654          2.2922
LJ           3.26702        -1.11702         1.57369
LJ          0.796319         2.47299        0.721584
LJ           -1.0585       -0.206942        0.908216
LJ         -0.796688        -1.13366         0.21964
LJ         -0.341199         1.18999        -1.73496
LJ           1.11079         0.59185         1.56504
LJ          0.418009         -2.8571         2.44984
LJ          0.907401         2.95614        -0.26122
LJ          0.366104         1.30996        0.943202
LJ         0.0176972          1.0281         2.24616
LJ          0.117645       -0.815092       -0.569947
LJ          0.461892        -2.32533       -0.417167
LJ           1.84825        0.859147          5.2174
LJ         -0.368628        0.323416       -0.819419
LJ         -0.355718         3.02225      -0.0600433
LJ          -3.28199         6.12623         5.34672
LJ           4.92826         4.92656         6.01491
LJ          -1.41333          3.2412       -0.929713
LJ         -0.401031      -0.0992438        -1.82726
LJ           0.77817         3.00404        -1.36485
LJ           2.54204       -0.171207        -1.50867
LJ         -0.404072         3.72977        -1.09183
LJ          -1.54211        -1.54877         2.03555
LJ           4.09353        -3.71802       -0.282402
LJ            2.1299        -3.10362        0.348263
