108
#Comment!
LJ           2.29328       -0.590772         1.38069
LJ           1.82734         -1.9654         1.46417
LJ           -1.1938       -0.861519         1.82899
LJ          -3.55549          2.0383         1.29496
LJ           2.89028        -1.56909        0.752717
LJ           1.58012         1.34672        -1.22632
LJ           2.77407        0.804505         1.14441
LJ           2.15518        0.487286        -1.16475
LJ           1.38294         -1.2269        0.644583
LJ           2.43503        -2.03911       -0.971197
LJ           -2.2504         2.88203        0.743579
LJ           1.27864         1.60412         2.84796
LJ         -0.786982        -1.52324         0.12493
LJ           2.91488       -0.211972       -0.204475
LJ          -0.29745        0.730171         2.90081
LJ         0.0226568        0.938527         1.57518
LJ          0.716416        -2.23967         -2.4552
LJ          0.358459        0.837602        0.383357
LJ         -0.923702         1.50632         2.44868
LJ         -0.272859       -0.428635        -1.03839
LJ           1.16613        -3.17142         1.16349
LJ            1.2152        0.529057       -0.440076
LJ           2.18005        -1.04207        -2.12739
LJ           5.97584         3.90157         3.79795
LJ          -5.07691        -3.37875         5.30968
LJ          -2.05268         3.38629       -0.860237
LJ           -3.2813         6.27328       -0.754061
LJ         -0.438002        -5.72027         2.82756
LJ           1.10457         2.38685         2.13063
LJ          -2.48714       0.0970688         1.13789
LJ         -0.628173       0.0688564         1.69149
LJ          -2.79715        -4.66612          3.8707
LJ        -0.0744368        -1.40041        -1.87573
LJ          0.882684        -1.42263        -1.35221
LJ           -1.1762         2.45557        0.743788
LJ         0.0244366        -1.43578       -0.558759
LJ         -0.683999        -2.43288       -0.559917
LJ       0.000626974       -0.795567        -3.09403
LJ          -1.21236        0.507932         2.37513
LJ           2.60473        0.863463       -0.153348
LJ            1.4379        0.952191        0.749186
LJ          0.752599        -2.08821        0.824942
LJ          -1.90116       -0.217031       -0.819355
LJ          -1.79609       -0.977697       0.0437737
LJ           1.89212        0.589785         1.71625
LJ           1.18886        -4.06974         3.70049
LJ           1.28885        -2.02664       -0.400086
LJ           1.95519      -0.0526493        0.503362
LJ          -1.63819        0.903774      -0.0214035
LJ          -1.45515        0.771188         1.33719
LJ          -1.25186        0.527977         3.66776
LJ          -1.27364        0.926862        -1.15133
LJ          -1.49246        -2.34563         0.21369
LJ          -1.23264         2.51867        -1.15945
LJ           1.07953          1.3986         1.80607
LJ            2.1805         1.69431         1.97191
LJ          0.936075       -0.293616        0.405372
LJ          0.159438       -0.045305        -2.08907
LJ           2.29952        -2.04748       0.0454753
LJ           3.58369        0.586908       0.0413861
LJ         -0.290919         1.43881       -0.875817
LJ           6.09939         2.92732        -3.37769
LJ         -0.584538         -1.6721         1.31725
LJ         -0.879434       -0.163184        -1.90905
LJ         -0.351136         1.82274        0.228981
LJ         0.0588642         1.14871          -1.874
LJ           1.26918       -0.370034         1.83536
LJ           1.62224         2.10244         1.16185
LJ          -4.80909         4.71183        -6.00997
LJ         -0.554888         1.70596         1.39546
LJ          -4.65468        -1.71617         6.23777
LJ           3.22376       -0.721138          2.3051
LJ          0.840251          0.4331         1.35246
LJ          0.518593         1.79078        0.888864
LJ          -2.33754         1.10932         1.66274
LJ          0.629678        0.434443         3.69993
LJ         -0.754443       -0.539382       -0.122577
LJ         -0.431964        0.457789          -0.255
LJ          0.854808         5.93751         5.43323
LJ        -0.0242662        -1.11817        0.656547
LJ          0.255464        0.499968        -1.10685
LJ          0.736156       -0.451281       -0.823814
LJ         0.0153541       -0.824765         1.81684
LJ        0.00352765      -0.0627319         0.77975
LJ           0.19105         1.72731          2.2537
LJ          -1.98112         1.53636        0.746555
LJ          0.494391       -0.801387         4.27425
LJ           1.01465         2.46965        -1.29268
LJ          0.477599        0.139691         2.41543
LJ        -0.0932115        -0.59104         2.85212
LJ          -1.71207         2.00684         1.64373
LJ          0.101776         2.01085         3.36808
LJ           1.00148        -1.36008         1.75394
LJ            1.9238        -6.19155       -0.967718
LJ          -4.19048         3.20176         2.57389
LJ           0.15769        -3.62355        0.263536
LJ         -0.625727        0.729705        0.700685
LJ          0.731199          1.7656       -0.260579
LJ           1.46531        -1.05587       -0.362749
LJ           4.02193       -0.514572        -5.31015
LJ           2.15202         1.68822        0.279918
LJ          -1.22422         1.90128       -0.299693
LJ           3.99554         1.17372        0.930422
LJ          -3.75267       -0.428437         5.03878
LJ           1.55955       -0.282059        -1.63678
LJ          0.679365        -2.42577        -1.29556
LJ          -2.49519         1.58283         6.44842
LJ          -0.26474         3.61906        -4.57196
