108
#Comment!
LJ           3.07604       -0.252548         1.19649
LJ           2.84348         1.86826        -2.19402
LJ         -0.435693         -2.8469         0.56117
LJ          -2.49829        0.251855       -0.448025
LJ           0.26711        0.130348         3.44332
LJ           0.75007      -0.0682071        -2.43606
LJ           1.35007        0.632649        -1.39548
LJ           1.06237        -1.09596        -2.30131
LJ           1.48057        -0.68168         2.75803
LJ          0.313695        -1.07729         2.05879
LJ           0.23848         2.11817         2.04316
LJ          0.771495         1.08938         1.88327
LJ          -1.47553         -1.5805       -0.797527
LJ           3.91596         0.93288       -0.238367
LJ           -2.1742       -0.948079        0.393458
LJ          -1.49987       -0.746149         1.47819
LJ          -2.00673         -1.3865        -3.34018
LJ          0.887106        -0.15473        0.379137
LJ          0.381987         3.87167         4.25099
LJ         -0.551648        -1.01985       -0.782306
LJ          0.263038       -0.743785         4.42575
LJ          0.881365         2.02744       -0.770679
LJ            2.6843        0.924036       -0.644477
LJ          -5.18349        0.656229        -4.04883
LJ           3.76731         5.38899         5.36904
LJ         -0.474984         1.23126       -0.681667
LJ          -2.92064        -2.67586        -2.46343
LJ          -6.25209        -6.24379        -1.06559
LJ           2.19278        0.917619         1.20895
LJ          -1.00366        -1.14671        0.144378
LJ          0.106272        -2.07841         1.38852
LJ           6.28087          4.6344        -3.12215
LJ          -0.11882        -4.38875       -0.174442
LJ           2.07174      -0.0705539         -2.2447
LJ         0.0964236        0.644119        0.996009
LJ           2.40925       -0.428308        -1.16226
LJ           1.35868         -1.1412      -0.0616379
LJ       -0.00193778        -1.86349        -1.50086
LJ         -0.390372       -0.188224        0.307302
LJ           1.76332       -0.141561       -0.291643
LJ           1.56782         2.31365        0.174102
LJ         -0.278048       -0.354223         2.56281
LJ         -0.819948       -0.601464        -1.75715
LJ          -1.42956       -0.307355       -0.392813
LJ           2.14217        -1.18219        0.724221
LJ          -3.50872        -4.46548        -6.25433
LJ           2.29708       -0.597873         2.09441
LJ           2.34066       0.0934085        0.592239
LJ          -2.27037      -0.0673592        -1.51027
LJ         -0.888496         0.23145         1.28932
LJ          0.785845         1.63297         3.06285
LJ         -0.322403         1.85227        -2.37465
LJ           5.81908        -4.06617        -1.51184
LJ           0.30529         1.66183         1.07871
LJ           1.42211       -0.223339         1.72829
LJ           3.17373        0.980987         1.21347
LJ          0.784217        0.027538       -0.683403
LJ          0.853989        -1.35348        -1.03355
LJ          0.636734         -1.1438         3.36854
LJ           3.21932       -0.292164        0.095016
LJ           1.67494        0.947492       -0.192155
LJ        -0.0646178         4.57927        -4.23839
LJ             0.797        -2.01787         2.14086
LJ          -1.81913        -0.36604        -3.06658
LJ           1.07966        0.805823        0.638166
LJ          0.202334        -0.54176        -1.46243
LJ           1.73576        -1.62932         3.36387
LJ           2.60727         1.28295        0.317878
LJ         -0.641331        -4.65764        -2.32134
LJ         -0.325134        0.991058         2.06839
LJ          -1.82346        0.602064         6.36291
LJ           2.64023         1.30338         2.19223
LJ          0.311729      -0.0976685         1.67813
LJ           1.40802         1.88336         1.32835
LJ          -1.99957      -0.0131338        0.926664
LJ           1.24866        0.653964         3.42971
LJ          0.302267        -1.67894        0.470606
LJ          0.440892        0.839529       -0.112398
LJ          0.547317         1.89792         5.00385
LJ           1.49216        -2.35732         1.33217
LJ           1.42082       -0.566782        -1.48723
LJ          0.294195       -0.805019       -0.147178
LJ           1.76214        0.648266          2.3617
LJ           1.04451        -1.03409         1.05007
LJ           1.57619         1.72981         2.28747
LJ          -1.27872        0.762368      -0.0726066
LJ          -1.10561        -1.78518        0.966607
LJ         0.0489556        0.639152         -1.5178
LJ          0.725077         0.29872          2.5792
LJ         -0.438117       -0.936878         1.20455
LJ         -0.775991         1.27876        0.744525
LJ          0.405422         3.09376         2.32532
LJ         -0.147917         1.35073         3.28064
LJ          -1.35643        -1.90317        -1.89519
LJ         -0.595681        -2.04495       -0.443067
LJ           1.82209          1.3699        -2.36248
LJ         -0.292169      0.00679987       -0.683361
LJ         0.0884031         2.59648      -0.0968053
LJ           2.61397        -2.31819        0.706978
LJ           5.24188         1.13722        -5.59727
LJ           1.91927         5.05639      -0.0851795
LJ          -1.09914        0.480376        -1.50578
LJ           1.11106         4.13568         0.70423
LJ           -2.9503        -1.26901         -4.8159
LJ           1.81549         1.97204        -1.57695
LJ        -0.0620381        -4.11674        -1.57188
LJ          0.364847        -2.14101       -0.505646
LJ           6.14618        -5.01533         1.09618
