108
#Comment!
LJ          -1.62398        -1.62398        -1.62398
LJ          -2.00069        -2.00069        -3.37011
LJ          -3.37011        -2.00069        -2.00069
LJ          -2.00069        -3.37011        -2.00069
LJ          -1.79504        -3.02848        -3.02848
LJ         0.0590895        -2.32574        -3.75351
LJ         -0.860846        -2.30933        -2.30933
LJ         0.0590895        -3.75351        -2.32574
LJ          0.679147        -2.82397        -2.82397
LJ           1.74553        -1.75642        -2.82244
LJ           1.00344        -2.08293        -2.08293
LJ           1.74553        -2.82244        -1.75642
LJ          -3.02848        -1.79504        -3.02848
LJ          -2.32574       0.0590895        -3.75351
LJ          -3.75351       0.0590895        -2.32574
LJ          -2.30933       -0.860846        -2.30933
LJ         -0.890484       -0.890484        -2.65356
LJ         -0.189039       -0.189039        -2.65383
LJ          -1.04208      -0.0366044        -1.79456
LJ        -0.0366044        -1.04208        -1.79456
LJ           1.24943        -1.13617        -3.75266
LJ           1.95199        0.717825        -3.02878
LJ           1.23319       -0.216518        -2.31066
LJ           2.67568        -1.13604        -2.32557
LJ          -2.82397        0.679147        -2.82397
LJ          -1.75642         1.74553        -2.82244
LJ          -2.82244         1.74553        -1.75642
LJ          -2.08293         1.00344        -2.08293
LJ          -1.13617         1.24943        -3.75266
LJ          0.717825         1.95199        -3.02878
LJ          -1.13604         2.67568        -2.32557
LJ         -0.216518         1.23319        -2.31066
LJ          0.924801        0.924801          -3.371
LJ          0.547702        0.547702        -1.62478
LJ          0.924539         2.29376        -2.00129
LJ           2.29376        0.924539        -2.00129
LJ          -3.02848        -3.02848        -1.79504
LJ          -2.30933        -2.30933       -0.860846
LJ          -3.75351        -2.32574       0.0590895
LJ          -2.32574        -3.75351       0.0590895
LJ         -0.890484        -2.65356       -0.890484
LJ        -0.0366044        -1.79456        -1.04208
LJ          -1.04208        -1.79456      -0.0366044
LJ         -0.189039        -2.65383       -0.189039
LJ           1.24943        -3.75266        -1.13617
LJ           2.67568        -2.32557        -1.13604
LJ           1.23319        -2.31066       -0.216518
LJ           1.95199        -3.02878        0.717825
LJ          -2.65356       -0.890484       -0.890484
LJ          -1.79456      -0.0366044        -1.04208
LJ          -2.65383       -0.189039       -0.189039
LJ          -1.79456        -1.04208      -0.0366044
LJ         -0.918851       -0.918851       -0.918851
LJ         -0.158203       -0.158203       -0.918741
LJ         -0.918741       -0.158203       -0.158203
LJ         -0.158203       -0.918741       -0.158203
LJ          0.716117         -1.0417         -1.0417
LJ           1.57587       -0.187573       -0.888912
LJ          0.716962      -0.0357736      -0.0357736
LJ           1.57587       -0.888912       -0.187573
LJ          -3.75266         1.24943        -1.13617
LJ          -2.32557         2.67568        -1.13604
LJ          -3.02878         1.95199        0.717825
LJ          -2.31066         1.23319       -0.216518
LJ           -1.0417        0.716117         -1.0417
LJ         -0.187573         1.57587       -0.888912
LJ         -0.888912         1.57587       -0.187573
LJ        -0.0357736        0.716962      -0.0357736
LJ           1.23325         1.23325       -0.860935
LJ           1.95223         1.95223         -1.7952
LJ           1.24892         2.67613       0.0587896
LJ           2.67613         1.24892       0.0587896
LJ          -2.82397        -2.82397        0.679147
LJ          -2.08293        -2.08293         1.00344
LJ          -2.82244        -1.75642         1.74553
LJ          -1.75642        -2.82244         1.74553
LJ          -1.13617        -3.75266         1.24943
LJ         -0.216518        -2.31066         1.23319
LJ          -1.13604        -2.32557         2.67568
LJ          0.717825        -3.02878         1.95199
LJ          0.924801          -3.371        0.924801
LJ           2.29376        -2.00129        0.924539
LJ          0.924539        -2.00129         2.29376
LJ          0.547702        -1.62478        0.547702
LJ          -3.75266        -1.13617         1.24943
LJ          -2.31066       -0.216518         1.23319
LJ          -3.02878        0.717825         1.95199
LJ          -2.32557        -1.13604         2.67568
LJ           -1.0417         -1.0417        0.716117
LJ        -0.0357736      -0.0357736        0.716962
LJ         -0.888912       -0.187573         1.57587
LJ         -0.187573       -0.888912         1.57587
LJ           1.23325       -0.860935         1.23325
LJ           2.67613       0.0587896         1.24892
LJ           1.24892       0.0587896         2.67613
LJ           1.95223         -1.7952         1.95223
LJ            -3.371        0.924801        0.924801
LJ          -2.00129         2.29376        0.924539
LJ          -1.62478        0.547702        0.547702
LJ          -2.00129        0.924539         2.29376
LJ         -0.860935         1.23325         1.23325
LJ         0.0587896         2.67613         1.24892
LJ           -1.7952         1.95223         1.95223
LJ         0.0587896         1.24892         2.67613
LJ           1.00512         1.00512         1.00512
LJ           1.74602         1.74602        0.679161
LJ          0.679161         1.74602         1.74602
LJ           1.74602        0.679161         1.74602
