108
#Comment!
LJ         -0.691334        -2.04463       -0.106065
LJ          -5.52382         4.96251        -1.77046
LJ             1.634         3.62363        -2.79004
LJ           1.90094          2.6866        -3.36164
LJ           1.21114        -1.59577       -0.817654
LJ          0.121354         2.41081       -0.247094
LJ           1.13318        -1.83844         0.19635
LJ          0.654874         -2.6479        0.841071
LJ           1.37191        -2.66013       -0.404775
LJ           1.64665      -0.0721604       -0.548849
LJ           1.51008          1.6346        0.669918
LJ           1.10587       -0.915481         2.04323
LJ          -1.29213       -0.742689        -1.84833
LJ          0.411664         1.57596        -1.78427
LJ         -0.178777         1.97878        0.760748
LJ         -0.335022         3.35705         1.02691
LJ          -1.10799          1.2146       -0.977475
LJ        -0.0641455       0.0386583        0.661109
LJ         -0.650983         3.23033       -0.132618
LJ        -0.0327461       -0.468799        -1.30786
LJ           1.04106       -0.694688        -1.43309
LJ          0.195429        -1.02322       -0.232591
LJ          -1.03694        0.245041        -2.21091
LJ          0.722428         4.26794         4.17554
LJ          -3.12646         6.37763       -0.279522
LJ         -0.497844         2.09741        -1.96076
LJ          0.549447         2.34649        -2.67487
LJ           4.58033         1.67863         1.07149
LJ          0.607941         3.81776       -0.622605
LJ           1.89482         5.57443        -1.63839
LJ          -1.76915          0.3928         1.40803
LJ          0.341233        0.598877        -2.36137
LJ         -0.280261        0.599494        -3.43413
LJ          0.818705        0.721423        -1.31684
LJ          0.219924         1.01605        0.457171
LJ         -0.151847        0.552827        -1.37171
LJ          -1.25493         -2.6371        -0.82916
LJ          -3.10097       -0.315294       -0.269053
LJ          -1.13492         1.30529         0.12883
LJ          0.971786        -1.82631         1.51138
LJ         -0.669991       -0.936855        0.643391
LJ         -0.556105        -2.96291        0.484061
LJ          -1.65274        -1.51813        0.265006
LJ         -0.806095       -0.357206          1.5334
LJ         -0.178627        -3.77046        0.988428
LJ          -5.85898        -5.24498        0.397266
LJ           0.25199        -2.34661       -0.118468
LJ           1.74661         -2.5145        0.897026
LJ         -0.631465       -0.442725       -0.349304
LJ         -0.933699         2.28968        -0.67755
LJ          0.292461      -0.0161533          1.6422
LJ          -1.84338        0.490798       -0.276466
LJ        0.00940393        -1.71126        -1.12064
LJ        -0.0485695         1.48685       -0.726483
LJ           1.03459        0.318115        0.448229
LJ           1.81153       -0.647247         1.10966
LJ           1.12381       -0.655439        0.216231
LJ          0.365303     -0.00343024       -0.427836
LJ            2.4519       0.0760336        -1.42007
LJ           2.96846        0.268971       -0.357458
LJ          -1.20975     -0.00623722        -1.07337
LJ          -6.29883         3.42467         1.37582
LJ          -2.23632         1.76147       -0.368225
LJ          -1.30604         -1.1751       -0.737416
LJ         -0.219119         1.81646         1.79736
LJ         -0.531994         0.67399       -0.262589
LJ         -0.541129        0.963986         1.10538
LJ           1.88336          2.5706      -0.0497216
LJ           2.79952         6.32424        -6.31785
LJ          0.687943        0.916841         1.43125
LJ          -3.81846        -1.42159         5.98329
LJ          -1.93349         5.22515        -5.53442
LJ        -0.0339983        -1.80212        0.754455
LJ           1.28765         1.07238       -0.328668
LJ         -0.969797         1.03618         2.22942
LJ         0.0699755        0.842327         2.47379
LJ          -1.18623        -3.35897         1.19694
LJ          -1.15458        -1.99402         1.11946
LJ           1.36226         1.84906         5.35391
LJ          -5.53959        -1.83927         2.28551
LJ          0.503207       -0.912178         0.97835
LJ           2.38627        -1.75803       -0.519015
LJ          -0.44449        -2.64474         1.58331
LJ         -0.117261        -1.29569         1.76503
LJ          -2.43143        0.303171        0.488731
LJ          -1.08417     0.000832423        0.438724
LJ          0.873133        -3.07125         1.78334
LJ          -2.47995         2.98433         2.73214
LJ           1.20084       -0.342537         3.37954
LJ          -1.36137        -1.23856         1.91724
LJ           -1.2208         2.37576        0.409656
LJ          0.544397        -1.10041          2.9213
LJ          0.406156        -2.20477         2.31221
LJ          -2.55859        -4.42209         6.07592
LJ           5.74652        -5.03574        -0.27438
LJ           6.36266         2.87678        -3.90992
LJ          -1.91821       -0.724161         1.03939
LJ          0.665694         2.68179        0.802571
LJ            1.6628         3.82061        0.611832
LJ           2.62949        -2.89225       -0.421672
LJ           5.12998          3.5054       -0.692511
LJ          -4.78011          1.0699        -2.54651
LJ         -0.528492         5.70657       -0.917447
LJ           5.75421         5.50199          2.5268
LJ           1.97005        0.786949         1.34724
LJ          -1.96481       -0.460747       0.0158603
LJ          -1.26459         6.10186        -4.14082
LJ          -2.54672        -1.87525         5.87841
