108
#Comment!
LJ          -3.50699        -3.46495        -3.49226
LJ          -1.25214        -1.23718        -4.49062
LJ          -4.48622        -1.20639        -1.22778
LJ          -1.23452        -4.49967        -1.24055
LJ          -0.91398        -2.07062        -2.09336
LJ          0.737617       -0.660522        -2.83175
LJ          0.280569       -0.950819        -1.05181
LJ          0.800312        -2.85326       -0.652641
LJ           1.47638        -2.13801        -2.11193
LJ           1.76767         0.28572       -0.917668
LJ          -5.97241         4.99244         4.99249
LJ           1.76576       -0.976708        0.297085
LJ          -1.93402       -0.929364        -1.99312
LJ         -0.541771         0.79231        -2.76484
LJ           -2.7843        0.731232       -0.587524
LJ          -1.05518        0.206465       -0.958606
LJ         -0.867791       -0.865017        -3.02164
LJ       -0.00324586       0.0124339       -0.777272
LJ          -1.69958        0.591992        -2.51367
LJ          0.509849        -1.66821        -2.50793
LJ           2.09743       -0.924372        -2.50893
LJ           1.25669       -0.940603        -1.88057
LJ         -0.308174        -1.16831        -1.99854
LJ            5.7829        -3.64855        -4.37023
LJ          -2.10721         1.53173         -2.1643
LJ          0.294278         1.83493        -1.02736
LJ         -0.960778         1.76381        0.282221
LJ           4.99212         -5.9721         4.99209
LJ         -0.950386         2.09727          -2.523
LJ          -1.04852         1.21854        -1.84123
LJ          -3.64871         5.78332        -4.37025
LJ          -1.15587       -0.230952        -1.95274
LJ        -0.0885138       -0.133406        -2.15462
LJ          0.717115        0.731768        -2.31208
LJ         -0.073897         1.60925        -2.30644
LJ           1.51356      -0.0964956        -2.40732
LJ          -1.96363        -2.01893       -0.912692
LJ          -1.06889       -0.947639         0.24588
LJ          -2.78628       -0.663618         0.71112
LJ         -0.593277        -2.79033        0.806579
LJ          -0.84142        -3.01066       -0.853899
LJ          0.539804        -2.50247        -1.68143
LJ          -1.71681        -2.53956        0.537606
LJ        -0.0386667        -0.82053      -0.0412707
LJ           2.06719        -2.50399       -0.914699
LJ             5.783        -4.37034        -3.64898
LJ         -0.291213        -1.91762        -1.10547
LJ            1.2453        -1.89877       -0.990785
LJ          -3.07657       -0.834262       -0.841709
LJ          -2.44649        0.536531         -1.6723
LJ         -0.727227       0.0331366       0.0466535
LJ          -2.42228        -1.68156        0.478879
LJ         -0.982688       -0.916567       -0.889169
LJ          0.995741         1.03657        -0.24705
LJ         -0.176455        0.965911        0.941595
LJ           1.01354       -0.235343         1.04458
LJ          0.888797       -0.354496       -0.308562
LJ          0.868903      -0.0103329        -1.42173
LJ           1.73069       -0.814626       -0.770436
LJ          0.843148        -1.44293       -0.031606
LJ          -2.54999         2.16474       -0.954392
LJ          -4.37018         5.78313        -3.64859
LJ          -1.82554         1.25955       -0.975906
LJ          -2.00777       -0.272974        -1.17984
LJ         -0.321981        0.945589        -0.31306
LJ         -0.061341        0.834617        -1.46188
LJ          -1.44216        0.841666      -0.0685563
LJ         -0.766831         1.77089       -0.807181
LJ           3.17048         3.17114         2.40006
LJ           3.77701         3.77721         1.64922
LJ          -1.16005         3.17133        -5.78773
LJ           3.17095        -1.16003        -5.78794
LJ          -2.10644        -2.15172          1.5466
LJ           4.99237          4.9923         -5.9723
LJ         -0.903374        0.293195         1.76813
LJ          0.274755        -1.02256         1.82944
LJ         -0.957303        -2.51317         2.07401
LJ          -1.12485        -1.92304       -0.251376
LJ          -3.64893        -4.37043          5.7833
LJ          -1.02145        -1.85775         1.28713
LJ        -0.0755505        -2.25628      -0.0882484
LJ           1.55716        -2.36288       -0.077549
LJ        -0.0789445        -2.35549         1.60437
LJ          0.748199        -2.32413        0.727618
LJ           -2.5062       -0.947406         2.13778
LJ          -1.98878        -1.16922       -0.312454
LJ          -1.82383       -0.931789         1.28293
LJ          -4.37015        -3.64851         5.78286
LJ         -0.288474       -0.330381        0.924548
LJ         -0.769045       -0.793983         1.77267
LJ          -1.43534      -0.0435238        0.856179
LJ        -0.0788548        -1.46885        0.816374
LJ           3.17056         2.39933          3.1704
LJ           3.17199          -5.789        -1.16033
LJ          -1.16034        -5.78835         3.17148
LJ           3.77647         1.64764         3.77645
LJ          -2.10739       -0.133302       -0.105734
LJ           -2.3473         1.56578       -0.122497
LJ           -2.3346        0.790766        0.765843
LJ          -2.42901       -0.108659         1.50117
LJ           2.39998          3.1712         3.17032
LJ          -5.78519         3.16949        -1.16065
LJ           1.64911         3.77745         3.77739
LJ          -5.78712        -1.16022          3.1712
LJ           5.87754         5.84468         5.86602
LJ           2.90697         2.88586       -0.471498
LJ         -0.492642         2.91064         2.92345
LJ           2.92463       -0.446373         2.86188
