108
#Comment!
LJ           3.70227       -0.897222        0.711891
LJ           -2.0468         2.92463         -2.5888
LJ          0.741329        -1.85592         1.49048
LJ         -0.528658         2.79813       -0.723072
LJ          0.821827        0.239393         3.26798
LJ          0.556196        -2.84843       -0.939306
LJ          0.488147       -0.104982        -1.31619
LJ           1.75815        -1.73004       -0.573005
LJ           1.88883        -1.32765         2.05663
LJ          0.163578       -0.891607         2.21542
LJ         -0.433016         1.97895         2.79995
LJ         0.0304669        0.823944        0.957311
LJ          0.291016       -0.702224       -0.352069
LJ           1.98107         6.12821        -2.21276
LJ           0.79652        -3.73391       -0.397793
LJ         -0.343307        -1.69526        0.105453
LJ           5.50367        -1.64633         -6.0077
LJ          0.764544         1.45746      -0.0245378
LJ         -0.215222         4.83306        -4.63297
LJ           1.06651        -1.26541        -1.37255
LJ          -2.08186        0.305686         3.76324
LJ          0.678466         1.99595        -2.48543
LJ           3.17173       -0.194989       0.0562611
LJ          -2.44659        -2.40938        -1.50173
LJ          0.599104        0.218438         4.54862
LJ       -0.00536392         1.96658        -1.24238
LJ          -1.11094        0.168125        -1.75555
LJ          -2.65104          5.8148        -1.68616
LJ           2.08152          1.9002         1.96382
LJ           1.00377        -2.50252        0.553598
LJ           2.06087        -1.04867         3.93965
LJ           4.12951        0.689564         4.23061
LJ           1.12967        -3.42512        -1.72707
LJ           1.05466      -0.0479655        -2.36382
LJ        -0.0561346         1.88059        0.780276
LJ           2.71953        0.762791        -1.02617
LJ           1.69534         -1.6116        0.654719
LJ          0.963131        -3.63735        -2.82912
LJ           0.53825        0.293996       0.0804229
LJ           1.32845        0.607079        -1.47893
LJ           1.53677         2.22185       -0.143253
LJ         -0.584347        -1.62809         1.57622
LJ          0.647084        -2.21521        -1.87902
LJ         -0.535276        0.154143         0.34348
LJ           2.97232       -0.377586         3.69965
LJ           5.36435        -4.70605         -3.7043
LJ           2.99973       -0.701862         1.88335
LJ           2.89803        -1.67594         2.57606
LJ           2.08594       -0.963902        -1.75604
LJ           -1.3594         1.84472         1.65942
LJ           1.70711          0.6292         1.65262
LJ         -0.101984         2.96517        -2.45697
LJ           1.23289        -6.06314        -2.67227
LJ           0.04624         1.63748         1.83595
LJ           2.45201        -1.06779         1.12215
LJ           2.27933       -0.992777       -0.113967
LJ           1.64938        0.638963       -0.561849
LJ           1.72316         -2.9943       -0.382124
LJ          0.727899       -0.652695         3.88689
LJ           3.75793        0.252581         1.17916
LJ           0.61134        0.863381       -0.779779
LJ          -5.37433         5.94472        -4.87132
LJ           1.16414       -0.610857         2.81932
LJ         -0.278564         3.96938        -2.19906
LJ           2.63129        0.455733        0.912509
LJ           1.24402       -0.667554      -0.0500154
LJ           1.11782         -1.9073         3.01884
LJ             1.328         1.73663        -1.06671
LJ          0.984184         3.25778        -2.84998
LJ           1.07236          1.3912         2.14454
LJ           1.44813         1.72784        -5.94153
LJ           2.14206        0.950306         2.63952
LJ          0.488352        -1.15722        0.633888
LJ           1.49357        0.645362          0.5327
LJ          -0.44167       -0.710706         1.14441
LJ          0.560209       -0.143064        0.975797
LJ           1.80065       -0.259995          1.0813
LJ         -0.365251         1.49099       -0.129106
LJ           2.78972         -1.1218         5.37248
LJ          0.976393       -0.693329         1.69381
LJ            2.0169       -0.310109       -0.955121
LJ          0.795977        -1.86693       -0.241212
LJ           2.20324       -0.102518         2.41339
LJ           3.21643        -2.23286         1.51048
LJ            1.0408         1.65608         1.06152
LJ          -1.25483       0.0532434         1.23657
LJ         -0.770625        -2.76612         1.25845
LJ         0.0220218        0.951012        -1.72497
LJ          0.713411        0.242814         2.14012
LJ          0.214619        -1.99538         2.49043
LJ           0.34449         2.40054       -0.202174
LJ         -0.782066         1.00054          1.4946
LJ         -0.742421        0.944967         2.51279
LJ          0.346014       -0.897742         -2.0773
LJ          0.101286        -1.66308       -0.965478
LJ           1.12514         1.09882        -4.69644
LJ         -0.428194         0.50798        -0.66094
LJ         -0.241471         2.74753         1.87778
LJ          -1.37716        -5.88509         4.03901
LJ           5.40109          3.5839         -6.3102
LJ          -1.05553         4.13041       -0.444112
LJ         -0.139048       0.0856592        -2.25323
LJ          0.683786         2.89475        -1.61301
LJ           5.66349       -0.256316        -2.88962
LJ          0.292563         3.87658        -1.22829
LJ          -1.16743        -2.22162        0.402289
LJ           1.70642        -2.34276         1.33691
LJ          0.339853        -2.84825         1.18511
