108
#Comment!
LJ           2.79423        0.555782         1.49606
LJ           2.59556        -3.42823       -0.446249
LJ         -0.763255       -0.881511        0.754402
LJ          -2.69453        0.644896          -0.439
LJ           1.62866        -2.13915          2.2205
LJ           1.41252         1.52525        -1.57905
LJ           2.59346         1.42803        0.714379
LJ           1.47536        0.503333        -1.70414
LJ           1.24883       -0.524105        0.811687
LJ          0.841936        -3.85783      -0.0907963
LJ          -2.53811         2.06755         1.33871
LJ           1.45108         1.48697         3.14188
LJ          -1.35389        -1.26374       -0.143932
LJ           2.56816       -0.801709       -0.199401
LJ         -0.314448        0.499842         2.84728
LJ        -0.0798349         1.14938         2.01546
LJ          0.266185        -2.44359        -1.67335
LJ          0.207135          1.0828        0.702922
LJ          0.437692         1.76077         2.85488
LJ         -0.640111       0.0643638        -1.26424
LJ          0.625134        -2.82228          1.9066
LJ            1.0815        0.907061       -0.790725
LJ            2.3776        -1.80891        -1.73797
LJ          -6.44213         3.07116         5.18259
LJ          -6.25233        -1.08854          5.2311
LJ          -2.56286         1.98259        0.368735
LJ          -3.14407        -5.91266        -1.04834
LJ          0.297243        -4.86198        0.605186
LJ           2.18408         2.20605         2.62348
LJ          -2.96045        0.199103        0.992726
LJ         -0.452781       -0.195989         1.85975
LJ          -3.85112        -5.65772         2.01598
LJ          0.147952       -0.768906        -1.67911
LJ           1.64918        -1.06791        -1.03018
LJ          -1.30257         2.14179         0.99988
LJ          0.244871        -1.24126       -0.569778
LJ          0.315482        -2.50867        0.624141
LJ          0.143602       -0.959609        -2.76902
LJ          -1.70139      -0.0863829         2.56007
LJ           1.98863        0.702298       -0.291586
LJ           1.54009         1.35125        0.500155
LJ          0.747197        -1.48099          1.4345
LJ          -1.25551       -0.911919        -1.15161
LJ          -1.41684       -0.272153        0.199726
LJ           1.75175        0.565036         1.48726
LJ        -0.0714716        -4.20263          4.5331
LJ           1.42864        -1.61817        0.149366
LJ            2.4224       0.0314646        0.565445
LJ          -1.73403        0.251653       -0.879899
LJ         -0.993312        0.347919         1.01123
LJ         -0.674294         1.63563         3.14234
LJ         -0.900358         1.08916        -1.09776
LJ          -3.21097        -2.94889       -0.277893
LJ         -0.504685         2.11869       -0.986862
LJ             1.075         1.30252         1.95823
LJ           2.00555         0.66094         2.61421
LJ          0.751192      -0.0502066      -0.0146041
LJ          0.787542       -0.184909        -2.22058
LJ           1.73618        -1.61764         1.23155
LJ           3.58256        0.465494        0.855829
LJ          0.271359         1.75946       -0.267718
LJ            4.4498         3.38105        -3.61867
LJ         -0.109131        -2.00845         1.94952
LJ          -1.31165       -0.191182        -2.29554
LJ         -0.645424         1.82369        0.126164
LJ          -0.31684        0.484916        -2.71478
LJ           2.21297       -0.445498          1.5146
LJ            1.9379         1.89061           1.587
LJ          -4.26135         1.78608        -4.84533
LJ         -0.321394         2.16541         1.76785
LJ           -4.1434       -0.749957        -6.39576
LJ           3.09082       -0.758696         1.85925
LJ          0.836921        0.471793         1.18927
LJ          0.524539         1.84347         1.31406
LJ          -2.33943         1.04702         1.76431
LJ          0.935427         0.31107         3.36043
LJ         -0.297163       -0.345661       -0.127539
LJ         0.0602893        0.623563       -0.552614
LJ          0.450981         4.70896         4.97729
LJ          0.287608       -0.970704        0.511717
LJ          0.231695        0.815674        -1.64301
LJ          0.754431       -0.100718        -1.06287
LJ            1.1316       -0.581536         1.90231
LJ       -0.00578843       0.0582448        0.778899
LJ           1.18293         2.39514         2.23649
LJ          -2.08408        0.603777         0.56821
LJ         -0.821753       -0.675071         2.91391
LJ         -0.644332         1.79885        -2.24552
LJ          0.647753        0.359112         2.22067
LJ           0.21397       -0.546988         2.69209
LJ          -1.08953         1.31142         1.77526
LJ          0.188711         1.05856         3.60429
LJ            0.6469        -1.55235         2.46941
LJ           0.68357        -4.66682         -2.2035
LJ          -3.64102         1.66701        0.681323
LJ            1.8894        -2.58638       -0.129507
LJ         -0.705693        0.869604       0.0785648
LJ           1.17942         2.25471       -0.468372
LJ           1.61118        -0.39234       -0.240656
LJ           4.32726      -0.0857524        -5.37303
LJ           1.98718         2.28889        0.382983
LJ          -1.71376         1.32532       -0.220368
LJ           3.01402         3.04839        0.486353
LJ          -3.24135       -0.984667         5.56548
LJ           2.04766       -0.554209        -2.34255
LJ           1.00339        -2.18479        -0.94294
LJ          -4.75981         4.32069        -5.13664
LJ          0.527686         4.18202        -1.67289
