108
#Comment!
LJ           3.18987       -0.399898         1.30369
LJ           2.66505         2.06546        -2.10851
LJ         -0.247287        -2.74453        0.588658
LJ            -2.325        0.238225        -0.35045
LJ         0.0344849        0.217375         3.60018
LJ          0.518849      -0.0480181        -2.64684
LJ           1.35326        0.794622        -1.36474
LJ          0.910235        -1.29719        -2.19075
LJ           1.54278       -0.602416         2.76946
LJ          0.314606        -1.05437         2.24877
LJ          0.322478         2.02007         2.25717
LJ          0.766364         1.06742         1.75165
LJ           -1.6293        -1.42397        -0.72656
LJ           3.93747          1.1166       -0.217531
LJ          -2.12898        -1.24743        0.330874
LJ          -1.53606       -0.732213         1.35846
LJ          -2.17454         -1.4464        -3.31914
LJ          0.751695        -0.19713         0.40704
LJ           0.35971         3.91741         4.39865
LJ         -0.630736        -1.01141       -0.998324
LJ          0.483969       -0.583359         4.34054
LJ          0.905226         1.91675       -0.727171
LJ           2.92831        0.803445       -0.856057
LJ          -5.13614        0.550214        -3.89647
LJ           3.64594         5.66296         5.37873
LJ         -0.313158         1.16203       -0.730196
LJ          -2.87591        -2.46091        -2.56877
LJ           6.34021        -6.28644        -1.08457
LJ           2.08385        0.810911         1.26308
LJ          -1.00767        -1.05145         0.16458
LJ        -0.0632811        -2.19774         1.70791
LJ           6.16634         4.52763         -3.3379
LJ         -0.152125        -4.50243        -0.14155
LJ           1.99056        -0.03723         -2.3906
LJ          0.174485        0.558001        0.907538
LJ           2.74371       -0.309721        -1.24661
LJ           1.33113       -0.885937       -0.130669
LJ         0.0862467        -1.81652        -1.54175
LJ         -0.360389       -0.164068        0.421224
LJ           1.93544       0.0044624       -0.322358
LJ           1.54691         2.31014        0.298751
LJ         -0.464413       -0.276769         2.53496
LJ           -1.0026       -0.626816         -1.8616
LJ          -1.44919       -0.393211       -0.469393
LJ           2.37987        -1.15659        0.825412
LJ          -3.65385        -4.47477        -6.16358
LJ           2.48181       -0.579082         2.09071
LJ           2.48186        0.039774        0.567015
LJ          -2.19572       -0.140763        -1.33317
LJ         -0.824294        0.265385         1.23545
LJ          0.810664         1.57491         3.02401
LJ         -0.293691         1.77116        -2.37845
LJ           5.65968        -4.11992        -1.56204
LJ          0.295763         1.75293         1.05724
LJ            1.1664       -0.165074         1.76921
LJ           3.27212         1.06597          1.2077
LJ          0.939335       -0.062742        -0.69839
LJ          0.961225        -1.39928        -0.98424
LJ          0.571811        -1.02572         3.29028
LJ           3.41061       -0.367964        0.126423
LJ           1.49335         0.99488       -0.279812
LJ         -0.255589         4.62791        -4.26243
LJ           1.19091        -1.71937         2.22474
LJ          -1.76022       -0.188927        -3.02614
LJ           1.18354        0.797055        0.917126
LJ          0.317135       -0.456867         -1.4892
LJ             1.543        -1.76913         3.36749
LJ           2.48372         1.19091        0.222387
LJ         -0.582055        -4.95646        -2.34908
LJ         -0.248736        0.784758         1.90547
LJ          -1.72203        0.617373           6.364
LJ           2.55875          1.2229          2.0397
LJ          0.155194       -0.269311         1.49499
LJ           1.34948         1.77113         1.12261
LJ          -1.95246       0.0585548        0.586318
LJ           1.23329        0.652527         3.52687
LJ          0.351902        -1.37556         0.62883
LJ          0.451705        0.720249      -0.0974561
LJ          0.581993         1.81727         5.04018
LJ           1.52358        -2.53939         1.36377
LJ           1.38472       -0.480787        -1.48489
LJ          0.205276       -0.918272       -0.392898
LJ            1.6957        0.615925         2.21057
LJ           1.30442        -1.16336         1.13211
LJ           1.62825         1.72934         2.32005
LJ          -1.18422        0.669023       -0.260313
LJ          -1.00826        -1.96876         0.81441
LJ          0.044388        0.593704        -1.57912
LJ          0.667546        0.405655         2.58246
LJ         -0.505403       -0.999502         1.14269
LJ         -0.556454         1.21895        0.640979
LJ          0.340764         3.27614         2.12389
LJ          -0.36702         1.31769         3.23196
LJ          -1.30562        -1.79884        -1.73933
LJ         -0.816129        -2.01982       -0.317833
LJ           1.51448         1.38109        -2.34138
LJ         -0.228129       0.0768343       -0.640551
LJ        -0.0657694         2.61436        0.112328
LJ           2.51055        -2.61577        0.842217
LJ           5.28539         1.19099        -5.60654
LJ           1.88851         5.11769      -0.0290345
LJ          -1.11315        0.351796        -1.50631
LJ           1.00475         4.10576        0.635143
LJ          -2.92479        -1.24092        -4.68783
LJ           1.89732         2.19383        -1.39239
LJ         0.0230631        -4.00501        -1.39774
LJ          0.429571        -2.08938       -0.387442
LJ           6.45413        -4.92654         1.18733
