108
#Comment!
LJ          0.391109        -1.48834       0.0280965
LJ           3.80457       -0.477971         3.94532
LJ          -2.18148         1.11736        0.236067
LJ         -0.612201         -5.8135        -1.16937
LJ            1.3855        -1.98414      -0.0406169
LJ          0.831368         1.79404        -1.28279
LJ           1.95149       -0.116051         1.33732
LJ           2.67574       -0.714809        0.896958
LJ           2.09823        -1.68218        0.946855
LJ             1.032       -0.124179        -1.98205
LJ          -1.31019         2.62878       -0.260966
LJ           2.36335          1.0064         2.33965
LJ          -0.31486         -2.2859        -1.34168
LJ            2.1338       -0.658039         -1.4283
LJ          -2.37007        0.961105         3.36504
LJ            1.0227         2.84018         1.61127
LJ          0.114138        0.742863        -1.87755
LJ          -0.20675       -0.444082        0.328448
LJ         -0.786131          1.5171         1.47716
LJ         -0.357952       -0.940736        -0.57349
LJ          0.655468        -2.04673       -0.997216
LJ           1.26194        0.243588       0.0417996
LJ            0.4291         1.95149        -2.33277
LJ           3.32325         5.69144        -1.17081
LJ           1.49935          2.2033        -5.27694
LJ          -1.68926         3.48601         0.62383
LJ          -2.88778         3.35931        0.503658
LJ          -3.82413         4.28778        -4.18159
LJ            1.9955         2.01053         1.67198
LJ           5.93823         3.90529         5.11961
LJ          -1.22919        0.292287         2.00401
LJ          0.841509        -1.38484        -2.29994
LJ          0.228766       -0.251718        -1.35336
LJ           1.02233        -1.05625          -1.278
LJ          -1.14322         1.76013        0.380073
LJ        -0.0523708        -1.31319        -1.60905
LJ          -0.60022        -1.99028       -0.197185
LJ          -0.18118         1.83821         -1.3711
LJ          -1.77723         1.11998         1.25312
LJ            1.8786        0.739602        0.649036
LJ           1.27201       -0.842184        0.555599
LJ           1.03114         -1.7712        0.861161
LJ           -1.9447        -1.46912        0.805245
LJ          -1.05488        -0.64238          1.1906
LJ          0.575945       -0.965379         2.23742
LJ           5.00489        -2.64544        0.159202
LJ          0.660301        -2.71546        0.121611
LJ           2.63023        -0.53758       -0.203473
LJ          -1.40779       -0.467456      -0.0285414
LJ          -2.35912         2.15971        0.518189
LJ         -0.482009         -0.7254         2.10804
LJ          -1.57086        0.662297       -0.394753
LJ         -0.194218        -2.92199       -0.581454
LJ          -0.64056         1.30978       -0.442194
LJ          0.937205         1.12518         1.10829
LJ           1.34711         1.24092       -0.267207
LJ           1.58067        -1.03058       -0.388271
LJ          0.568158       -0.501488       -0.326684
LJ           1.86274        -1.88605        -1.77803
LJ           2.44274       -0.873604        -2.60582
LJ          -1.22527       -0.368678        -1.37326
LJ         -0.841461         1.09454        -2.13092
LJ          -2.40446       0.0172153      -0.0278462
LJ          -2.03505        -1.07662          -1.305
LJ           0.13714         1.88092        0.844725
LJ         -0.293166        0.238617        -0.50349
LJ          -1.01124         1.13336         2.60603
LJ          0.968436         2.34629        0.418903
LJ           4.98366        -5.21098        0.732821
LJ         -0.130402        0.736921         1.32751
LJ          -4.24314         2.29765         5.30597
LJ           3.56713        0.972384         3.19632
LJ          0.674977      -0.0499825         1.04951
LJ         -0.597445         2.95776        0.714635
LJ          -1.66567          2.2213         1.45068
LJ          0.112679         1.59144          3.1717
LJ          0.245311        -2.24051         1.56292
LJ         -0.679711        -1.60173        0.800987
LJ           2.15703        -2.54019        -5.97702
LJ           2.35386        -1.47737         2.65684
LJ          0.417987        0.730354        0.281196
LJ           1.41316      -0.0830901       -0.915354
LJ          0.261025        -1.07486         1.08266
LJ            1.3769        0.584124         1.84731
LJ        -0.0350178         2.40017         1.87468
LJ          -1.59552        0.174464         0.84974
LJ        -0.0299534         1.36886         2.20264
LJ           2.72259         1.16324       -0.934734
LJ           0.21504       -0.452052         3.12662
LJ          -1.38314        -1.51338         1.68526
LJ           -2.7144         1.99726         1.72022
LJ          0.538725        0.509968         2.58298
LJ            1.4462       -0.974218         1.70484
LJ          -5.93619         2.16158         3.35879
LJ           6.40418        -4.11827         -2.9699
LJ          -4.86293         5.31765        -1.58637
LJ         -0.705969        0.651441        0.342641
LJ          0.321085         1.65674       -0.213607
LJ           1.39484         1.09648        -1.73202
LJ           2.83425        -2.08217        -5.07245
LJ           3.85336         3.00123          5.9162
LJ          -1.96672         1.79925       -0.413312
LJ          -4.19116        -3.60613         5.65102
LJ           6.42691        0.973241         3.76051
LJ          0.634953        0.681387       -0.983944
LJ          -1.34217        -1.90202        -1.39991
LJ           4.23944          4.6177          1.5426
LJ          -5.10695        -5.83776        -4.89728
