108
#Comment!
LJ          -2.66344        -2.59551         -2.6405
LJ          -1.86565         -1.8472        -4.68502
LJ          -4.64922         -1.7787        -1.80901
LJ          -1.84328        -4.70901        -1.85619
LJ         -0.227297         -2.9148        -2.33086
LJ           1.14339        -0.72418        -3.10943
LJ          0.563165        -1.07713        -1.17046
LJ           1.12293        -2.94618       -0.649151
LJ           1.04983        -2.15087        -2.23008
LJ           1.86079        0.496679       -0.494472
LJ           5.86894          4.9186         4.90802
LJ           1.64245        -0.80103        0.598363
LJ          -1.95433        -1.08534        -2.34386
LJ         -0.385531         1.32916        -2.79488
LJ          -2.69373        0.819377       -0.707497
LJ          -1.28492        0.700637        -1.18676
LJ         -0.734629       -0.649348        -2.71329
LJ         0.0911521         0.20741       -0.578894
LJ          -1.56099        0.445677        -2.68172
LJ         0.0609037        -1.62844        -2.15896
LJ           1.94305        -1.32394        -2.97059
LJ           1.17779        -1.08692        -2.04715
LJ         -0.333413       -0.737202         -1.7339
LJ           6.29578        -3.89754        -5.03559
LJ          -2.10145         1.65119        -2.47508
LJ          0.609993         1.73715       -0.815886
LJ         -0.688856         1.98597        0.659381
LJ           4.94765         5.88671         4.94831
LJ           -1.2737         1.77477        -3.14833
LJ          -1.15421         1.38749        -1.98185
LJ          -3.89791         6.29634         -5.0357
LJ         -0.581776        0.267685        -2.11218
LJ          0.218377       0.0910902        -3.01036
LJ          0.460677          0.7345        -2.05571
LJ        -0.0251765         1.76543         -1.9095
LJ           1.34571         0.17192        -2.34763
LJ          -2.01682        -2.68849       -0.510572
LJ          -1.22259         -1.1632        0.687787
LJ          -2.89592       -0.870179        0.735955
LJ         -0.440906        -2.90373         1.18431
LJ         -0.890146         -2.7986       -0.814841
LJ          0.464935         -2.2263         -1.2515
LJ          -1.41844        -2.67952        0.329712
LJ          0.227556       -0.454892        0.379088
LJ           1.97191        -3.06108        -1.45089
LJ           6.29597        -5.03591        -3.89825
LJ         -0.389464        -1.80498       -0.780768
LJ           1.44222        -1.95022       -0.875856
LJ          -2.93939       -0.464989       -0.412633
LJ          -2.44518        0.631039        -1.75139
LJ         -0.804012      -0.0141792       0.0959828
LJ          -2.29443        -1.63709        0.364185
LJ         -0.789084       -0.594714       -0.769153
LJ          0.906848        0.860968      -0.0816451
LJ       -0.00621838          0.6381        0.687427
LJ           1.00268        0.120303        0.894679
LJ           1.01268       -0.350736       -0.298353
LJ          0.943041        0.049413        -1.30354
LJ           1.63492       -0.957715        -1.01154
LJ          0.687053        -1.49462       -0.146732
LJ          -3.24573         2.10015        -1.25778
LJ          -5.03554         6.29593        -3.89768
LJ          -2.06015         1.51427         -1.1186
LJ          -2.05301      0.00229353        -0.82725
LJ         -0.209324         1.15445       -0.200869
LJ         -0.141259        0.978806        -1.19787
LJ          -1.34483        0.975473      0.00934794
LJ         -0.809113         1.71791       -0.982648
LJ           3.37803         3.37865         2.56662
LJ           4.29899         4.29885         2.11916
LJ          -1.59487         3.37896        -6.30063
LJ           3.37844         -1.5948        -6.30091
LJ          -2.20198        -2.35642         1.28448
LJ           4.91834          4.9296         5.88244
LJ         -0.359789        0.754165         1.75242
LJ          0.647937       -0.877027         1.70863
LJ          -1.41359        -3.08432          1.9077
LJ         -0.526236        -2.16949        0.182783
LJ          -3.89827          -5.036         6.29643
LJ          -1.06309        -2.07742         1.44538
LJ          0.176157        -3.02618      -0.0345401
LJ           1.62593        -2.08209        0.261702
LJ          0.192978        -2.06038         1.67236
LJ           0.44671        -2.05761         0.61975
LJ            -3.022        -1.34784         2.08882
LJ          -1.92059        -1.00171       -0.442736
LJ          -2.04561        -1.11719         1.44113
LJ           -5.0354        -3.89747         6.29557
LJ         -0.348558       -0.224219         1.24799
LJ         -0.915855        -1.05695         1.76377
LJ          -1.34537       0.0942639         1.03718
LJ         -0.123086        -1.30809        0.952834
LJ           3.37254          2.5712          3.3729
LJ           3.37972        -6.30227        -1.59515
LJ          -1.59518        -6.30135         3.37906
LJ           4.30241         2.11127         4.30185
LJ          -2.28322      0.00638791         0.22424
LJ          -2.23952         1.64486     -0.00178641
LJ          -1.97346         1.16754        0.981726
LJ          -2.38018        0.162481         1.20761
LJ           2.56748         3.37791         3.37753
LJ          -6.29716         3.37654         -1.5956
LJ           2.11911         4.29959         4.29995
LJ          -6.29992        -1.59505          3.3788
LJ           4.22242         4.16831         4.19962
LJ           3.48517         3.45468       -0.124096
LJ         -0.152343         3.49428         3.51301
LJ           3.51166      -0.0879725          3.4204
