108
#Comment!
LJ          -3.80982         -3.7769        -3.79828
LJ          -1.01311        -1.00006        -4.36306
LJ          -4.35955        -0.97821       -0.995675
LJ         -0.998489        -4.37029        -1.00233
LJ          -1.43675        -2.13627        -2.14403
LJ          0.528921       -0.618758        -2.61819
LJ          0.488402        -1.02778        -1.04505
LJ          0.542293        -2.62955       -0.616264
LJ           1.45575        -1.99212        -2.01985
LJ           1.68289        0.246144        -0.96592
LJ          -5.39505          4.9964          4.9964
LJ           1.68256       -0.991767        0.240158
LJ          -2.13842        -1.45977        -2.14683
LJ         -0.581717        0.561496        -2.58161
LJ           -2.5855        0.553672       -0.593263
LJ          -1.02608        0.466881       -0.996953
LJ         -0.836263       -0.860399        -2.69862
LJ        -0.0635375      -0.0617602       -0.876434
LJ          -1.70389         0.38786        -2.57351
LJ          0.415536        -1.73344        -2.51635
LJ           2.28624       -0.823148        -2.48338
LJ           1.13611       -0.964301         -1.8257
LJ         -0.219141        -1.14601        -1.90308
LJ           5.59685        -3.36811        -4.31857
LJ           -2.0232         1.47165        -1.98568
LJ          0.228714         1.70621        -1.01549
LJ         -0.993304         1.69002        0.242541
LJ           4.99637        -5.39503         4.99637
LJ         -0.847695          2.2843        -2.49345
LJ          -1.00014          1.0756        -1.76436
LJ          -3.36828         5.59729        -4.31863
LJ          -1.13967       -0.206426        -1.90768
LJ        -0.0887341       -0.103114        -1.99473
LJ          0.632378        0.641225        -2.52514
LJ          0.180366         1.63313        -2.31436
LJ            1.6009        0.164062        -2.34374
LJ          -2.13056        -2.13579        -1.45815
LJ          -1.03006        -1.01406        0.492237
LJ          -2.59619       -0.619173        0.532869
LJ         -0.608378        -2.59157        0.568887
LJ         -0.834383           -2.71       -0.849245
LJ           0.37854        -2.53729        -1.71573
LJ          -1.70194        -2.58374        0.344753
LJ        -0.0850629       -0.921434      -0.0798736
LJ           2.25822        -2.47717       -0.811555
LJ           5.59697        -4.31873        -3.36856
LJ         -0.226225        -1.88411        -1.14364
LJ           1.08666        -1.80261       -0.991795
LJ          -2.70668       -0.845027       -0.835934
LJ          -2.50966        0.459541        -1.72514
LJ         -0.874113      -0.0720838      -0.0617517
LJ          -2.47529        -1.73464        0.472601
LJ           -1.3363         -1.3818        -1.33715
LJ          0.961494         1.00584       -0.540069
LJ         -0.467625        0.961708         0.94574
LJ          0.960886       -0.550333         1.00097
LJ          0.932445        -0.33898       -0.331614
LJ          0.875652       0.0205008        -1.44769
LJ           1.65091       -0.930225       -0.937021
LJ           0.86666        -1.46471     -0.00260888
LJ          -2.50853         2.32739       -0.849789
LJ          -4.31855         5.59707        -3.36816
LJ           -1.7849         1.11844       -0.962475
LJ           -1.9213       -0.220853        -1.15364
LJ         -0.320638         0.91933       -0.330683
LJ        -0.0034164        0.860956        -1.44309
LJ          -1.44427        0.849409       0.0338927
LJ          -0.92316         1.68219       -0.925624
LJ           3.12556         3.12503         2.25313
LJ            3.6116         3.61183          1.4497
LJ          -1.00194         3.09559        -5.60062
LJ           3.09524        -1.00192         -5.6008
LJ          -2.04326         -1.9676         1.44753
LJ           4.99639         4.99639        -5.39505
LJ         -0.976289        0.248833         1.68374
LJ          0.231034        -1.00921         1.70425
LJ         -0.850196        -2.48564         2.26509
LJ          -1.12423         -1.8973        -0.20583
LJ          -3.36852        -4.31884         5.59729
LJ           -1.0043        -1.77296         1.09484
LJ        -0.0827603        -2.02126      -0.0954808
LJ           1.59877        -2.32545         0.18574
LJ          0.178074        -2.33061         1.62693
LJ           0.64149        -2.51602        0.637068
LJ          -2.48117       -0.843026         2.31734
LJ          -1.90717        -1.15392       -0.231231
LJ          -1.80176        -0.94798         1.13327
LJ           -4.3185        -3.36805         5.59678
LJ         -0.306488       -0.323325        0.938478
LJ         -0.928958       -0.926705         1.68696
LJ          -1.45105       0.0544247        0.865853
LJ        0.00310137        -1.45871        0.867391
LJ           3.12447         2.25317         3.12457
LJ           3.09618        -5.60172        -1.00221
LJ          -1.00221        -5.60117         3.09572
LJ           3.61093         1.44907         3.61102
LJ           -1.9955       -0.115767       -0.111987
LJ          -2.32985         1.61676        0.140147
LJ          -2.51261        0.640379        0.633549
LJ          -2.35582        0.142432         1.59754
LJ           2.25309         3.12491         3.12549
LJ           -5.5984         3.09396        -1.00248
LJ           1.44973         3.61192         3.61181
LJ          -5.60008        -1.00209         3.09547
LJ           6.33079         6.30639         6.32224
LJ           2.69447         2.67689       -0.593905
LJ         -0.612487         2.69656         2.70719
LJ           2.70893        -0.57253         2.65674
