108
#Comment!
LJ           4.03011       -0.491454         1.26431
LJ           1.93574          2.5328        -1.84107
LJ          0.394609         -2.2533          1.0945
LJ          -1.89896        0.679814        -1.15822
LJ         -0.119166        0.176207          3.7097
LJ         -0.117368       -0.378642        -2.60639
LJ           1.26502        0.781437        -1.45851
LJ          0.661956        -1.31027        -2.25245
LJ           1.37627       -0.636764         2.43442
LJ          0.409736       -0.997393         2.16958
LJ         0.0927366         1.77877         2.12631
LJ          0.931127        0.884638         1.61944
LJ          -2.19359        -1.32858        -1.00674
LJ            3.4773         1.61405        0.172081
LJ          -1.75766        -2.08078        0.291531
LJ          -1.47525        -1.11096         0.84098
LJ          -2.22761       -0.922214        -3.22568
LJ          0.651985       -0.197224         0.56659
LJ          0.280469         4.06166         4.93097
LJ          -0.68725       -0.846743        -1.35255
LJ           0.65112       -0.335822         4.76305
LJ          0.842009          1.7655       -0.717758
LJ           3.41966         0.89793       -0.918673
LJ          -4.95873        0.159105        -3.33851
LJ           3.20063        -6.25931          5.4142
LJ       -0.00720489         1.27692        -1.17189
LJ          -2.92673        -2.10362        -2.50048
LJ           5.11146        -6.42841        -1.15561
LJ           2.46139         1.12206         1.45424
LJ         -0.577851        -1.17838        0.205307
LJ         -0.461216        -2.20279         2.33957
LJ           5.74626         4.13654        -4.12821
LJ         -0.229754        -4.74547       -0.285983
LJ           1.38099         0.45065        -2.65337
LJ        -0.0140364        0.660557        0.852807
LJ             3.021       -0.362966        -1.48157
LJ            1.3387       -0.848463       0.0990317
LJ         0.0867688        -1.96607       -0.710286
LJ         -0.566157       0.0699763        0.149381
LJ           2.35099        0.758122         -1.2162
LJ          0.997639         1.88539        0.348929
LJ         -0.495903       -0.431312         2.43829
LJ          -1.49098        -1.22728        -2.66654
LJ          -1.49367        -0.34749       -0.498085
LJ           2.85871        -1.01529         1.29655
LJ          -4.18578        -4.50822        -5.83038
LJ           2.38299       -0.219707         1.71632
LJ           3.05767       -0.187565        0.616321
LJ          -1.91849       -0.571857        -1.77522
LJ          -1.10943         0.43332         1.74323
LJ          0.782019         1.14885         2.66779
LJ         -0.455475         1.18449        -2.12404
LJ           5.07864        -4.33087        -1.74131
LJ          0.419977         1.64178         1.07763
LJ          0.891682       -0.187048         1.59861
LJ           3.31264        0.867712        0.903233
LJ           1.07203       0.0455398       -0.480187
LJ           1.15709        -1.11139        -0.93929
LJ          0.252633       -0.700141         3.33114
LJ           4.13093       -0.678321        0.207871
LJ           1.48938          1.0268       -0.136549
LJ         -0.955466         4.80564        -4.34967
LJ           2.38281         -1.2597         2.60731
LJ          -1.55549        0.416241        -2.72669
LJ           1.83597       -0.129866        0.874337
LJ          0.391712       -0.634039        -1.41156
LJ          0.608748        -1.73863         2.84921
LJ           2.50501         1.00367       -0.102038
LJ         -0.307689        -5.95926        -2.35025
LJ         -0.108991        0.805749         1.94255
LJ          -1.34576        0.672691         6.36508
LJ           2.75265           1.568         2.45492
LJ         -0.165914       -0.328936         1.31166
LJ           1.60767         1.04448        0.907505
LJ          -1.43472          0.0319        0.733885
LJ           1.60302        0.351412         3.28841
LJ          0.417637        -1.18374         1.06475
LJ          0.428387        0.760266       -0.119744
LJ          0.704738         1.47129         5.07015
LJ           1.24724        -2.50091         1.70539
LJ           1.78579       -0.210081        -1.54858
LJ           0.19549       -0.637578       -0.331553
LJ             1.821        0.599398         2.14022
LJ           1.54095       -0.922231         1.42776
LJ           1.57632         1.72768         1.96544
LJ         -0.898238        0.999708       -0.684946
LJ         -0.777467        -2.55559        0.985853
LJ          0.200955         0.33706        -1.94309
LJ          0.368667       0.0947579         2.50343
LJ          -0.66562        -1.30857         1.49286
LJ         -0.208041         1.58399       0.0911612
LJ          0.187517         3.72181         1.24816
LJ         -0.702503         1.11743         3.25098
LJ          -1.38008        -1.64507         -1.7188
LJ          -1.06213        -1.93751       -0.498081
LJ           0.93149         1.29832        -2.42273
LJ         -0.312565        0.138144       -0.833518
LJ         -0.412075         2.63576        0.867198
LJ           2.25007        -3.48322         1.24349
LJ           5.44595         1.38818        -5.63941
LJ           1.64571         5.18409        0.253729
LJ         -0.855854        0.234199        -1.77531
LJ          0.676603         3.96603        0.403058
LJ          -2.95778        -1.14001        -4.46232
LJ           1.83156         2.76877       -0.823962
LJ          0.227622        -3.72484        -0.55329
LJ          0.815264        -1.75306       0.0473755
LJ          -5.34422        -4.60221         1.51743
