108
#Comment!
LJ           4.10329       -0.338332         1.29636
LJ           1.20252          2.6007        -1.90552
LJ          0.551625        -1.94466         1.52152
LJ          -1.35998        0.933407        -1.55267
LJ         0.0772167        0.394175         3.87099
LJ         -0.413555         -1.2453        -2.11302
LJ          0.976848        0.629303        -1.40747
LJ          0.690182        -1.05188        -2.26914
LJ           1.47889         -0.8315         2.34622
LJ          0.542719       -0.743136         1.82643
LJ         -0.121593         2.08488         2.50309
LJ          0.731982        0.885444         1.34594
LJ          -1.80051       -0.897428       -0.869877
LJ           3.06166         1.97321        0.286398
LJ          -1.41679        -2.41885        0.225458
LJ          -1.31649        -1.33819        0.507361
LJ          -2.70234       -0.205157        -3.24923
LJ          0.831833        0.291208         0.37862
LJ          0.216968         4.16846         5.36336
LJ         -0.848466       -0.692439        -1.26302
LJ          0.255974       -0.353202         5.14934
LJ           1.31778         1.74905        -1.14044
LJ           3.73617        0.806364        -0.90283
LJ           -4.8015       -0.166043         -2.8833
LJ           2.83602        -5.43782         5.44318
LJ        -0.0264619         1.23357        -1.38263
LJ           -2.8607        -1.81915        -2.22708
LJ           4.10558         6.40288        -1.21927
LJ           2.47624         1.89401         1.36074
LJ         -0.206585        -1.55028        0.667531
LJ         -0.817954        -2.22147         2.28737
LJ           5.40231         3.81497        -4.77532
LJ         -0.233435        -4.78517       -0.419794
LJ           1.18458        0.129909        -2.52898
LJ        -0.0975172        0.989586        0.530978
LJ           2.76932         0.15531        -1.29931
LJ            1.6843        -1.06215        0.448166
LJ         0.0684852        -1.76763       -0.412283
LJ         -0.271208        0.112065       0.0793334
LJ           2.12539         1.08738        -1.47263
LJ          0.943405         1.65014        0.424342
LJ         -0.682972       -0.615852         2.17696
LJ          -1.09316        -1.75319        -3.03346
LJ          -1.09073       -0.345207        -0.31253
LJ           3.35276        -1.35164         1.72084
LJ          -4.62076        -4.53504        -5.55739
LJ           2.31012       -0.490424         1.78612
LJ           3.22466       -0.679231         0.73622
LJ          -1.44906       -0.836864        -2.46842
LJ          -1.22431         0.30321         2.13008
LJ           1.05831         1.03656         2.43222
LJ         -0.498611         1.29171        -2.28762
LJ            4.6036        -4.52412        -1.88146
LJ          0.157865         1.89325         1.13299
LJ           1.31897       -0.247557         1.44455
LJ           3.79995        0.567864        0.789729
LJ           1.26893       -0.326718       -0.581875
LJ           1.15037        -1.34198       -0.898749
LJ         0.0186091        -1.09125         2.76622
LJ           4.33456       -0.785535        0.264681
LJ           1.58316        0.891898        -0.49149
LJ          -1.52716         4.95175        -4.41946
LJ           2.61836        -1.16478         2.72974
LJ          -1.94208        0.683127         -2.8831
LJ           2.05834        -0.03945         0.67792
LJ          0.484022       -0.326287        -1.31569
LJ          0.477176        -1.94691         2.51828
LJ           2.71867         1.18758       -0.400314
LJ        -0.0790844          6.1606        -2.33344
LJ         -0.145469        0.739533          2.2371
LJ          -1.02625        0.716425         6.35568
LJ           2.40373         1.87789         2.75688
LJ         -0.362943       -0.199367         1.05108
LJ           1.82614        0.918204        0.547402
LJ          -1.48768       -0.445133         1.31587
LJ           1.52063       0.0968799          3.2326
LJ           0.64967       -0.797393        0.799548
LJ          0.436964        0.818828       -0.502807
LJ          0.770059         1.06908         4.99288
LJ           1.61652        -2.14072         2.22387
LJ           1.74558       -0.173155        -1.45923
LJ          0.228193       -0.716931       -0.243446
LJ           1.77688        0.715431         1.73653
LJ           1.47228        -1.45364         1.39464
LJ           1.37762         1.82764         1.50263
LJ         -0.839455         1.21982       -0.725463
LJ         -0.598044        -2.50127         1.22216
LJ          0.193609        0.475685        -2.35761
LJ           0.57143       -0.118624         2.65554
LJ         -0.688725        -1.49044         1.58151
LJ         -0.112467         1.78174       -0.115161
LJ          -0.20174         3.80778        0.913189
LJ         -0.757945         1.14879          3.4951
LJ          -1.42201        -1.94823        -1.81787
LJ         -0.985215        -1.77241       -0.531931
LJ          0.639277         1.75826        -2.01748
LJ         -0.459545        0.206337        -1.05122
LJ         -0.361433         2.81164         1.71814
LJ           1.86032        -3.96573          1.6325
LJ           5.57795         1.55112        -5.66485
LJ           1.28913         5.02006        0.491471
LJ         -0.670338      -0.0180022        -2.06392
LJ          0.841527         4.00088       -0.275308
LJ          -3.18634        -0.99932        -4.68543
LJ           1.50618         2.88793       -0.395459
LJ          0.307664         -3.4506         0.19244
LJ          0.878728         -2.1404        0.451283
LJ          -4.42145        -4.33701         1.78655
