108
#Comment!
LJ           1.58142       -0.863078         1.19112
LJ           2.95668        -1.45424          1.8354
LJ          -1.38018        -0.29857         2.88623
LJ          -2.99855         2.74542         1.84282
LJ           2.94754        -1.63431       0.0548073
LJ           1.85327         1.07869        -1.76009
LJ           2.12106        0.452726         1.49184
LJ           2.54511        0.187724        -1.02985
LJ           1.68114        -1.98839        0.449911
LJ           2.15954        -1.36505       -0.577379
LJ          -1.54351         3.53556        0.598086
LJ           1.36704         1.01814         2.72438
LJ         -0.632527        -2.25007        0.108826
LJ           3.21895       -0.761183       -0.492413
LJ         -0.663516         1.06586         3.48964
LJ          -0.32864        0.999351          1.8114
LJ          0.884429        -1.18351        -2.36134
LJ          0.679345         1.00537        0.274145
LJ         -0.697468         1.84808         2.25665
LJ         -0.695299       -0.720821       -0.416736
LJ           1.09671        -3.91641        0.526325
LJ           1.41006        0.650742       -0.349817
LJ            1.6749       -0.139886         -1.9175
LJ           5.57645          4.5696         2.67938
LJ          -4.05215        -5.09504         5.47852
LJ          -1.77464         3.36284       -0.741456
LJ          -3.38386         5.66283       -0.513011
LJ          -1.01003        -6.35156         4.63933
LJ          0.401276         1.94607         1.90795
LJ          -3.58787        0.638295         1.49803
LJ         -0.830176        0.691444        0.912946
LJ          -1.95089        -3.86984         5.36858
LJ         -0.259658        -1.13399        -1.35562
LJ           1.03285        -1.38323        -1.26832
LJ         -0.965255         2.69929        0.157429
LJ          0.384171        -1.59841       -0.445438
LJ         -0.745492        -1.90687        -1.06659
LJ          0.116465      -0.0937847        -2.01265
LJ          -1.93194        0.451045         1.97522
LJ           2.34846        0.946114       -0.303758
LJ           1.68687          1.3173         0.53322
LJ           1.06376        -2.83035        0.257233
LJ          -1.84585       -0.765888       -0.647267
LJ          -1.12833        -1.30163        0.276034
LJ           1.17264     -0.00851485         1.80056
LJ           2.18115        -3.94232         2.96139
LJ           1.30181        -2.06824       -0.540856
LJ           2.29575       0.0151095        0.386798
LJ          -1.23805     -0.00863331        0.259964
LJ          -1.75197         1.74119         1.95038
LJ          -2.11617        0.468138         3.34677
LJ          -1.51516        0.692177       -0.605015
LJ          -1.25578        -2.55848        0.980769
LJ          -1.35341         2.50666        -1.53494
LJ           1.03728         1.02313         1.47447
LJ           2.39615          1.6383         1.75777
LJ           1.33813       -0.660694        0.170612
LJ          -0.48314        0.209755        -1.15338
LJ           2.43177        -2.40896       -0.509187
LJ           3.35306        0.709973       -0.494903
LJ         -0.759665         1.32875        -1.24179
LJ          -5.49364         2.56044        -3.18451
LJ         -0.900791       -0.528468         1.08511
LJ          -1.25069       -0.523087        -1.49872
LJ         0.0828893         1.94357       -0.274509
LJ          0.579071         1.64733        -1.81538
LJ          0.586771       -0.868513         2.69661
LJ          0.983898         2.23881         0.30846
LJ          -4.94071        -5.72501         5.79726
LJ           -0.8733         1.74327         1.17025
LJ          -4.93973        -2.50959         5.66235
LJ           2.42602       -0.658254         2.21375
LJ           1.24707        0.233067        0.786567
LJ          0.131903         1.83493         0.91268
LJ          -2.36695         1.29959         2.91081
LJ         -0.286407       -0.134636         3.37148
LJ         0.0190098        -1.00414         0.52911
LJ        -0.0690448       0.0474983       0.0620173
LJ           1.17148        -5.99421          5.7887
LJ          0.413197        -2.09501        0.707025
LJ          0.275264         1.09369       -0.772013
LJ           0.46046       -0.416695       -0.895682
LJ          -0.13027       -0.699108         2.00259
LJ          0.111542        0.215233         1.23517
LJ          0.206323          1.2721         2.86976
LJ          -1.82838         1.36268        0.860896
LJ            1.1451       0.0946343         3.16565
LJ           1.89414         2.27102        -1.68316
LJ           0.31321        0.262981         2.37403
LJ         -0.610362         -1.0781         2.88232
LJ          -2.41468         2.50772        0.946289
LJ          0.242947          2.5199         2.88365
LJ          0.916842        -1.83903         1.68005
LJ            2.9213         5.53699       0.0489486
LJ          -4.74455         4.47568         4.26906
LJ          -1.25428        -4.81121       -0.308031
LJ         -0.502433         1.16325      -0.0143115
LJ           1.27016         1.80532       -0.880071
LJ           1.59076       -0.423342       -0.945585
LJ           3.77322       -0.860851        -5.25501
LJ           2.89065         2.62764         1.35499
LJ          -1.46253         1.73767       -0.224474
LJ           4.43414        -0.30075          2.3606
LJ          -4.32976       -0.112414         4.84011
LJ          0.995899        0.433941        -1.38162
LJ          0.507491        -2.33177        -1.58061
LJ         -0.964094       -0.738464         5.49054
LJ          -1.18094         4.54327          5.4208
