108
#Comment!
LJ         -0.759013        -2.00519       -0.166559
LJ          -5.49015          5.0232        -1.60123
LJ           1.72882         3.67149        -2.81728
LJ           2.08944         2.86362         -3.4097
LJ           1.27896        -1.65405        -1.06605
LJ           0.16269         2.53954       -0.167043
LJ           1.11173        -1.81313         0.20573
LJ           0.60517        -2.71037        0.810443
LJ           1.41597        -2.67923       -0.428362
LJ           1.54989       -0.111682       -0.583947
LJ           1.50114         1.62127         0.67981
LJ           1.11918       -0.845836          1.9497
LJ          -1.27108       -0.778797        -1.76323
LJ          0.416033         1.53867        -1.90231
LJ         -0.243078         2.04978        0.695029
LJ         -0.229652         3.18814        0.915223
LJ          -1.22636         1.18684       -0.918143
LJ       -0.00491951       0.0282271        0.760249
LJ         -0.780833         3.30003        -0.20985
LJ         0.0365093       -0.599018        -1.42841
LJ           1.13441       -0.632852        -1.35256
LJ          0.197141         -1.1116       -0.250403
LJ          -1.09634        0.101022        -2.29667
LJ          0.730477         4.18827         3.98671
LJ          -2.96848         6.21993       -0.198169
LJ          -0.55653         2.17963        -1.96826
LJ          0.659695         2.29791        -2.61732
LJ           4.50008         1.64569         1.17016
LJ          0.582345            3.77       -0.612265
LJ           1.84088         5.50239        -1.58417
LJ          -1.74031        0.371452         1.35002
LJ          0.336466        0.543133        -2.39593
LJ         -0.254431        0.628057        -3.30483
LJ          0.918897         0.72787        -1.19469
LJ          0.254867         1.11527        0.465885
LJ         -0.308461        0.712977        -1.33872
LJ          -1.21509         -2.7348        -0.80793
LJ          -3.12016       -0.341506       -0.168855
LJ          -1.21883         1.34192        0.225983
LJ          0.957152        -1.90035         1.45794
LJ          -0.62043       -0.953731        0.566899
LJ         -0.534599        -2.90963        0.390457
LJ          -1.60514        -1.58933        0.326243
LJ         -0.810938       -0.391911         1.52735
LJ         -0.160125        -3.80716        0.948355
LJ          -5.83464        -5.01517         0.35288
LJ          0.284515        -2.41525       -0.102135
LJ           1.75441        -2.50746        0.737634
LJ         -0.573993        -0.36835       -0.307205
LJ         -0.960977         2.30015       -0.611565
LJ          0.332812       0.0179292         1.77449
LJ          -1.67839        0.587221       -0.332306
LJ         -0.130862        -1.56204        -1.14461
LJ          0.156804         1.49642       -0.746217
LJ           0.97538        0.392361        0.425518
LJ           1.67326       -0.671865         1.10166
LJ           1.03043       -0.706296        0.101921
LJ          0.364216       0.0698034        -0.57366
LJ           2.35088       0.0933012        -1.36534
LJ           2.85588        0.291374       -0.249361
LJ          -1.18926        0.148902         -1.1171
LJ          -6.39726         3.50156         1.46909
LJ          -2.15639         1.78879       -0.484251
LJ          -1.31035        -1.20029       -0.652603
LJ         -0.196401         1.81426         1.72084
LJ         -0.475242        0.620085       -0.305524
LJ         -0.634876        0.930954         1.12112
LJ            1.8481         2.46194      -0.0854243
LJ           2.81303         6.31276        -6.41425
LJ          0.753951         1.12947         1.57546
LJ          -3.86479        -1.30131         6.03448
LJ           -1.8002         5.30975        -5.45256
LJ         -0.109445         -1.8161        0.818186
LJ           1.44707         1.09202       -0.346446
LJ         -0.860936        0.997311         2.07909
LJ         0.0846004        0.762879          2.4791
LJ          -1.20849        -3.39861         1.12276
LJ          -1.03823         -1.8825         1.13692
LJ           1.34531         1.92845         5.32038
LJ          -5.43806         -1.8601         2.27671
LJ          0.510028       -0.950675         1.06107
LJ           2.33025        -1.73543       -0.468251
LJ         -0.431114        -2.76256         1.51771
LJ          -0.21661        -1.29301         1.82838
LJ          -2.43343        0.137591        0.557939
LJ          -1.10364       0.0801759        0.612913
LJ           0.79298        -3.19329         1.73297
LJ          -2.58069         2.87786         2.77852
LJ           1.23688       -0.298664         3.32291
LJ           -1.3408        -1.30408         1.95903
LJ          -1.35088         2.33571        0.374773
LJ          0.408177        -1.12795         3.08655
LJ          0.362781        -2.21123         2.29319
LJ           -2.4145         -4.4998         6.08748
LJ            5.7609        -5.10333       -0.223849
LJ           6.38636         2.85922        -3.98162
LJ          -2.00682        -0.59403         1.19965
LJ            0.6823         2.65417        0.680126
LJ           1.57796         3.81533        0.546065
LJ           2.49646        -2.91611       -0.322105
LJ           5.13934         3.51469        -0.56826
LJ          -4.82672         1.10629        -2.58897
LJ         -0.535519         5.67049       -0.763343
LJ           5.74106         5.58767         2.55223
LJ           2.10857        0.878082         1.60054
LJ          -1.91974       -0.604614       -0.114803
LJ          -1.12912          5.8863        -4.24462
LJ          -2.83262        -1.69418         5.63671
