108
#Comment!
LJ          0.657145        -1.37751        0.120557
LJ           3.60328       -0.791474         3.66363
LJ          -2.51556        0.941282        0.589719
LJ         -0.679356         -6.1481       -0.901911
LJ           1.59669        -2.09681      -0.0447309
LJ           1.02178         1.88757        -1.12362
LJ           1.86605      -0.0439289         1.38144
LJ           2.80249       -0.626017        0.989054
LJ           2.16681        -1.49422         1.21411
LJ          0.904993       -0.460596        -2.18068
LJ          -1.15859         2.79248       0.0320436
LJ           2.40104        0.930742         2.10046
LJ         -0.583361        -2.57131         -1.0187
LJ           2.44537       -0.661593        -1.51972
LJ          -2.48761        0.914837          3.3261
LJ           0.68182         2.46746         1.50376
LJ           0.52772        0.562828        -1.95257
LJ         -0.398786       -0.144781        0.267589
LJ         -0.846244         1.54335         1.47785
LJ         -0.694586       -0.995748       -0.585764
LJ          0.797043        -2.07485       -0.904093
LJ           1.42716       0.0643216      -0.0220583
LJ          0.674259         1.55627        -2.21599
LJ           3.51211         5.65872       -0.905927
LJ           1.10551         2.60138        -5.51204
LJ          -1.88427         3.28811        0.640684
LJ           -3.1685          3.6509        0.370456
LJ           -3.6194         4.44673        -4.38622
LJ           1.85346         1.97799         2.00847
LJ           6.12364         3.66796         4.75542
LJ         -0.918026        0.381776         1.68078
LJ          0.673767        -1.42098        -2.72368
LJ         -0.019814       -0.477465        -1.39315
LJ          0.960616        -1.14569        -1.30568
LJ          -1.24326         1.77413        0.509411
LJ        -0.0463694        -1.59418        -1.34385
LJ         -0.532104        -2.01466         -0.1374
LJ         -0.129552         1.49817        -1.49789
LJ          -1.85523         1.19628         1.49284
LJ           2.00668        0.827237        0.717009
LJ            1.5181        -0.84266        0.551639
LJ           1.23698        -2.08855         1.20345
LJ           -1.8984        -1.44017        0.616684
LJ          -1.03074       -0.639162         1.26263
LJ          0.542538        -1.32359          2.2221
LJ           4.84131        -2.77086        0.352817
LJ          0.404665        -2.54801       0.0562213
LJ           2.65108       -0.598893       -0.401174
LJ          -1.43588       -0.401264       -0.165234
LJ          -2.29107         2.24739        0.703303
LJ         -0.414448       -0.789248         2.15658
LJ          -1.49828        0.683964       -0.448595
LJ         -0.379761        -3.40635       -0.247552
LJ         -0.685232         1.46514       -0.465222
LJ           1.15689         1.57532        0.971033
LJ           1.66647         1.20645       -0.564925
LJ           1.68723        -1.01053       -0.581808
LJ          0.521247        -0.43795       -0.458444
LJ           1.84742         -1.6313        -1.77729
LJ           2.75264       -0.832522        -2.66914
LJ          -1.04312       -0.202546        -1.33177
LJ           -1.0674         1.29639        -2.24683
LJ          -2.37077        0.202678       -0.265677
LJ          -2.04536        -1.11405        -1.54367
LJ        -0.0887263         2.01072        0.859528
LJ         -0.420508        0.322363       -0.607148
LJ         -0.905028         1.04546         2.88742
LJ           1.04199         2.48735        0.492922
LJ           5.22316        -5.11311         1.11841
LJ         0.0358362        0.704945         1.25051
LJ          -4.32584         1.85238         5.29336
LJ           3.13647        0.818138         2.89339
LJ          0.740897       0.0105289         0.87294
LJ         -0.585615         2.97104        0.897083
LJ          -1.73921         2.25486         1.59885
LJ        -0.0562414          1.8975         3.56881
LJ          0.210635         -2.0291         1.65001
LJ         -0.477205        -1.71468        0.893058
LJ           2.05225        -2.82206        -6.10062
LJ           2.46625        -1.62442         2.58162
LJ           0.45709        0.782336        0.172894
LJ           1.34269        -0.17936        -1.21224
LJ           0.42747       -0.914113         1.15694
LJ           1.29634        0.711281         2.03657
LJ         -0.352923         2.44224         1.86857
LJ          -1.63775        0.269744        0.648077
LJ       -0.00175542         1.33754         2.26785
LJ           2.41787         1.30717        -1.22348
LJ          0.209964       -0.239565         2.77875
LJ           -1.1196        -1.64358         1.74764
LJ          -2.87656         2.08016         1.90965
LJ          0.667248        0.813156          2.9215
LJ            1.3344       -0.982097         1.64245
LJ          -6.19808         2.41674         3.20875
LJ          -6.40478        -4.42015        -3.37039
LJ          -4.73331         5.41244         -1.5402
LJ         -0.693223        0.840452        0.397316
LJ          0.426567         1.86425       -0.231793
LJ           1.49845        0.730078        -1.70532
LJ           2.94076        -1.96199        -5.04917
LJ           3.80641         2.99838         5.61761
LJ          -1.84332         2.00721       -0.505074
LJ          -4.49671        -3.37741         5.41622
LJ          -6.33451        0.822549         3.87943
LJ          0.607453        0.905272        -0.79389
LJ          -1.44442          -2.058        -1.65898
LJ           3.87156         5.14462         1.82879
LJ          -4.70804         -5.8817        -4.13691
