108
#Comment!
LJ         0.0184066        -1.66484      -0.0167915
LJ           6.20826         3.08894        -5.08148
LJ          -1.42094          2.6039       -0.176568
LJ          0.509513       -0.832908        -3.88224
LJ          0.886562        -1.94593       -0.637363
LJ           0.48849         1.80313        -1.19446
LJ           1.42466        -1.80841        0.466586
LJ           1.42203        -1.71983         1.90228
LJ           2.19546        -2.52172        0.322806
LJ           1.69606         0.39016        -1.33483
LJ        -0.0265044         2.14653      -0.0898428
LJ           1.49712      -0.0547424          1.1424
LJ         -0.118969       -0.487299        -1.99892
LJ           1.92706       -0.680112        -1.62887
LJ         -0.873357         1.07066          1.5698
LJ         -0.845001         3.80517          1.5749
LJ          -1.07531        0.776707        -1.89317
LJ         -0.297042       -0.737069        0.509395
LJ          0.220221         2.52665         1.22149
LJ        -0.0580578       -0.942199       -0.805878
LJ          0.777034        -2.06594        -1.89607
LJ          0.746536       -0.916838      -0.0572268
LJ          -1.08667         1.30652        -2.82881
LJ          0.550976         5.98872        -4.64428
LJ           6.31225        -3.06974        -2.10299
LJ        -0.0657222         2.70266        -1.61419
LJ          -2.09053         2.54615        -1.14854
LJ           6.32919         2.47536        -1.11946
LJ            1.9973         3.30343        0.560914
LJ           3.14684        -6.21868        -3.00354
LJ          -1.54794         1.12655          2.3465
LJ          0.914836       0.0198855         -1.8747
LJ          0.141521        0.850423        -2.14322
LJ            0.9112        -1.12567        -1.31343
LJ         -0.312731        0.336867        0.814009
LJ         -0.109302        0.239815        -1.28268
LJ          -1.26533        -1.77935       -0.858041
LJ          -1.99309        0.369402        -1.83361
LJ         -0.929187         1.12525        0.392729
LJ           1.83775       -0.654369        0.383373
LJ         -0.509985        -1.72714         1.06924
LJ         -0.655475        -2.67813         1.90178
LJ          -2.13449        -1.18438       -0.621787
LJ          -1.18515       -0.885458         1.16086
LJ          0.427037        -1.77486         1.62347
LJ           6.10516         2.77348        0.651092
LJ          0.676521        -2.89727       -0.167979
LJ           2.45185        -1.49256        0.656157
LJ          -1.01288       -0.729622       -0.421888
LJ         -0.917115         2.10423        -1.21088
LJ         0.0270107       -0.777347         1.48986
LJ          -1.28158        0.651735       -0.803199
LJ         -0.163863        -2.05926        -1.01908
LJ         -0.324888         1.27572       -0.732331
LJ          0.919312         1.10006        0.691135
LJ           1.90398        0.211662       -0.261712
LJ           1.68985       -0.907366       -0.643097
LJ          0.731239       -0.208168        -0.78049
LJ           1.84643        -1.68795        -2.19628
LJ           2.68914       0.0379256        -1.16219
LJ          -1.25996       -0.355372        -1.54121
LJ          -4.27992         1.75404       -0.656423
LJ          -1.76603         1.48561         1.07389
LJ          -2.76858       -0.631425         -1.6775
LJ         -0.173014          1.6818         2.46845
LJ         -0.283936        0.132168       -0.194172
LJ         -0.335558        0.331558         1.92518
LJ           1.15454         2.52173        0.505771
LJ           2.48183        -6.35961        -4.20282
LJ          0.697722        0.489624         1.54222
LJ          -3.23674        -4.95937          5.4059
LJ            -4.746         3.48363         5.74762
LJ          0.863237        -1.11731        0.986205
LJ          0.981406         1.60798       -0.320451
LJ           -2.4673        0.395378         2.26609
LJ         -0.290667        0.775127         3.16795
LJ          -1.54274        -2.25711          1.6539
LJ          -1.22895        -1.55998        0.295278
LJ            1.7029        0.124047         6.01869
LJ           5.20645        -1.39044         2.46918
LJ           0.62241      -0.0267828        0.537008
LJ           2.72602       -0.791645      -0.0675014
LJ         -0.421754        -1.49782         2.33681
LJ            1.0535       -0.627458         1.94889
LJ           -2.6622          1.8503         2.02339
LJ          -1.65893        0.269808         1.58164
LJ             1.785       -0.374671         2.85464
LJ          0.587839         4.30384        0.728883
LJ         0.0862983       -0.474806         2.50904
LJ          -1.03018       -0.375091          2.6656
LJ          -1.04162         2.40786        0.855755
LJ          0.793433        0.387836         2.58746
LJ          0.248519        -2.61372         2.45836
LJ          -4.54477        -1.97622         5.32766
LJ           6.03415        -3.88652       -0.981312
LJ          -6.34659         3.82509        -2.58436
LJ          -1.24807       -0.108823        0.410573
LJ        -0.0338542         1.46402        0.929203
LJ          0.867171          3.1655         1.60449
LJ           2.94583          -2.261        -2.33721
LJ           4.69021         3.22821        -3.33755
LJ          -3.34599        0.203523        -1.50347
LJ         -0.271612         6.36592        -4.24805
LJ           6.00732         3.77229         2.29893
LJ           1.95082          1.2046       -0.602258
LJ           -2.0065       -0.110476       -0.745438
LJ          -4.22401        -2.26284        -1.98919
LJ           2.71969        -5.27222        -1.70112
