108
#Comment!
LJ           -2.0787        -1.16745       -0.634845
LJ           -4.1979        -4.14555        -5.01601
LJ          -4.87795         -3.9403         -4.0196
LJ          -4.11723        -5.09995        -4.16574
LJ           1.17324           -3.08        -2.19108
LJ         -0.525475        -0.21228        -2.84678
LJ           1.06435        -2.04322        -1.21669
LJ           1.18253         -2.8249       -0.301198
LJ         -0.046031        -1.69227        -1.79111
LJ           1.70061       0.0347279       -0.646525
LJ           4.49035          3.5541         3.56154
LJ           1.70414        -1.09586         1.40551
LJ          -1.58785       -0.855852         -2.6314
LJ         -0.091725         2.42006        -2.66408
LJ          -2.26938        0.844183        0.775128
LJ          -1.24831         1.95157       -0.924723
LJ          -1.31952       0.0794282        -2.08383
LJ           0.38596        0.295361        0.181021
LJ          -1.27732        0.599495        -3.12941
LJ          -1.13392       -0.919866        -1.60077
LJ           1.07862        -1.95729        -2.24614
LJ           1.15779       -0.952488        -1.53361
LJ         0.0850708       -0.461947        -1.55143
LJ           5.61339        -3.22561         6.37695
LJ          -1.11577         1.23522        -4.66203
LJ          0.517987         1.61215        -1.04587
LJ         -0.185729         2.16649       -0.590109
LJ           4.34535        -4.83499         4.51794
LJ         -0.633525         1.57833         -2.7364
LJ           -1.1636         2.25275        -1.98182
LJ          -3.19645         5.57921         6.37553
LJ         -0.426563        0.454218        -1.81114
LJ         -0.377007        0.785928        -3.72373
LJ           0.50969          1.1083        -1.98944
LJ         -0.419607         1.56558        -1.62602
LJ          0.832211       -0.293861        -2.32659
LJ          -0.85569         -2.4477       -0.312185
LJ          -1.69176       -0.888873         1.35951
LJ          -2.35037      -0.0901867         1.74291
LJ          0.436003        -2.40087        0.868625
LJ          -1.03228        -1.24176       -0.444247
LJ          0.264247        -2.64303         -1.3565
LJ         -0.659585        -2.42781        0.994652
LJ         0.0142993       -0.696006       0.0636174
LJ          0.985342        -3.66442        -1.04986
LJ           5.76531          6.2279        -3.20155
LJ        -0.0278393        -1.63805       -0.706484
LJ           1.97856        -1.03036       -0.864659
LJ           -1.0585        0.885571       -0.916347
LJ          -1.42364         1.23291        -1.95911
LJ         -0.250265       -0.183142         1.14041
LJ          -1.58029        -1.72442        0.287608
LJ         -0.678095        -0.23374       -0.719717
LJ           1.25438        0.989807       -0.623944
LJ          0.785443        0.424362         1.12525
LJ            1.0332       -0.513412        0.678649
LJ          0.733264        -0.69895       -0.594272
LJ           0.89266        0.348672        -1.42628
LJ           2.02882      -0.0422409        -1.60643
LJ          0.778377         -1.6222       -0.118142
LJ          -2.99536       -0.636118       -0.911843
LJ           6.40261         5.54268        -4.37775
LJ          -2.11308           1.584        -1.16902
LJ          -2.10618        0.212618        -1.42042
LJ           0.55876         1.29917        0.513641
LJ         0.0864667        0.762539       -0.866284
LJ         -0.683306          0.4931        0.135356
LJ         -0.668775         1.60811        0.233769
LJ            3.5503          4.8569         1.56747
LJ           4.77041          4.5411          3.2592
LJ          -3.20898         3.90396         4.98122
LJ            3.8861        -3.25307         4.96428
LJ          -1.50902        -2.80147        0.482383
LJ           3.50196         3.01088         4.29129
LJ          -0.63138        0.995264         2.15842
LJ          0.653689       -0.542617         1.95711
LJ          -1.01821        -3.43158          1.3261
LJ         -0.786421        -1.39069         1.12248
LJ          -3.18122         6.37896         5.62623
LJ          -2.01458        -1.95614         1.22818
LJ         -0.314319        -1.68609        0.311625
LJ           1.45309        -2.04801        0.757753
LJ        -0.0274522        -2.11491         2.28125
LJ          0.336589        -1.39404         1.16425
LJ          -2.20266       -0.206273        0.347454
LJ          -1.16681       -0.587437        0.429875
LJ          -2.61702        -2.77128         1.02708
LJ           6.38838        -3.20279         5.61588
LJ          -1.08952      -0.0764772         1.92274
LJ          -1.08052        -1.91996         2.00084
LJ         -0.388961          1.0042         1.02742
LJ         -0.348544       -0.827649         1.89616
LJ           1.59499        -1.21578         3.03749
LJ           3.86884         4.97951        -3.24602
LJ          -3.22648          4.9747         3.89478
LJ           5.41476         2.69811         5.69189
LJ          -1.28929        0.479026        0.980045
LJ          -1.75955         1.12249       -0.236034
LJ          -1.11576         2.64623         0.41593
LJ          -2.98295        -1.65266        0.865413
LJ           2.04177         5.03989         4.56121
LJ           5.04159         3.95401         -3.1232
LJ           3.02049         4.39664         4.85738
LJ           4.97391         -3.2093         3.90801
LJ           3.58817         3.97887         3.46275
LJ          -5.77176        -6.35311        -2.37009
LJ          -2.68865        -6.39726        -6.13856
LJ          -4.57614        -2.48702        -5.84883
