108
#Comment!
LJ          -3.22941        -3.22941        -3.22941
LJ          -2.15418        -2.15418        -3.22729
LJ          -3.22729        -2.15418        -2.15418
LJ          -2.15418        -3.22729        -2.15418
LJ           -1.0772        -3.22834        -3.22834
LJ      -2.20092e-05        -2.15417        -3.22725
LJ          -1.07719         -2.1541         -2.1541
LJ      -2.20092e-05        -3.22725        -2.15417
LJ           1.07701        -3.22837        -3.22837
LJ           2.15115        -2.15422        -3.22837
LJ            1.0769        -2.15412        -2.15412
LJ           2.15115        -3.22837        -2.15422
LJ          -3.22834         -1.0772        -3.22834
LJ          -2.15417    -2.20092e-05        -3.22725
LJ          -3.22725    -2.20092e-05        -2.15417
LJ           -2.1541        -1.07719         -2.1541
LJ           -1.0772         -1.0772         -3.2272
LJ      -2.34516e-05    -2.34516e-05         -3.2272
LJ          -1.07719    -3.18839e-05        -2.15409
LJ      -3.18839e-05        -1.07719        -2.15409
LJ           1.07696         -1.0772        -3.22725
LJ           2.15112    -1.50169e-05        -3.22834
LJ           1.07689     -2.8997e-05         -2.1541
LJ           2.15003         -1.0772        -2.15417
LJ          -3.22837         1.07701        -3.22837
LJ          -2.15422         2.15115        -3.22837
LJ          -3.22837         2.15115        -2.15422
LJ          -2.15412          1.0769        -2.15412
LJ           -1.0772         1.07696        -3.22725
LJ      -1.50169e-05         2.15112        -3.22834
LJ           -1.0772         2.15003        -2.15417
LJ       -2.8997e-05         1.07689         -2.1541
LJ           1.07697         1.07697        -3.22729
LJ           2.15219         2.15219        -3.22941
LJ           1.07697         2.15007        -2.15418
LJ           2.15007         1.07697        -2.15418
LJ          -3.22834        -3.22834         -1.0772
LJ           -2.1541         -2.1541        -1.07719
LJ          -3.22725        -2.15417    -2.20092e-05
LJ          -2.15417        -3.22725    -2.20092e-05
LJ           -1.0772         -3.2272         -1.0772
LJ      -3.18839e-05        -2.15409        -1.07719
LJ          -1.07719        -2.15409    -3.18839e-05
LJ      -2.34516e-05         -3.2272    -2.34516e-05
LJ           1.07696        -3.22725         -1.0772
LJ           2.15003        -2.15417         -1.0772
LJ           1.07689         -2.1541     -2.8997e-05
LJ           2.15112        -3.22834    -1.50169e-05
LJ           -3.2272         -1.0772         -1.0772
LJ          -2.15409    -3.18839e-05        -1.07719
LJ           -3.2272    -2.34516e-05    -2.34516e-05
LJ          -2.15409        -1.07719    -3.18839e-05
LJ          -1.07718        -1.07718        -1.07718
LJ      -3.47721e-05    -3.47721e-05        -1.07718
LJ          -1.07718    -3.47721e-05    -3.47721e-05
LJ      -3.47721e-05        -1.07718    -3.47721e-05
LJ           1.07687        -1.07719        -1.07719
LJ           2.14998    -2.34517e-05         -1.0772
LJ           1.07687    -3.18839e-05    -3.18839e-05
LJ           2.14998         -1.0772    -2.34517e-05
LJ          -3.22725         1.07696         -1.0772
LJ          -2.15417         2.15003         -1.0772
LJ          -3.22834         2.15112    -1.50169e-05
LJ           -2.1541         1.07689     -2.8997e-05
LJ          -1.07719         1.07687        -1.07719
LJ      -2.34517e-05         2.14998         -1.0772
LJ           -1.0772         2.14998    -2.34517e-05
LJ      -3.18839e-05         1.07687    -3.18839e-05
LJ           1.07689         1.07689        -1.07719
LJ           2.15112         2.15112         -1.0772
LJ           1.07696         2.15003    -2.20093e-05
LJ           2.15003         1.07696    -2.20093e-05
LJ          -3.22837        -3.22837         1.07701
LJ          -2.15412        -2.15412          1.0769
LJ          -3.22837        -2.15422         2.15115
LJ          -2.15422        -3.22837         2.15115
LJ           -1.0772        -3.22725         1.07696
LJ       -2.8997e-05         -2.1541         1.07689
LJ           -1.0772        -2.15417         2.15003
LJ      -1.50169e-05        -3.22834         2.15112
LJ           1.07697        -3.22729         1.07697
LJ           2.15007        -2.15418         1.07697
LJ           1.07697        -2.15418         2.15007
LJ           2.15219        -3.22941         2.15219
LJ          -3.22725         -1.0772         1.07696
LJ           -2.1541     -2.8997e-05         1.07689
LJ          -3.22834    -1.50169e-05         2.15112
LJ          -2.15417         -1.0772         2.15003
LJ          -1.07719        -1.07719         1.07687
LJ      -3.18839e-05    -3.18839e-05         1.07687
LJ           -1.0772    -2.34517e-05         2.14998
LJ      -2.34517e-05         -1.0772         2.14998
LJ           1.07689        -1.07719         1.07689
LJ           2.15003    -2.20093e-05         1.07696
LJ           1.07696    -2.20093e-05         2.15003
LJ           2.15112         -1.0772         2.15112
LJ          -3.22729         1.07697         1.07697
LJ          -2.15418         2.15007         1.07697
LJ          -3.22941         2.15219         2.15219
LJ          -2.15418         1.07697         2.15007
LJ          -1.07719         1.07689         1.07689
LJ      -2.20093e-05         2.15003         1.07696
LJ           -1.0772         2.15112         2.15112
LJ      -2.20093e-05         1.07696         2.15003
LJ            1.0769          1.0769          1.0769
LJ           2.15115         2.15115         1.07701
LJ           1.07701         2.15115         2.15115
LJ           2.15115         1.07701         2.15115
