108
#Comment!
LJ         -0.708303        -1.79936     -0.00755909
LJ          -5.59146         4.84089        -2.10864
LJ           1.43084         3.49565        -2.73779
LJ           1.48913         2.34297        -3.23926
LJ           1.09946        -1.44061       -0.570861
LJ          0.156317         2.29012       -0.259613
LJ           1.14389        -1.72047        0.478404
LJ          0.640846        -2.71608        0.846879
LJ           1.38726        -2.61466       -0.349112
LJ           1.73052        0.112178       -0.512781
LJ           1.36735         1.62571        0.587067
LJ           1.22193       -0.758977          1.7993
LJ            -1.284       -0.815783        -1.95104
LJ          0.487518         1.59363        -1.51727
LJ         -0.129353         1.85387        0.691804
LJ         -0.518768         3.55149         1.13336
LJ          -1.19168         1.15307         -1.2779
LJ         -0.181813       -0.123472        0.564192
LJ         -0.323564         3.19287       0.0600443
LJ         -0.164073       -0.690345        -1.10675
LJ          0.830223        -0.70625        -1.45526
LJ          0.230861        -1.22524      -0.0768652
LJ         -0.923014        0.627213        -2.11358
LJ          0.706338         4.42652           4.553
LJ          -3.44226        -6.23374       -0.442344
LJ          -0.54201         1.96015        -1.88369
LJ          0.310438         2.39468        -2.71418
LJ           4.73941         1.74484        0.872872
LJ          0.629039         3.84925       -0.594086
LJ           2.00045         5.71496        -1.74653
LJ          -1.65233        0.412436         1.43248
LJ          0.282861        0.726997        -2.28326
LJ           -0.3166        0.542885        -3.59215
LJ           1.01878        0.556889        -1.34948
LJ          0.153923         1.01919        0.214851
LJ         -0.221202        0.614107        -1.29236
LJ          -1.30757        -2.37772       -0.836196
LJ          -2.96135       -0.210573       -0.423904
LJ          -1.16694         1.44514        0.114416
LJ          0.903323          -1.753         1.53573
LJ          -0.70112         -1.0934        0.754176
LJ         -0.448899        -2.70802        0.539391
LJ          -1.71533         -1.4856        0.041708
LJ         -0.841996       -0.167774         1.44299
LJ         -0.108817        -3.70897         1.19932
LJ          -5.93499        -5.69926        0.471588
LJ          0.406863        -2.36837       -0.143676
LJ           1.70074        -2.47783         1.18445
LJ         -0.694063       -0.682096       -0.144921
LJ          -0.87424         2.19935       -0.757234
LJ          0.208741       -0.244027         1.65784
LJ          -1.82922        0.666624       -0.486128
LJ          0.219466        -1.80295        -1.12154
LJ        -0.0948325         1.35569       -0.682418
LJ           1.04806        0.166057        0.452431
LJ           1.94851        -0.56777         1.13266
LJ           1.47397       -0.805948        0.137982
LJ          0.600798      -0.0331958       -0.434397
LJ           2.56482       0.0307712        -1.45323
LJ           3.10765        0.208821       -0.582904
LJ          -1.28809       -0.019229        -1.13324
LJ          -6.10334         3.27137          1.1888
LJ          -2.20711         1.60931        -0.10389
LJ          -1.32551         -1.2363       -0.960043
LJ         -0.299113           1.769         2.00918
LJ         -0.499576        0.368662       -0.386022
LJ         -0.555219        0.879278         1.20012
LJ           1.86198         2.75774       0.0982109
LJ           2.77245         6.34713        -6.12507
LJ          0.537511        0.779325         1.19749
LJ          -3.68187        -1.67797          5.8779
LJ          -2.19609         5.06109        -5.68998
LJ         0.0324817        -1.79949        0.719183
LJ           1.06941        0.992383       -0.422547
LJ           -1.1986         1.08328         2.37337
LJ          0.148582        0.843669         2.35384
LJ          -1.23112        -3.27664         1.43738
LJ          -1.26548        -2.12703        0.972733
LJ           1.39583         1.69036         5.42011
LJ          -5.74245         -1.7976         2.30302
LJ          0.543527       -0.857514        0.781959
LJ            2.3235        -1.82292       -0.586507
LJ         -0.241015        -2.37767         1.58776
LJ       -0.00449868        -1.33931         1.69268
LJ          -2.64743        0.663498        0.720162
LJ          -1.30774        0.203925        0.448551
LJ           1.04238        -2.81159         1.90946
LJ          -2.27526         3.19477         2.63661
LJ           1.12761       -0.425732         3.44893
LJ          -1.23371        -1.17007         1.89002
LJ         -0.974157         2.46029        0.504041
LJ          0.488123        -1.20179         2.86693
LJ           0.37824        -2.08758           2.396
LJ          -2.84668        -4.26526         6.05286
LJ           5.74531         -4.9063       -0.360966
LJ           6.31554         2.91187        -3.76602
LJ          -1.66927       -0.811434        0.952602
LJ          0.627092         2.70827        0.982415
LJ           1.79793         3.75634        0.706404
LJ           2.81071        -2.80234       -0.603014
LJ           5.11163         3.48626       -0.939835
LJ          -4.68651        0.997268        -2.46126
LJ         -0.512456         5.77498        -1.22504
LJ           5.78091         5.32989         2.47519
LJ            1.8475        0.693589         1.01548
LJ          -2.04156       -0.491605       -0.139649
LJ          -1.53937        -6.39877        -3.94115
LJ          -2.01886        -2.22308         6.36471
