108
#Comment!
LJ          -1.91301        -2.31311         0.21943
LJ          -4.91717        -6.33918         2.28391
LJ           4.77474         4.85545        -3.89686
LJ           4.61433         6.04445        -3.39908
LJ           2.35293        -1.99922        -1.08105
LJ         -0.268226         1.45017        -1.71787
LJ          0.803161         -2.1007       -0.282963
LJ          0.669224        -3.13354        0.150742
LJ          0.634633         -2.9893       -0.910841
LJ           1.70518         1.08044       -0.465154
LJ           2.86871         2.35057         2.15762
LJ           1.09196        -1.71704         2.18634
LJ          -1.09001       -0.904009        -1.33601
LJ           0.62858         3.20441        -1.92804
LJ         -0.757992         1.42706        0.251308
LJ         -0.685341         2.19444        -1.06469
LJ          -1.96424        0.817936         -1.6347
LJ          0.385685       -0.340993       -0.125351
LJ            -1.292         2.33078      -0.0659133
LJ         -0.378589       -0.203322        -1.11973
LJ           1.38503        0.244956        -1.21255
LJ           1.22649        -1.21874        -1.09515
LJ             0.523       -0.470349        -2.11934
LJ           2.48187        0.946312          1.7801
LJ          -1.04824         3.89196         2.37379
LJ          0.184689         2.83859        -2.98804
LJ           1.61398         2.60483        -1.25105
LJ           2.07074         1.62901         3.11656
LJ         -0.652647         2.42332        -2.27667
LJ          -0.32711         3.13141         -1.3773
LJ          0.789772         1.80387         3.26382
LJ          0.197302        0.532886        -1.55093
LJ          0.778867          2.1138        -2.17449
LJ           1.13527        0.407081        -2.27107
LJ        -0.0780298         1.50501       -0.639734
LJ         -0.954012         0.36059        -1.83973
LJ          -1.31962        -2.08193       -0.817412
LJ          -2.48327       -0.336876         1.21048
LJ          -1.61217          1.0218         1.07805
LJ          0.548118        -2.64341         1.25569
LJ          -1.22774         -1.1098        -0.27583
LJ         -0.730591        -2.83292       -0.284131
LJ          -2.04461        -1.31621        0.671481
LJ         -0.617365       -0.451499        0.356837
LJ        -0.0233967        -3.51801        0.836317
LJ          -6.31357        -0.34076       -0.937528
LJ         -0.264442        -1.79059       -0.545293
LJ           1.77158        -2.76663         0.21106
LJ          -1.62559         0.32259       -0.632417
LJ           -1.1711         1.30851       -0.978116
LJ         0.0129732       -0.391018         1.14352
LJ          -2.61126        0.111233       -0.940637
LJ         0.0936159        -1.10678        -1.14463
LJ          0.911106         1.37087        -1.26195
LJ           1.01991      -0.0457454        0.786613
LJ          0.875358        -0.86798         1.58848
LJ           1.13629        -1.12504          0.3148
LJ          0.670775        0.672293       -0.533168
LJ           1.45557     -0.00838016       -0.110954
LJ            1.4914        -1.88198        0.960126
LJ          -1.99159       -0.381808        -1.71689
LJ           4.36308         4.96918         2.93945
LJ          -1.68719         1.13419      -0.0413206
LJ          -2.19315       -0.842876       -0.465508
LJ          0.324032         1.39104         0.35872
LJ         -0.352805        0.430249       -0.290042
LJ         -0.635971        0.496943        0.924031
LJ           0.51097         2.43551       -0.820868
LJ           3.11581         6.04417         4.33884
LJ           2.55986         2.69785         3.15859
LJ          -4.82549           1.335        -6.35617
LJ       -0.00826578        -5.31297        -5.69031
LJ         -0.404716        -2.21725        0.499972
LJ           3.01491         1.68355         1.21693
LJ         -0.453312        0.894687         2.03289
LJ          0.745975        0.120332         1.86641
LJ          -1.03575        -2.93239         0.77883
LJ          -1.08181        -1.43882         1.05491
LJ          0.766478         3.83957          4.3346
LJ          -3.01051        -2.21119         1.99321
LJ         0.0537492        -1.27509         0.31159
LJ           1.84394        -1.74754       -0.156987
LJ          -0.64504         -2.3447         1.54825
LJ         0.0512728        -1.56591         1.32249
LJ          -2.57969        0.549723        0.534625
LJ            -1.675       -0.282486        0.325669
LJ         0.0477317        -3.32601         1.88508
LJ           -4.7311        0.379433         3.69001
LJ         -0.167206       -0.590147         2.19773
LJ         -0.687902        -1.57645         2.33017
LJ          -2.59755         1.43327        0.891794
LJ          0.708794        -1.71697         3.14799
LJ          0.190164        -2.25272         2.19486
LJ          0.700384        -6.46109        -6.07275
LJ          -5.64906        -6.35177         1.21232
LJ          -5.94181         2.37905        -5.46921
LJ          -1.48123      -0.0358562         1.37127
LJ         -0.189734         2.61935       -0.199854
LJ           0.91129         2.21745        0.433917
LJ           1.53093        -3.50885       -0.657599
LJ           5.25558         4.13082         2.91315
LJ          -5.91591         2.00086        -3.65839
LJ          0.739613          4.9179         2.70077
LJ           5.46903        -5.59316         3.02049
LJ           2.17259         2.87553         4.48593
LJ          -2.99505        -0.57082         0.29065
LJ           3.28657        0.835506        -4.92173
LJ           3.57927         2.53749        0.764139
