108
#Comment!
LJ           -4.5669        -4.55677        -4.56335
LJ          -0.37814       -0.374493        -3.73998
LJ          -3.73798       -0.374229       -0.376954
LJ         -0.372772        -3.74127       -0.373394
LJ          -1.15223        -2.77425        -2.77772
LJ          0.205655       -0.769091        -3.04578
LJ          0.348033         -1.0439        -1.04855
LJ          0.204857        -3.04067       -0.766487
LJ           1.87623        -1.94928        -1.94877
LJ           1.82488        0.107852       -0.678353
LJ          -3.95992         5.01487         5.01487
LJ           1.82091        -0.68257        0.109434
LJ          -2.79553         -1.1589        -2.79611
LJ         -0.762931        0.202347        -3.03918
LJ          -3.03903        0.200227       -0.769014
LJ          -1.04139        0.352491        -1.03745
LJ         -0.976831       -0.978428        -2.95626
LJ        -0.0170406      -0.0195099       -0.891743
LJ          -1.78142        0.345702        -2.59692
LJ          0.355996        -1.78121        -2.58603
LJ           2.19125       -0.999677        -2.05077
LJ           1.11748        -1.12576        -2.27234
LJ         -0.210041       -0.919531        -1.97755
LJ           5.13183        -2.82736        -4.02959
LJ          -1.94649         1.87338        -1.94339
LJ          0.105265         1.82015       -0.685882
LJ          -0.68108          1.8203        0.107425
LJ           5.01487        -3.95992         5.01487
LJ         -0.997918         2.19127        -2.05184
LJ          -1.12548         1.11732        -2.27704
LJ          -2.82756         5.13223        -4.02967
LJ         -0.930846       -0.193419        -1.96666
LJ          0.255712        0.240277        -1.98921
LJ          0.470435          0.4626          -3.278
LJ          0.309073         2.02724        -1.80971
LJ           2.01285        0.310651        -1.81032
LJ          -2.79247        -2.78942        -1.15904
LJ          -1.04332        -1.03767        0.352962
LJ          -3.04666       -0.772649        0.205305
LJ         -0.763581        -3.04228        0.201991
LJ         -0.982452        -2.95234       -0.978101
LJ          0.348369        -2.58766        -1.78303
LJ           -1.7822        -2.59491        0.338527
LJ        -0.0192695        -0.89842      -0.0224465
LJ           2.18855        -2.05168       -0.997586
LJ           5.13196        -4.02979         -2.8278
LJ         -0.201761        -1.97447         -0.9157
LJ           1.11551        -2.27829        -1.12676
LJ          -2.96326       -0.975683       -0.974638
LJ          -2.59079        0.359893        -1.77944
LJ         -0.884729      -0.0170757      -0.0151893
LJ          -2.58335        -1.78058        0.365783
LJ          -1.81829        -1.83942        -1.82761
LJ          0.877018        0.874011       -0.809123
LJ         -0.788591        0.877306        0.878237
LJ          0.861043       -0.824186        0.861912
LJ          0.840588        -0.24322       -0.243687
LJ          0.959948       -0.222909        -1.29472
LJ           1.88322        -1.07493        -1.08294
LJ          0.957554        -1.29428       -0.222466
LJ          -2.05333         2.19789       -0.997542
LJ          -4.02959         5.13202        -2.82745
LJ          -2.27238         1.12408        -1.12157
LJ          -1.97048       -0.196623       -0.932985
LJ         -0.245954        0.843455       -0.246139
LJ         -0.212353        0.952778        -1.29611
LJ          -1.29531        0.953634       -0.208027
LJ            -1.095         1.88739        -1.08637
LJ           2.90013         2.89996         2.04791
LJ            3.2861         3.28649         0.81396
LJ         -0.606848         2.90489        -5.12957
LJ           2.90464       -0.606853        -5.12969
LJ          -1.95176        -1.94663          1.8737
LJ           5.01487         5.01487        -3.95992
LJ         -0.682648        0.109934          1.8226
LJ          0.105927       -0.685405         1.81834
LJ          -1.00141        -2.05185         2.18721
LJ         -0.921491        -1.96848       -0.196224
LJ          -2.82778        -4.02987         5.13226
LJ           -1.1288        -2.28283         1.11562
LJ          0.255586        -1.98994        0.245553
LJ           2.02035        -1.81118        0.317515
LJ          0.310866         -1.8103         2.02641
LJ           0.47423        -3.28109        0.471436
LJ          -2.04722        -0.99865         2.19518
LJ          -1.97423       -0.920752       -0.199708
LJ          -2.27807        -1.11897         1.12475
LJ           -4.0295        -2.82732         5.13174
LJ         -0.248169       -0.244052        0.841928
LJ          -1.08849        -1.08414         1.88361
LJ          -1.29573       -0.210009        0.956396
LJ         -0.212186        -1.29532        0.952456
LJ           2.89967         2.04737         2.89985
LJ           2.90532         -5.1303       -0.607086
LJ         -0.607086        -5.12996           2.905
LJ            3.2855        0.813788         3.28569
LJ          -2.00075        0.245196        0.251049
LJ          -1.81018         2.01614        0.305025
LJ          -3.27066        0.463887        0.466234
LJ          -1.81311        0.306501         2.01116
LJ           2.04783         2.89983         2.90015
LJ          -5.12806         2.90377       -0.607269
LJ          0.814013         3.28642         3.28608
LJ          -5.12919       -0.606962         2.90484
LJ           -5.4683        -5.47281        -5.46988
LJ           2.13999         2.13125       -0.893949
LJ         -0.905643         2.13947          2.1446
LJ           2.14674       -0.881836         2.12112
