108
#Comment!
LJ           3.67372       -0.835132        0.596865
LJ          -2.35823         2.83464        -3.56362
LJ           1.15478         -1.8658         1.75754
LJ         -0.677371          2.6766       -0.133617
LJ          0.190599       -0.400675         2.85327
LJ           1.46857        -2.29238       -0.748843
LJ          0.918464       -0.213318        -1.38824
LJ           2.33496        -2.19091      -0.0205512
LJ           1.82903        -1.27522         2.44175
LJ         -0.315122         -1.2403         2.59079
LJ         -0.571936         2.25259         3.09735
LJ          0.108364        0.915586         0.50589
LJ          0.217965       -0.704882      -0.0113496
LJ           2.20996        -5.77825        -3.03211
LJ           1.34974        -3.63425       -0.872323
LJ          0.178266        -2.10966        0.513509
LJ           4.72665        -1.82295         6.32053
LJ            0.9208         1.60232       -0.100206
LJ          -0.30567         4.95581        -3.89873
LJ           1.37503         -1.2024        -1.02788
LJ          -2.37727        0.345977         3.21718
LJ           1.61012         2.62869        -2.45276
LJ           2.28947      -0.0107105        0.240981
LJ          -1.75671        -2.88371        -1.22624
LJ          0.385278         1.19208          3.4363
LJ         -0.150094         1.97285       -0.998313
LJ          -1.04133        0.538829        -1.40679
LJ          -4.17043         5.60716        -1.76313
LJ           2.89172         1.38025         1.83048
LJ           1.70764        -2.64708        0.993476
LJ           1.92502       -0.501327         4.50508
LJ           4.40444       0.0517818         3.40222
LJ           1.39838        -2.96589        -1.76906
LJ          0.728048       -0.595716        -2.64683
LJ         0.0873423         1.93891          0.3668
LJ            2.8887        0.394538        -0.53738
LJ            1.8483        -1.21541          0.5858
LJ          0.592964        -3.37934         -2.6608
LJ           0.87799        0.522528      -0.0876313
LJ           1.51524        0.867808        -1.17112
LJ           1.81078         2.04826      0.00867573
LJ        -0.0878625        -1.76173         1.51159
LJ          0.652594        -2.09542        -1.96857
LJ         -0.483004       0.0326866        0.303056
LJ           2.57529          0.2605         3.57135
LJ           4.69051        -4.74418        -3.28021
LJ           2.98013       -0.658927         2.05715
LJ           2.72316        -1.69346         2.80024
LJ           2.22161        -1.87179        -1.22254
LJ          -1.33258         2.22262         1.64473
LJ           2.26145        0.527006         1.64233
LJ         -0.516315         3.53131        -2.21344
LJ         0.0603017        -6.21739        -2.93816
LJ          0.125924        0.719021         1.61727
LJ           2.53887        -1.80436         1.51162
LJ           2.91299         -1.2766       -0.563631
LJ           1.87217        0.890949       -0.229465
LJ            2.3567        -2.92231        -1.16872
LJ           1.00018       -0.892244         3.83896
LJ           3.07434        0.326282        0.908607
LJ          0.181545        0.947691        -1.39588
LJ          -6.25954         6.17325        -4.97429
LJ          0.764919        -1.51544         2.70137
LJ         -0.549932         4.62149         -2.2063
LJ           2.24299         1.49231        0.958167
LJ           1.14799       -0.453913        0.287431
LJ           1.66174        -2.27394         2.60837
LJ            1.1601         2.26487        -1.09525
LJ          0.635585          3.1607        -2.51563
LJ           1.33828         1.41902         2.37515
LJ           1.86052         1.75043        -5.38031
LJ           1.62076         0.87487         3.29606
LJ          0.677755        -1.23227        0.969114
LJ            1.4548        0.411803        0.859138
LJ         -0.266024        -0.89908        0.884658
LJ          0.431069       -0.175856         1.03845
LJ           2.10556       -0.546638          1.3907
LJ         -0.598951         1.16036       -0.219014
LJ            3.2117        -1.09798         5.24456
LJ           0.62857       -0.706384         1.96333
LJ           1.73403       -0.198156       -0.727007
LJ           1.00334        -1.63185       0.0659348
LJ           2.03524       -0.202291         2.45262
LJ           3.78515        -1.91865         1.46002
LJ           1.00183         1.22229         1.05267
LJ          -1.74062       0.0564115         1.26098
LJ          -1.01127        -2.63972        0.726106
LJ         -0.240256          1.0578        -2.38306
LJ            1.1983        0.544077         1.85324
LJ          0.530908        -2.57771         2.57204
LJ          0.704074         2.75353       -0.232182
LJ         -0.750149         1.31285          1.1987
LJ         -0.594724        0.968208          3.0383
LJ          0.362406        -1.03244        -1.61482
LJ         0.0891736        -1.64439       -0.692264
LJ            1.2569        0.659656          -6.006
LJ        -0.0986719       0.0979891       -0.742198
LJ        -0.0453904         3.16479        0.706005
LJ          -2.13916        -6.25123         4.56214
LJ           5.20984         4.11714         6.37227
LJ         -0.872907          3.4456        -1.29831
LJ        0.00108027     -0.00307958        -1.77248
LJ         0.0222631         2.91744        -1.28068
LJ           4.39285       -0.245933         -2.4002
LJ          0.206139         4.01965        -1.60212
LJ          -1.24314        -1.36607        0.988737
LJ           2.65934        -2.95068         1.53903
LJ          0.522921        -3.04771        0.860065
