108
#Comment!
LJ          0.293908        -1.38986        0.158599
LJ           4.02992      -0.0506512         4.24551
LJ          -2.27621        0.973973        0.341119
LJ         -0.531244        -5.40999        -1.48983
LJ            1.4853        -2.02104       -0.404032
LJ          0.917661         1.87379       -0.838141
LJ           1.90223       -0.212331         1.06638
LJ           2.63606        -1.02954        0.827412
LJ           1.88276        -1.68698        0.458857
LJ           1.32542        -0.11112        -1.97592
LJ          -1.25709         2.70552       -0.288801
LJ           2.20763         1.12492         2.42672
LJ         -0.216493        -1.93998        -1.88395
LJ           1.80063       -0.947833        -1.29914
LJ          -2.14318         1.02903          3.3245
LJ           1.40622         2.94736         1.64442
LJ          0.454847        0.998297        -1.92124
LJ         -0.100217       -0.346953        0.580273
LJ           -0.7369          1.7015         1.36534
LJ         -0.160927        -1.04385       -0.820854
LJ          0.605133        -1.96687        -1.14053
LJ           1.30225        0.206758        0.363946
LJ         0.0301316         2.19847        -2.43223
LJ           3.09697         5.73063         -1.4876
LJ           1.97224         1.72532        -4.99387
LJ          -1.40049         3.32473        0.552557
LJ          -2.39685         2.95681        0.736101
LJ          -4.07039         4.09784        -3.93532
LJ           1.87596         1.98675         1.29905
LJ            5.7134         4.18618         5.55623
LJ          -1.33751         0.15666         1.88884
LJ           1.03333        -1.44347        -2.22003
LJ          0.282575       0.0315438        -1.38522
LJ          0.775506       -0.969983        -1.17293
LJ          -1.18949         1.54254        0.361441
LJ         -0.113489       -0.924972        -2.09627
LJ          -0.75973        -2.04738       -0.400928
LJ         -0.358858         2.06352        -1.21113
LJ          -1.65816         1.13609         1.43578
LJ           1.96433        0.969372        0.931075
LJ           1.07327       -0.936493        0.667219
LJ           0.93278         -1.8775         1.01244
LJ          -1.91451        -1.17609        0.693483
LJ          -1.00925       -0.571436         1.12948
LJ          0.714984       -0.713622         2.25033
LJ           5.19823        -2.49551      -0.0726663
LJ          0.799523        -2.89866        0.504808
LJ           2.66684      -0.0381479       -0.184705
LJ          -1.02172       -0.514674       0.0497667
LJ          -2.11901         1.97239        0.275895
LJ           -0.6204       -0.523062         2.14009
LJ          -1.45284        0.241679       -0.536503
LJ          0.150435        -2.62304       -0.488526
LJ         -0.803121         1.08872       -0.510622
LJ          0.880144         1.02479         1.16464
LJ           1.19996         1.20088        0.205537
LJ           1.53787       -0.960544       -0.240662
LJ          0.602271       -0.442123       -0.306292
LJ           1.81667        -1.92844        -1.70202
LJ           1.89548       -0.980272        -2.42458
LJ          -1.00286       -0.471823        -1.15006
LJ          -1.51768         1.13851        -2.20279
LJ          -2.33214       -0.317069       0.0830658
LJ          -2.22319        -1.04015       -0.808393
LJ         0.0118695         1.62837        0.696285
LJ         -0.460534        0.115882       -0.523196
LJ          -1.11778         1.29331         2.37365
LJ           1.02522         2.25333         0.31326
LJ           4.69587        -5.32697        0.269293
LJ         -0.458364        0.160427          1.4019
LJ          -4.14599         2.83129         5.31806
LJ           4.00198         1.10609         3.51954
LJ          0.757693      -0.0981339         1.30836
LJ         -0.605361         2.44009        0.603619
LJ          -1.51111         2.50293         1.17883
LJ          0.359543         1.18885         3.19066
LJ         0.0193864        -2.47409         1.55245
LJ          -0.83699        -1.44182        0.521922
LJ           2.16268         -2.2377        -6.01277
LJ              2.09        -1.21873         2.55376
LJ          0.214109        0.688487         0.29458
LJ           1.74542        0.157759       -0.858914
LJ        -0.0582112         -1.0431         1.30739
LJ           1.45502        0.500193         1.91349
LJ          0.166939         2.49267         1.54315
LJ          -1.92965        0.114383         1.02501
LJ          0.252507         1.44194            1.93
LJ           2.85467        0.888617       -0.567351
LJ         0.0340129       -0.575288          3.5123
LJ          -1.40725        -1.37796         1.99734
LJ          -2.45117         1.83965         1.33573
LJ          0.234818        0.227092         2.12963
LJ           1.69066        -1.26032         1.50975
LJ          -5.67524         1.75264         3.57632
LJ            6.2635        -3.75674        -2.48967
LJ          -5.01789         5.20345        -1.64254
LJ         -0.942768        0.561761        0.534175
LJ        -0.0497777         1.83471        -0.30952
LJ           1.43335         1.28473        -1.65791
LJ           2.82582        -2.18937        -4.91371
LJ           3.91284         3.00563         6.27296
LJ          -1.81479            1.61       -0.915774
LJ           -3.8247        -3.88091         5.93309
LJ           6.28105         1.25881         3.58405
LJ          0.549313        0.848874       -0.686792
LJ          -1.24746        -1.44455        -1.41051
LJ           4.68021         3.98521         1.19857
LJ          -5.58588        -5.78469        -5.80907
