108
#Comment!
LJ          -1.83661         -2.4412        0.319393
LJ          -5.01299         6.43608         1.85112
LJ           4.41633         4.70182        -3.75406
LJ           4.50056         5.83659        -3.46414
LJ           2.18851        -2.05314        -1.22322
LJ         -0.279016         1.48622        -1.62362
LJ          0.655902        -2.02107        0.061092
LJ          0.708329        -3.05434        0.348693
LJ          0.717204        -2.79758       -0.945326
LJ           1.65193         1.05012       -0.622984
LJ           2.85421         2.43121         1.99194
LJ           1.18593        -1.88719         1.98648
LJ          -1.23972       -0.936499        -1.23217
LJ           0.79409         3.09028         -1.9578
LJ         -0.827785         1.55476         0.29145
LJ          -0.56637         2.38978       -0.957324
LJ            -2.038        0.947494        -1.65216
LJ         0.0373101       -0.529061       -0.277822
LJ          -1.17116         2.55163      -0.0819307
LJ         -0.271918      -0.0825735        -1.17066
LJ           1.34178       0.0904883        -1.12368
LJ           1.16723        -1.11462        -0.88617
LJ          0.441501       -0.405679        -2.07678
LJ           2.09135         1.34885         1.64109
LJ          -1.12782         3.93661         2.07518
LJ        -0.0667721         2.68186        -2.92158
LJ           1.72948         2.65564        -1.34955
LJ           2.03288         1.45246         3.07486
LJ         -0.584379         2.37334         -2.0757
LJ         0.0841621         3.29813        -1.12241
LJ          0.817385         1.73487         2.95491
LJ          0.339859        0.584373        -1.73311
LJ          0.740532         2.07254        -2.25052
LJ           1.33489        0.482919         -2.1108
LJ         0.0601473         1.54022       -0.480507
LJ         -0.847045        0.609497        -1.67136
LJ          -1.34977        -2.07469       -0.998508
LJ          -2.54994       -0.354866         1.33015
LJ          -1.58269        0.946788         1.04933
LJ          0.737731        -2.43019         1.23912
LJ         -0.905956        -1.21041       -0.163706
LJ         -0.704639        -3.06307       -0.268931
LJ          -2.01885        -1.02133        0.685397
LJ         -0.771368       -0.576945        0.637351
LJ         -0.116012        -3.73064        0.935935
LJ          -6.26509       -0.749213       -0.822873
LJ         -0.302693         -1.9466       -0.553885
LJ           1.67308         -2.5877        0.453981
LJ          -1.31509       0.0836638        -0.72985
LJ          -1.11096         1.28773       -0.973524
LJ          0.053999       -0.320837         1.14337
LJ          -2.78184       0.0891194       -0.785296
LJ        -0.0483486        -1.17506        -1.49728
LJ           0.73995         1.41713        -1.32742
LJ           1.15483        -0.12012         0.80635
LJ          0.977805       -0.887576         1.54409
LJ           1.08187        -1.03885        0.300491
LJ          0.620196         0.53915       -0.218937
LJ            1.6552      -0.0142425        -0.10153
LJ            1.6368        -1.78169          1.0382
LJ          -1.81951      -0.0755695        -1.69269
LJ           4.48033         4.94915         2.90841
LJ          -1.94778         1.07341       -0.139372
LJ          -2.32132        -0.85664        -0.50979
LJ          0.262981         1.36028        0.704722
LJ         -0.630535        0.690149       -0.241273
LJ         -0.584062        0.520909         0.77331
LJ           0.59969         2.37012         -0.9642
LJ           3.08757         6.07048         4.53463
LJ           2.42143         2.75549         3.09733
LJ          -4.73573         1.09657        -6.39456
LJ         -0.190244        -5.52709        -5.56806
LJ         -0.291463        -2.30097         0.52464
LJ           3.00556         1.65985        0.926632
LJ         -0.234138        0.955932          2.0577
LJ          0.738144        0.302116         1.84334
LJ          -1.03737        -3.21212        0.803878
LJ         -0.967359        -1.60967        0.958648
LJ          0.921776         3.60127         4.42107
LJ          -3.25578        -2.20422         2.04169
LJ         0.0689855         -1.2411          0.4853
LJ           1.78389        -1.65744       -0.235685
LJ         -0.639352         -2.5153         1.53714
LJ          0.052981        -1.48037         1.55073
LJ          -2.60482        0.324681        0.260487
LJ          -1.72855        -0.14795        0.160148
LJ         0.0138022        -3.24482         1.99006
LJ          -4.54419        0.605432         3.61421
LJ        -0.0370726        -0.51518         2.18334
LJ         -0.646998        -1.58836         2.40179
LJ          -2.53586         1.63841        0.980632
LJ          0.663099         -1.6815         3.01287
LJ          0.198098        -2.29715         2.26741
LJ          0.455916        -6.27367        -6.22639
LJ          -5.74116         -6.2349         1.16285
LJ          -6.00562         2.43718         -5.3596
LJ          -1.38938       -0.167086         1.22415
LJ         -0.062028         2.51703       0.0632287
LJ          0.917139         2.60584        0.362884
LJ           1.76352        -3.38013       -0.854439
LJ            5.3244         3.95629         2.50125
LJ          -5.81325          1.9108        -3.53722
LJ          0.569569         5.00233         2.40269
LJ            5.4919        -5.73218         2.98787
LJ            2.0819         2.80863         4.43597
LJ          -3.15777       -0.539268        0.145611
LJ            2.8836         1.28128        -4.88591
LJ           4.14159         2.08461         1.19307
