108
#Comment!
LJ           2.97338         0.43747         1.59754
LJ           2.56695        -3.31475       -0.112239
LJ         -0.915844       -0.859951         1.01808
LJ          -2.94604        0.760725       -0.131545
LJ           1.68343        -2.04732          2.0354
LJ          0.997466         1.63794        -1.54878
LJ           2.92291          1.5096        0.651886
LJ           1.55593         0.40126        -1.65029
LJ            1.2759       -0.710382        0.692521
LJ            1.0041        -3.64284       -0.482371
LJ          -2.53772          2.0974         1.36319
LJ           1.32186         1.42777         3.33804
LJ          -1.38741        -1.28486       0.0881732
LJ           2.72814       -0.755307      -0.0616074
LJ         -0.245379        0.528399         2.93655
LJ         0.0473231         1.04376          1.4965
LJ           0.29337        -2.23793        -1.68372
LJ          0.237476         1.27767        0.432228
LJ          0.302713         1.83493         2.91603
LJ         -0.480874       0.0202292        -1.59584
LJ           0.57362        -2.82712         1.95875
LJ           1.10885        0.855557       -0.559126
LJ           2.38827        -1.72559        -1.83491
LJ           6.40589           3.199         4.96923
LJ          -6.08172        -1.44875         5.23461
LJ          -2.32101         2.21914       -0.074556
LJ          -3.16544        -6.02693        -1.00355
LJ          0.178862        -5.00861        0.951751
LJ           2.01136          2.1246         2.54689
LJ          -2.90475        0.272996          0.9142
LJ         -0.413365       -0.089715         1.92838
LJ           -3.6895        -5.50536         2.30184
LJ          0.113805       -0.921552        -1.68997
LJ           1.59974        -1.38345        -1.09022
LJ          -1.34027         2.13642          1.0864
LJ          0.259075          -1.194       -0.514947
LJ          0.339011        -2.42591        0.428682
LJ         -0.038794       -0.622941        -2.82828
LJ          -1.45113        0.092541         2.59395
LJ           2.24371        0.653563       -0.266879
LJ           1.57559          1.2249        0.490945
LJ          0.715344        -1.67341         1.17921
LJ          -1.22102       -0.716813       -0.977017
LJ          -1.47554       -0.170494      -0.0612383
LJ           1.85838        0.669476         1.54053
LJ          0.122866         -4.1841         4.40972
LJ            1.2864        -1.52182       0.0567157
LJ            2.2513       0.0262338        0.641777
LJ          -1.84466        0.448284       -0.754472
LJ          -1.03961        0.305436         1.22166
LJ         -0.739161         1.41768         2.99712
LJ          -1.04147        0.972117        -1.03783
LJ           -2.9795        -2.88641       -0.208535
LJ         -0.551545          2.0117        -1.09892
LJ           1.16525         1.25285          2.2198
LJ            2.0952        0.766895         2.56926
LJ          0.547159       -0.168554      -0.0391067
LJ          0.867205      -0.0338143        -2.39724
LJ           1.98393        -1.48767         1.09386
LJ           3.61331        0.445197        0.689623
LJ          0.319303         1.67217       -0.484075
LJ           4.70349         3.31146        -3.58151
LJ         -0.308865        -2.05683         1.72934
LJ          -1.17061        -0.15764         -2.3657
LJ          -0.60949         2.01211        0.264345
LJ         -0.217883        0.384826        -2.46647
LJ           1.98646       -0.556286         1.61465
LJ           1.77426         1.69562         1.39383
LJ          -4.42129         2.18152         -4.9757
LJ         -0.591999         2.04473         2.08726
LJ          -4.26477       -0.902162        -6.37228
LJ           3.31133       -0.923221         2.08152
LJ          0.986705        0.392221        0.961938
LJ          0.621275         2.05184         1.35733
LJ          -2.28601         1.00839          1.3971
LJ          0.994471        0.478074         3.28713
LJ         -0.480366       -0.461961       -0.162539
LJ         0.0237718         0.68566       -0.480048
LJ          0.513133         4.89843         5.04814
LJ          0.229867        -1.00037        0.555859
LJ           0.30718        0.799504        -1.63279
LJ          0.643158      -0.0723186         -1.1728
LJ          0.951519       -0.387941         1.74773
LJ          -0.10543       0.0947216        0.849616
LJ            1.0023         2.57821         2.25334
LJ          -1.93871        0.532528        0.584127
LJ         -0.786007       -0.618576           3.289
LJ         -0.521385         1.99336        -2.09445
LJ          0.589199        0.387812         2.29628
LJ          0.306739       -0.643722         2.62974
LJ          -1.28038         1.20169         1.69043
LJ         0.0370966         1.19504         3.93062
LJ          0.715247        -1.65493         2.31544
LJ          0.873989        -4.91305        -2.02206
LJ          -3.74934         1.92319        0.914019
LJ           1.64008        -2.69939       0.0646017
LJ          -0.85765        0.665106        0.203268
LJ           1.21621         2.18259       -0.293085
LJ           1.61851       -0.425396        -0.30298
LJ           4.28029       -0.151765        -5.36361
LJ           2.08999         2.31005        0.246849
LJ            -1.651         1.33561       -0.108307
LJ           2.94446         2.73389        0.468945
LJ          -3.26841       -0.888756         5.42555
LJ           1.83498       -0.574238        -2.37942
LJ          0.816357        -2.03159       -0.771511
LJ          -4.33521         3.95469        -5.39134
LJ          0.500007         3.68305        -1.91203
