108
#Comment!
LJ  0.26155654575534359   -0.13405396516417045   0.12119074292369102
LJ  -0.23828329079576238   0.20218706359255406   -0.49600545445444749
LJ  0.13002803062790735   -0.16893813804469449   0.17942197317197342
LJ  -0.086076322315644951   0.19779410544405529   0.064995080884867482
LJ  -0.060908346165034724   0.055784664834394038   0.16978195737588958
LJ  0.095638255944297881   -0.20654611378330981   -0.021997644699069844
LJ  0.087349684920507598   -0.038849638601805118   -0.065907938034351826
LJ  0.24694615578059315   -0.14847297864672362   -0.0015408098888436083
LJ  0.13798009334074157   -0.075293734686738459   0.14992204634087025
LJ  -0.14853236036944087   -0.26242617883997416   0.246321046279973
LJ  0.10509960331186295   0.046738477046836223   0.29390595034466654
LJ  0.02002978562907751   0.041837300830946333   -0.010374707823406376
LJ  0.025924761186000646   -0.094656637794322027   0.044014591230120519
LJ  0.23068809352236461   -0.21394263199394811   -0.40660375956458744
LJ  0.17929017998085328   -0.12908555107759298   -0.050266238219708846
LJ  0.052462018742583154   -0.25477030215155538   0.067186080091056699
LJ  0.15402991700846982   -0.17009239881035235   0.325857227530291
LJ  0.09820046189709708   0.12241489554931637   -0.011519817786337292
LJ  -0.045281720930309355   0.43452477198418465   -0.13376639479696303
LJ  0.18027212832583217   -0.15670420246856726   0.038523462545051158
LJ  -0.17942762419866981   0.02375723425090117   0.015386614812177644
LJ  0.13365175255083508   0.2513964345160325   -0.13558426193598058
LJ  0.19166785236237135   0.022007023037427471   0.039198473523435952
LJ  0.08950854927797304   -0.30333867470131465   -0.05063552391272183
LJ  0.034045931751052222   0.20107594825955399   0.093294396548521397
LJ  -0.0044784886547204594   0.1872642258524656   -0.10183799172795031
LJ  -0.081474852101247025   -0.021177118989679458   -0.071824147599262159
LJ  0.31726470981370281   0.38394893824763199   -0.15527175716591474
LJ  0.2358556968393169   0.16661133677740084   0.18599005286221301
LJ  0.11295088115860633   -0.25018794936339694   0.14675538284214423
LJ  0.048887305658233147   -0.11919948103029319   0.43087521190963668
LJ  0.38655022690097346   -0.10274728368021435   0.039397701942445663
LJ  0.11025821867262811   -0.11006696079106884   -0.10940439172735719
LJ  0.040240512059613633   -0.048999269387388994   -0.17198261055604891
LJ  0.016963060878900219   0.13010890993589722   -0.03540270214146865
LJ  0.24053383056790753   0.016816742071322069   -0.019573547130500898
LJ  0.18117751467053816   -0.082057528030177171   0.086253828416309089
LJ  0.006983568860335224   -0.31401560403713896   -0.028316848069254212
LJ  0.072064204722960171   -0.011400327633749832   0.044139655856904124
LJ  0.12729427359476159   0.022160708071659603   -0.01825246743700084
LJ  0.18466879244158607   0.21011986186358481   -0.011250636563564594
LJ  -0.01664745547820572   -0.087467800239837704   0.16731811708846142
LJ  0.082083908187168389   -0.10629101217840496   -0.023064184106340192
LJ  0.0066003197851748829   -0.040094180043116691   -0.026900381900593389
LJ  0.171787759276886   0.0999771759911178   0.21965603394090438
LJ  0.1803523656212592   -0.37065411654103797   -0.16150220128621751
LJ  0.2599079974106196   0.026400486279517424   0.11852453390377415
LJ  0.17529743378943621   -0.10489064372725131   0.22947371750436624
LJ  0.17287031784631127   -0.055695038724910301   -0.075145709659398652
LJ  -0.062173341951850175   0.12702341583599558   0.02328809540743541
LJ  0.26252197968619223   0.10766204285735112   0.068037822530384054
LJ  0.014061295589338446   0.35621870228999725   -0.067238456482957204
LJ  -0.2250016045663171   0.39237508220102979   -0.27831950971463171
LJ  -0.0087074902499494899   -0.032402626696646959   0.071084659983513654
LJ  0.18386589366358175   -0.15707334745158083   0.12283157003249212
LJ  0.23251321627380955   -0.072641527523945856   -0.022915172720994702
LJ  0.193526903439802   0.070950541524077024   -0.049264964695965571
LJ  0.31483229980107375   -0.032910106780927005   -0.016023362624800645
LJ  -0.039934427431156834   -0.032044499982695207   0.24009239049098247
LJ  0.29000945560975128   -0.022211902964040717   0.05859314021613593
LJ  0.067845923997919097   0.065839988366965085   -0.088238572206181934
LJ  0.30351825574928348   -0.4718456442689814   -0.41285329856259123
LJ  0.081019806961264748   -0.097656291785726976   0.20272619981120232
LJ  -0.061422367582117804   0.34974307949586564   -0.10723940868568961
LJ  0.17071054981251024   0.10695427285355424   0.050565168742658179
LJ  0.10510824274011424   -0.10684388677527669   0.078977002171311692
LJ  0.12639529337364347   -0.26392415638419631   0.23544201977876822
LJ  0.074676083959490117   0.15399894372822862   -0.085535331926942876
LJ  0.037044097829683896   0.13692285551041261   -0.18214615272919923
LJ  0.16286265366720484   0.085176924224574097   0.13856788279517224
LJ  0.18764567691630143   0.045425709334614109   -0.32154909466334786
LJ  0.02855254426966598   0.018719647014662978   0.20010698253907061
LJ  0.049196131701188264   -0.17118439257934018   0.14422572568072184
LJ  0.11784928407659193   0.047137287625179485   0.078424557053845143
LJ  -0.064016210132673293   -0.10529719514393225   0.072787945528944617
LJ  0.067405099490192563   -0.046876889586762789   0.13253109070950925
LJ  0.17980109078199311   0.00080932870781016237   0.12098230067944737
LJ  -0.066642200862376516   0.044347644834919694   -0.032568364444127314
LJ  0.27762385584366139   -0.043034466021258572   0.31388228919335331
LJ  0.12064478383665604   0.0095267394466001503   0.17863790227779694
LJ  0.14734491645984915   -0.049868474962586541   0.0088900210864205353
LJ  0.10985708692646784   -0.19108459843615852   0.068128367966580713
LJ  0.20255529960548982   0.02797647485538525   0.27237822384059612
LJ  0.23212779283961846   -0.058008502778998647   0.14275380411109087
LJ  0.10685941831833336   0.21021721186165226   -0.022740832941194524
LJ  -0.097518418629115422   0.006748839607637302   0.06583709774011455
LJ  -0.044851709379359887   -0.10985941955523977   -0.022221721653649086
LJ  -0.0084396804865739302   0.10058935237162063   -0.1144225803083231
LJ  0.071693220091907345   0.10859480231464388   0.13478847001150526
LJ  0.027929488634080551   -0.2412623846161262   0.21463644404397372
LJ  0.020379246790184508   0.21224973889984658   -0.0099741053232068836
LJ  0.05557387095126784   0.12446030950626924   0.055538474987846441
LJ  0.040752676600822442   0.036969675760622385   0.10111232534671628
LJ  -0.022941842192631658   -0.085595006739140958   -0.11065641730230795
LJ  0.018407207009610162   -0.16944139126498967   0.0075129559691067193
LJ  0.17738944193702136   0.10035437273443371   0.31323126943906165
LJ  -0.0068698361817258182   0.017496934099384725   -0.096167807513894601
LJ  -0.043858384624861448   0.27568181369574063   0.050384141233631906
LJ  -0.34642616353343991   0.42935589306113958   0.47726976023898759
LJ  0.3588631183886129   0.4494885491662256   0.43983380743052786
LJ  -0.10034750358741416   0.21620260238887706   -0.021248623013920838
LJ  -0.081971920673313242   0.039477425883176077   -0.16306787591276303
LJ  0.041433845585356073   0.26373595263674648   -0.07875782228127419
LJ  0.13563926257047965   0.025243572709242098   -0.11879862439994796
LJ  -0.030476396851117835   0.27415731979693841   -0.055686948295566661
LJ  -0.075382845385976213   -0.028915557085867113   0.16768645967557413
LJ  -0.444622245567112   -0.36875537667843333   -0.16156474786341968
LJ  0.2117160384690851   -0.23990624445579148   -0.036018324288734173
