108
#Comment!
LJ          -2.77725        -2.77725        -2.77725
LJ          -1.28231        -1.28231        -3.18793
LJ          -3.18793        -1.28231        -1.28231
LJ          -1.28231        -3.18793        -1.28231
LJ          -1.49808        -2.29272        -2.29272
LJ          -1.64751        -2.36608         -3.7438
LJ         -0.277716        -1.37676        -1.37676
LJ          -1.64751         -3.7438        -2.36608
LJ          0.993204        -1.65679        -1.65679
LJ           2.06229       -0.552801        -1.92931
LJ           4.03779         5.75965         5.75965
LJ           2.06229        -1.92931       -0.552801
LJ          -2.29272        -1.49808        -2.29272
LJ          -2.36608        -1.64751         -3.7438
LJ           -3.7438        -1.64751        -2.36608
LJ          -1.37676       -0.277715        -1.37676
LJ          -0.74853        -0.74853        -2.47139
LJ         -0.243276       -0.243276        -1.62338
LJ           -1.6632        0.181426        -2.87575
LJ          0.181426         -1.6632        -2.87575
LJ           1.34438        0.567834        -3.64066
LJ            1.2776       0.0137617        -2.57177
LJ          0.484424       -0.786902        -2.23786
LJ            3.1014        0.735843        -2.30319
LJ          -1.65679        0.993204        -1.65679
LJ           -0.5528         2.06229        -1.92931
LJ          -1.92931         2.06229         -0.5528
LJ           5.75965         4.03779         5.75965
LJ          0.567834         1.34438        -3.64066
LJ         0.0137617          1.2776        -2.57177
LJ          0.735843          3.1014        -2.30319
LJ         -0.786902        0.484423        -2.23786
LJ         -0.183966       -0.183966        -3.45355
LJ          0.205078        0.205078        -2.38068
LJ          0.664366         2.06823        -1.39031
LJ           2.06823        0.664365        -1.39031
LJ          -2.29272        -2.29272        -1.49807
LJ          -1.37676        -1.37676       -0.277716
LJ           -3.7438        -2.36608        -1.64751
LJ          -2.36608         -3.7438        -1.64751
LJ          -0.74853        -2.47139        -0.74853
LJ          0.181426        -2.87575         -1.6632
LJ           -1.6632        -2.87575        0.181426
LJ         -0.243276        -1.62338       -0.243276
LJ           1.34438        -3.64066        0.567834
LJ            3.1014        -2.30319        0.735843
LJ          0.484424        -2.23786       -0.786902
LJ            1.2776        -2.57177       0.0137619
LJ          -2.47139        -0.74853        -0.74853
LJ          -2.87575        0.181426         -1.6632
LJ          -1.62338       -0.243276       -0.243276
LJ          -2.87575         -1.6632        0.181426
LJ          -0.27646        -0.27646        -0.27646
LJ          0.385919        0.385919       -0.896835
LJ         -0.896834        0.385919        0.385919
LJ          0.385918       -0.896835        0.385919
LJ          0.637162       -0.921354       -0.921355
LJ           1.19007       0.0245652        -1.50297
LJ           1.39934       0.0509279       0.0509278
LJ           1.19007        -1.50297       0.0245652
LJ          -3.64066         1.34438        0.567834
LJ          -2.30319          3.1014        0.735843
LJ          -2.57177          1.2776       0.0137618
LJ          -2.23786        0.484423       -0.786902
LJ         -0.921354        0.637163       -0.921354
LJ         0.0245654         1.19007        -1.50297
LJ          -1.50297         1.19007       0.0245652
LJ         0.0509278         1.39934       0.0509276
LJ           1.38858         1.38857       -0.012915
LJ           1.13833         1.13833        -1.21237
LJ           1.72053          2.5351        -1.56972
LJ            2.5351         1.72053        -1.56972
LJ          -1.65679        -1.65679        0.993204
LJ           5.75965         5.75965         4.03779
LJ          -1.92931         -0.5528         2.06229
LJ           -0.5528        -1.92931         2.06229
LJ          0.567834        -3.64066         1.34438
LJ         -0.786902        -2.23786        0.484423
LJ          0.735843        -2.30319          3.1014
LJ         0.0137619        -2.57178          1.2776
LJ         -0.183966        -3.45355       -0.183966
LJ           2.06823        -1.39031        0.664365
LJ          0.664366        -1.39031         2.06823
LJ          0.205078        -2.38068        0.205078
LJ          -3.64066        0.567834         1.34438
LJ          -2.23786       -0.786902        0.484424
LJ          -2.57177       0.0137615          1.2776
LJ          -2.30319        0.735843          3.1014
LJ         -0.921354       -0.921354        0.637162
LJ         0.0509276       0.0509279         1.39934
LJ          -1.50297       0.0245652         1.19007
LJ         0.0245654        -1.50297         1.19007
LJ           1.38857      -0.0129141         1.38858
LJ            2.5351        -1.56972         1.72053
LJ           1.72053        -1.56972          2.5351
LJ           1.13833        -1.21237         1.13833
LJ          -3.45355       -0.183966       -0.183966
LJ          -1.39031         2.06823        0.664365
LJ          -2.38068        0.205078        0.205078
LJ          -1.39031        0.664365         2.06823
LJ        -0.0129148         1.38857         1.38857
LJ          -1.56972          2.5351         1.72053
LJ          -1.21237         1.13833         1.13833
LJ          -1.56972         1.72053          2.5351
LJ           3.00293         3.00293         3.00293
LJ           1.84757         1.84757       -0.839013
LJ         -0.839013         1.84757         1.84757
LJ           1.84757       -0.839013         1.84757
