108
#Comment!
LJ           3.23347       -0.448242         1.33493
LJ           2.61368         2.12036        -2.09478
LJ           -0.1786         -2.6827        0.593138
LJ          -2.28148        0.258752       -0.331549
LJ        -0.0313647        0.242967         3.63735
LJ          0.448135      -0.0490628        -2.68137
LJ           1.34793        0.836228        -1.34952
LJ          0.835659        -1.36513        -2.15314
LJ           1.52265       -0.575828         2.77551
LJ          0.297864         -1.0457         2.30254
LJ          0.337249          1.9745         2.27794
LJ          0.770815         1.09169         1.78031
LJ          -1.72694        -1.35983       -0.715918
LJ           3.92282         1.17072       -0.209334
LJ          -2.07837        -1.32865         0.30607
LJ          -1.54413       -0.723012         1.29523
LJ          -2.23071        -1.46058        -3.30739
LJ          0.687695       -0.199685        0.466702
LJ          0.352363         3.93177         4.44745
LJ         -0.666989         -1.0257        -1.06286
LJ          0.557849       -0.522744         4.29407
LJ          0.921995         1.85945       -0.700571
LJ           2.99642        0.750455       -0.912619
LJ           -5.1203        0.514834         -3.8457
LJ           3.60548         5.75428         5.38196
LJ         -0.276731         1.16606       -0.706569
LJ          -2.85659         -2.3842          -2.606
LJ           6.22866        -6.30033        -1.09088
LJ           2.17272        0.757559         1.27778
LJ         -0.975282         -1.0307        0.202654
LJ         -0.118697        -2.21163         1.79062
LJ           6.12816         4.49206        -3.40978
LJ         -0.162387        -4.53517       -0.138784
LJ           1.94677      -0.0244038        -2.41542
LJ          0.209455        0.576995        0.904565
LJ           2.83035       -0.254796        -1.26337
LJ           1.32481       -0.868855       -0.133984
LJ          0.103319         -1.7741        -1.53434
LJ         -0.370769       -0.188714        0.433206
LJ           2.00459       0.0729221       -0.407345
LJ           1.54174          2.3175        0.281213
LJ         -0.502046       -0.230254          2.5123
LJ          -1.07148       -0.673068        -1.94225
LJ          -1.46126       -0.447392       -0.545487
LJ           2.45814        -1.12507        0.859152
LJ          -3.70223        -4.47785        -6.13332
LJ           2.52906       -0.563573         2.07225
LJ           2.53084       0.0527941        0.633722
LJ          -2.13622       -0.180845         -1.3003
LJ         -0.855415         0.23735         1.20768
LJ          0.839447         1.51012          3.0325
LJ          -0.28074         1.73513        -2.37161
LJ           5.60666        -4.13815        -1.57865
LJ          0.255757          1.7779         1.03168
LJ           1.08597       -0.177463          1.7482
LJ           3.29872         1.07918         1.18646
LJ          0.897248      -0.0380096       -0.651506
LJ          0.995237         -1.3907        -1.01092
LJ          0.566481       -0.972145         3.26211
LJ           3.48464       -0.396076        0.126021
LJ           1.42367         1.01954       -0.304155
LJ         -0.319238         4.64409        -4.27042
LJ           1.35726        -1.63821         2.24955
LJ           -1.7391       -0.140501        -3.00461
LJ             1.141        0.720812        0.854985
LJ          0.332777       -0.469832        -1.50862
LJ           1.46296        -1.79607         3.35098
LJ           2.43874         1.14214        0.202246
LJ         -0.558642        -5.05085        -2.35257
LJ         -0.196411        0.726164         1.88723
LJ          -1.68814        0.622436         6.36433
LJ           2.57611         1.23122         2.03978
LJ         0.0826743       -0.308786         1.44079
LJ           1.36929         1.73389         1.11875
LJ          -1.88497       0.0604157        0.504869
LJ           1.22174        0.648227         3.54791
LJ          0.362292        -1.28607        0.680097
LJ          0.443447        0.693074       -0.112004
LJ          0.593422          1.7895         5.04934
LJ           1.52636        -2.57796          1.3765
LJ           1.45764       -0.448506        -1.53531
LJ          0.231735       -0.943223       -0.460405
LJ           1.66792        0.622846         2.20403
LJ           1.38608        -1.18691         1.17165
LJ           1.62298         1.71777         2.31728
LJ          -1.12587        0.686935       -0.298536
LJ         -0.967232        -2.02431        0.767401
LJ         0.0842354        0.575233         -1.6722
LJ           0.61838         0.40889         2.59102
LJ         -0.524744        -1.02789          1.1223
LJ         -0.517426         1.20687        0.578408
LJ          0.322238           3.335         2.05661
LJ         -0.426078         1.28918         3.20032
LJ           -1.2725        -1.74468         -1.6738
LJ         -0.868598        -2.02189       -0.257636
LJ           1.41587         1.36525        -2.33551
LJ         -0.245397       0.0680986       -0.596922
LJ         -0.105157         2.60089        0.186019
LJ           2.46909        -2.70386        0.889403
LJ           5.29993         1.20891        -5.60959
LJ           1.87469         5.13387     -0.00749969
LJ          -1.11387        0.353072        -1.45269
LJ           0.97196         4.09598        0.609954
LJ          -2.91422        -1.23186        -4.64137
LJ            1.8946         2.26853        -1.28715
LJ         0.0467383        -3.97395        -1.33593
LJ          0.449226        -2.07102       -0.322519
LJ          -6.36984          -4.897         1.21753
