108
#Comment!
LJ          -1.98511        -1.88625        -1.95875
LJ          -2.30095        -2.27874        -4.78138
LJ          -4.71964        -2.18082        -2.21695
LJ          -2.27182        -4.81292        -2.28979
LJ          0.098719        -3.27413        -2.40979
LJ          0.831073       -0.650195        -3.15377
LJ          0.817358        -1.01681        -1.14167
LJ           1.11454        -2.86783       -0.384978
LJ          0.563373        -2.17552        -2.41033
LJ           1.63568         0.40093       -0.539573
LJ           5.58871         4.65261         4.66253
LJ           1.21902        -0.94472        0.501061
LJ          -1.74366        -1.03835        -2.50582
LJ         -0.119475         1.31307        -2.76761
LJ          -2.56681        0.652314       -0.537445
LJ          -1.10901        0.867708        -1.25222
LJ         -0.770089       -0.521519        -2.20712
LJ        -0.0168611       -0.161914       -0.407939
LJ          -1.48938        0.331658         -2.6825
LJ         -0.142327        -1.61599        -1.83782
LJ           2.08444        -1.62343        -2.96429
LJ           1.11196        -1.26068        -2.21997
LJ         -0.111322       -0.241085        -1.46416
LJ          -6.22868        -4.18233        -5.44506
LJ          -2.11609         1.59367        -2.47451
LJ          0.676894         1.44248       -0.855509
LJ         -0.489505         1.83013        0.765665
LJ           4.75231         5.76303          4.7715
LJ          -1.27549         1.25619        -3.29839
LJ          -1.11117         1.38987        -2.26067
LJ          -4.18277        -6.22795        -5.44534
LJ         -0.496538        0.562489        -2.14114
LJ          0.211171        0.377913        -3.14662
LJ          0.692721         1.06096        -1.96995
LJ         -0.176993         1.81849        -1.59477
LJ           1.42843        0.410709         -2.6406
LJ          -2.02107        -2.80879       -0.333462
LJ          -1.30229        -1.14219        0.630178
LJ          -2.46634       -0.688744        0.969928
LJ         -0.147971        -3.11668         1.39545
LJ         -0.904671        -2.32894       -0.355028
LJ          0.505219        -2.12757        -0.97911
LJ          -1.22653         -3.0275        0.308369
LJ          0.182835       -0.677124        0.449157
LJ           1.48671        -3.09575        -1.52194
LJ          -6.22841         -5.4455        -4.18314
LJ         -0.278745        -1.11926       -0.657073
LJ           1.50565        -1.76884       -0.599661
LJ          -2.72791       -0.424101       -0.138644
LJ          -1.95417        0.799726        -1.87807
LJ         -0.752574       -0.226309        0.448195
LJ           -1.8154        -1.97209         0.17604
LJ         -0.964608       -0.329532       -0.859754
LJ          0.627499        0.613679       -0.214588
LJ        -0.0129778        0.453204        0.604409
LJ           1.08033         0.11618        0.624472
LJ           1.04614       -0.448132       -0.323855
LJ          0.846047        0.141584        -1.10805
LJ           1.71785       -0.204673         -1.4899
LJ          0.637538        -1.55456      -0.0663051
LJ          -3.54065         1.82424       -0.994359
LJ          -5.44508        -6.22851         -4.1825
LJ          -1.86275         1.75302        -1.43014
LJ          -1.95263       0.0393991        -1.00728
LJ            -0.351         1.32421       -0.200598
LJ         -0.125411        0.753501        -1.07747
LJ          -1.25867        0.820412       -0.188292
LJ           -1.0752         1.93419       -0.756697
LJ           3.64216          3.6975         1.90281
LJ           4.45351         4.45316          2.5722
LJ          -1.91076         3.52975         6.25339
LJ           3.52918         -1.9107         6.25308
LJ          -2.19739        -2.51549          1.0126
LJ           4.69786         4.70751         5.64546
LJ         -0.198913          1.1393         1.45003
LJ          0.547849       -0.498074         1.37473
LJ          -1.30302          -3.156         1.58998
LJ         -0.401705         -1.8282        0.330659
LJ          -4.18315        -5.44567        -6.22781
LJ          -1.08131        -2.08984         1.08415
LJ        -0.0187798        -2.91614       -0.101628
LJ           1.45931        -2.03717        0.407978
LJ         0.0482606        -2.14812         1.82643
LJ          0.514191        -2.46724        0.806032
LJ          -3.18189        -1.20116          1.6799
LJ          -1.68621        -1.07869        -0.39807
LJ           -2.0854        -1.58475         1.45241
LJ          -5.44484        -4.18223        -6.22895
LJ         -0.417358       -0.192722         1.58818
LJ          -1.19837        -1.10763         1.77755
LJ          -1.22818        0.404982         1.26291
LJ         -0.277414        -1.29318         1.21654
LJ           3.55474          1.7097         3.60192
LJ           3.53061         6.25151        -1.91109
LJ          -1.91111         6.25261         3.52984
LJ           4.47247         2.55691         4.47142
LJ          -1.83238      -0.0855473        0.353511
LJ          -2.27556         1.75758       -0.109645
LJ          -1.57066         1.55615         1.16904
LJ          -2.78159        0.333993         1.32534
LJ            2.0414         3.69228         3.68085
LJ           6.25773         3.52689         -1.9116
LJ           2.57097         4.45794         4.45854
LJ           6.25408        -1.91097         3.52966
LJ           3.64978         3.65795         3.62963
LJ           3.90493         3.86779        0.140396
LJ          0.105987         3.91804         3.94091
LJ            3.9376        0.186432         3.82619
