108
#Comment!
LJ          -2.51558        -2.51558        -2.51558
LJ          -1.61284        -1.61284        -3.04031
LJ          -3.04031        -1.61284        -1.61284
LJ          -1.61284        -3.04031        -1.61284
LJ          -1.46084        -2.40927        -2.40927
LJ          -1.83713         -2.7654        -3.49122
LJ         -0.195757        -1.34189        -1.34189
LJ          -1.83713        -3.49122         -2.7654
LJ          0.844919        -1.83453        -1.83453
LJ           2.23756       -0.741787        -2.22435
LJ           3.70952         6.34169         6.34169
LJ           2.23756        -2.22435       -0.741787
LJ          -2.40927        -1.46084        -2.40927
LJ           -2.7654        -1.83713        -3.49122
LJ          -3.49122        -1.83713         -2.7654
LJ          -1.34189       -0.195757        -1.34189
LJ         -0.610068       -0.610068        -2.48667
LJ        -0.0433539      -0.0433539        -1.37385
LJ          -1.53437       0.0391919        -3.05487
LJ         0.0391919        -1.53437        -3.05487
LJ           1.60428        0.449866        -3.79876
LJ           1.26909        0.320047        -2.55302
LJ          0.336527       -0.801727         -2.0456
LJ           2.82682        0.858661        -2.44818
LJ          -1.83453        0.844919        -1.83453
LJ         -0.741787         2.23756        -2.22435
LJ          -2.22435         2.23756       -0.741787
LJ           6.34169         3.70952         6.34169
LJ          0.449866         1.60428        -3.79876
LJ          0.320047         1.26909        -2.55302
LJ          0.858661         2.82682        -2.44818
LJ         -0.801727        0.336527         -2.0456
LJ         -0.185911       -0.185911        -3.41068
LJ          0.155795        0.155795        -2.44031
LJ          0.589884         2.28355        -1.02878
LJ           2.28355        0.589884        -1.02878
LJ          -2.40927        -2.40927        -1.46084
LJ          -1.34189        -1.34189       -0.195757
LJ          -3.49122         -2.7654        -1.83713
LJ           -2.7654        -3.49122        -1.83713
LJ         -0.610068        -2.48667       -0.610068
LJ         0.0391918        -3.05487        -1.53437
LJ          -1.53437        -3.05487       0.0391917
LJ        -0.0433538        -1.37385      -0.0433538
LJ           1.60428        -3.79876        0.449866
LJ           2.82682        -2.44818        0.858661
LJ          0.336527         -2.0456       -0.801727
LJ           1.26909        -2.55302        0.320047
LJ          -2.48667       -0.610068       -0.610068
LJ          -3.05487        0.039192        -1.53437
LJ          -1.37385      -0.0433539      -0.0433539
LJ          -3.05487        -1.53437       0.0391921
LJ         -0.543638       -0.543638       -0.543638
LJ          0.411514        0.411514       -0.473475
LJ         -0.473475        0.411514        0.411514
LJ          0.411514       -0.473475        0.411514
LJ          0.684763        -0.88244        -0.88244
LJ           0.96748      -0.0252674        -1.58098
LJ           1.53322       0.0752296       0.0752296
LJ           0.96748        -1.58098      -0.0252674
LJ          -3.79876         1.60428        0.449866
LJ          -2.44818         2.82682        0.858661
LJ          -2.55302         1.26909        0.320047
LJ           -2.0456        0.336527       -0.801727
LJ          -0.88244        0.684763        -0.88244
LJ        -0.0252673         0.96748        -1.58098
LJ          -1.58098         0.96748      -0.0252674
LJ         0.0752296         1.53322       0.0752296
LJ           1.09363         1.09363        0.190051
LJ           1.07416         1.07416         -1.3259
LJ           1.84236         2.63485        -1.45257
LJ           2.63485         1.84236        -1.45257
LJ          -1.83453        -1.83453        0.844919
LJ           6.34169         6.34169         3.70952
LJ          -2.22435       -0.741787         2.23756
LJ         -0.741787        -2.22435         2.23756
LJ          0.449866        -3.79876         1.60428
LJ         -0.801727         -2.0456        0.336527
LJ          0.858661        -2.44818         2.82682
LJ          0.320047        -2.55302         1.26909
LJ         -0.185911        -3.41068       -0.185911
LJ           2.28355        -1.02878        0.589884
LJ          0.589884        -1.02878         2.28355
LJ          0.155795        -2.44031        0.155795
LJ          -3.79876        0.449866         1.60428
LJ           -2.0456       -0.801727        0.336527
LJ          -2.55302        0.320047         1.26909
LJ          -2.44818        0.858661         2.82682
LJ          -0.88244        -0.88244        0.684763
LJ         0.0752296       0.0752297         1.53322
LJ          -1.58098      -0.0252675         0.96748
LJ        -0.0252675        -1.58098         0.96748
LJ           1.09363        0.190051         1.09363
LJ           2.63485        -1.45257         1.84236
LJ           1.84236        -1.45257         2.63485
LJ           1.07416         -1.3259         1.07416
LJ          -3.41068       -0.185911       -0.185911
LJ          -1.02878         2.28355        0.589884
LJ          -2.44031        0.155795        0.155795
LJ          -1.02878        0.589884         2.28355
LJ           0.19005         1.09363         1.09363
LJ          -1.45257         2.63485         1.84236
LJ           -1.3259         1.07416         1.07416
LJ          -1.45257         1.84236         2.63485
LJ           2.59098         2.59098         2.59098
LJ           1.93687         1.93687       -0.692446
LJ         -0.692446         1.93687         1.93687
LJ           1.93687       -0.692446         1.93687
