108
#Comment!
LJ          -1.72966        -1.72966        -1.72966
LJ          -2.00709        -2.00709        -3.31304
LJ          -3.31304        -2.00709        -2.00709
LJ          -2.00709        -3.31304        -2.00709
LJ          -1.89477         -3.1056         -3.1056
LJ          0.156637        -2.40608        -3.93875
LJ          -1.07901        -2.30179        -2.30179
LJ          0.156637        -3.93875        -2.40608
LJ          0.617497        -2.89498        -2.89498
LJ           1.81594        -1.69487        -2.89249
LJ          0.975291        -2.05562        -2.05562
LJ           1.81594        -2.89249        -1.69487
LJ           -3.1056        -1.89477         -3.1056
LJ          -2.40608        0.156637        -3.93875
LJ          -3.93875        0.156637        -2.40608
LJ          -2.30179        -1.07901        -2.30179
LJ         -0.989544       -0.989544        -2.59133
LJ        -0.0910928      -0.0910928        -2.59313
LJ         -0.977149       -0.101885        -1.86168
LJ         -0.101885       -0.977149        -1.86168
LJ           1.33002        -1.23374        -3.93743
LJ           2.02955        0.817304          -3.106
LJ           1.22653      0.00176609        -2.30391
LJ           2.86063        -1.23351        -2.40584
LJ          -2.89498        0.617497        -2.89498
LJ          -1.69487         1.81594        -2.89249
LJ          -2.89249         1.81594        -1.69487
LJ          -2.05562        0.975291        -2.05562
LJ          -1.23374         1.33002        -3.93743
LJ          0.817304         2.02955          -3.106
LJ          -1.23351         2.86063        -2.40584
LJ        0.00176609         1.22653        -2.30391
LJ          0.931739        0.931739        -3.31482
LJ          0.654457        0.654457        -1.73128
LJ          0.931527         2.23723        -2.00807
LJ           2.23723        0.931527        -2.00807
LJ           -3.1056         -3.1056        -1.89477
LJ          -2.30179        -2.30179        -1.07901
LJ          -3.93875        -2.40608        0.156637
LJ          -2.40608        -3.93875        0.156637
LJ         -0.989544        -2.59133       -0.989544
LJ         -0.101885        -1.86168       -0.977149
LJ         -0.977149        -1.86168       -0.101885
LJ        -0.0910928        -2.59313      -0.0910928
LJ           1.33002        -3.93743        -1.23374
LJ           2.86063        -2.40584        -1.23351
LJ           1.22653        -2.30391      0.00176609
LJ           2.02955          -3.106        0.817304
LJ          -2.59133       -0.989544       -0.989544
LJ          -1.86168       -0.101885       -0.977149
LJ          -2.59313      -0.0910928      -0.0910928
LJ          -1.86168       -0.977149       -0.101885
LJ          -1.00197        -1.00197        -1.00197
LJ        -0.0757694      -0.0757694        -1.00065
LJ          -1.00065      -0.0757694      -0.0757694
LJ        -0.0757694        -1.00065      -0.0757694
LJ          0.781631       -0.977056       -0.977056
LJ           1.51452      -0.0888611       -0.987471
LJ          0.784014       -0.100976       -0.100976
LJ           1.51452       -0.987471      -0.0888611
LJ          -3.93743         1.33002        -1.23374
LJ          -2.40584         2.86063        -1.23351
LJ            -3.106         2.02955        0.817304
LJ          -2.30391         1.22653      0.00176609
LJ         -0.977056        0.781631       -0.977056
LJ        -0.0888611         1.51452       -0.987471
LJ         -0.987471         1.51452      -0.0888611
LJ         -0.100976        0.784014       -0.100976
LJ           1.22643         1.22643        -1.07915
LJ           2.02973         2.02973        -1.89491
LJ           1.32942         2.86118        0.156252
LJ           2.86118         1.32942        0.156252
LJ          -2.89498        -2.89498        0.617497
LJ          -2.05562        -2.05562        0.975291
LJ          -2.89249        -1.69487         1.81594
LJ          -1.69487        -2.89249         1.81594
LJ          -1.23374        -3.93743         1.33002
LJ        0.00176609        -2.30391         1.22653
LJ          -1.23351        -2.40584         2.86063
LJ          0.817304          -3.106         2.02955
LJ          0.931739        -3.31482        0.931739
LJ           2.23723        -2.00807        0.931527
LJ          0.931527        -2.00807         2.23723
LJ          0.654457        -1.73128        0.654457
LJ          -3.93743        -1.23374         1.33002
LJ          -2.30391      0.00176609         1.22653
LJ            -3.106        0.817304         2.02955
LJ          -2.40584        -1.23351         2.86063
LJ         -0.977056       -0.977056        0.781631
LJ         -0.100976       -0.100976        0.784014
LJ         -0.987471      -0.0888611         1.51452
LJ        -0.0888611       -0.987471         1.51452
LJ           1.22643        -1.07915         1.22643
LJ           2.86118        0.156252         1.32942
LJ           1.32942        0.156252         2.86118
LJ           2.02973        -1.89491         2.02973
LJ          -3.31482        0.931739        0.931739
LJ          -2.00807         2.23723        0.931527
LJ          -1.73128        0.654457        0.654457
LJ          -2.00807        0.931527         2.23723
LJ          -1.07915         1.22643         1.22643
LJ          0.156252         2.86118         1.32942
LJ          -1.89491         2.02973         2.02973
LJ          0.156252         1.32942         2.86118
LJ          0.977747        0.977747        0.977747
LJ           1.81652         1.81652        0.617522
LJ          0.617522         1.81652         1.81652
LJ           1.81652        0.617522         1.81652
