108
#Comment!
LJ          -2.58589        -2.58589        -2.58589
LJ          -1.62841        -1.62841        -3.14629
LJ          -3.14629        -1.62841        -1.62841
LJ          -1.62841        -3.14629        -1.62841
LJ          -1.16965        -2.64369        -2.64369
LJ          -1.67726        -2.77447         -3.6451
LJ         -0.386696        -1.47486        -1.47486
LJ          -1.67726         -3.6451        -2.77447
LJ          0.588117        -1.89983        -1.89983
LJ           2.19887        -0.74976        -2.42457
LJ           3.43641        -6.10012        -6.10012
LJ           2.19887        -2.42457        -0.74976
LJ          -2.64369        -1.16965        -2.64369
LJ          -2.77447        -1.67726         -3.6451
LJ           -3.6451        -1.67726        -2.77447
LJ          -1.47486       -0.386696        -1.47486
LJ         -0.708918       -0.708918        -2.31392
LJ       -0.00208587     -0.00208588        -1.23232
LJ          -1.26225       -0.149579        -3.02842
LJ         -0.149579        -1.26225        -3.02842
LJ           1.71218        0.373038        -3.71521
LJ           1.38404        0.645131        -2.71323
LJ          0.444508       -0.835719        -1.94776
LJ           2.55213         0.66709        -2.69841
LJ          -1.89983        0.588117        -1.89983
LJ          -0.74976         2.19887        -2.42457
LJ          -2.42457         2.19887        -0.74976
LJ          -6.10012         3.43641        -6.10012
LJ          0.373038         1.71218        -3.71521
LJ          0.645131         1.38404        -2.71323
LJ           0.66709         2.55213        -2.69841
LJ         -0.835719        0.444508        -1.94776
LJ          -0.22999        -0.22999        -3.30022
LJ          0.244996        0.244996         -2.3437
LJ          0.712116         2.18665       -0.792873
LJ           2.18665        0.712116       -0.792873
LJ          -2.64369        -2.64369        -1.16965
LJ          -1.47486        -1.47486       -0.386696
LJ           -3.6451        -2.77447        -1.67726
LJ          -2.77447         -3.6451        -1.67726
LJ         -0.708918        -2.31392       -0.708918
LJ         -0.149579        -3.02842        -1.26225
LJ          -1.26225        -3.02842       -0.149579
LJ       -0.00208582        -1.23232     -0.00208583
LJ           1.71218        -3.71521        0.373038
LJ           2.55213        -2.69841         0.66709
LJ          0.444508        -1.94776       -0.835719
LJ           1.38404        -2.71323        0.645131
LJ          -2.31392       -0.708918       -0.708918
LJ          -3.02842       -0.149579        -1.26225
LJ          -1.23232     -0.00208591     -0.00208589
LJ          -3.02842        -1.26225       -0.149579
LJ          -0.67138        -0.67138        -0.67138
LJ          0.426157        0.426157       -0.377094
LJ         -0.377094        0.426157        0.426157
LJ          0.426157       -0.377094        0.426157
LJ          0.497196       -0.836359       -0.836359
LJ           1.16581      -0.0172774        -1.64442
LJ            1.3644       0.0240196       0.0240196
LJ           1.16581        -1.64442      -0.0172774
LJ          -3.71521         1.71218        0.373038
LJ          -2.69841         2.55213         0.66709
LJ          -2.71323         1.38404        0.645131
LJ          -1.94776        0.444508       -0.835719
LJ         -0.836359        0.497196       -0.836359
LJ        -0.0172774         1.16581        -1.64442
LJ          -1.64442         1.16581      -0.0172774
LJ         0.0240196          1.3644       0.0240196
LJ           1.13576         1.13576       -0.348849
LJ           1.03164         1.03164        -1.41874
LJ           1.91039         2.76131        -1.25619
LJ           2.76131         1.91039        -1.25619
LJ          -1.89983        -1.89983        0.588117
LJ          -6.10012        -6.10012         3.43641
LJ          -2.42457        -0.74976         2.19887
LJ          -0.74976        -2.42457         2.19887
LJ          0.373038        -3.71521         1.71218
LJ         -0.835719        -1.94776        0.444508
LJ           0.66709        -2.69841         2.55213
LJ          0.645131        -2.71323         1.38404
LJ          -0.22999        -3.30022        -0.22999
LJ           2.18665       -0.792873        0.712116
LJ          0.712116       -0.792873         2.18665
LJ          0.244996         -2.3437        0.244996
LJ          -3.71521        0.373038         1.71218
LJ          -1.94776       -0.835719        0.444508
LJ          -2.71323        0.645131         1.38404
LJ          -2.69841         0.66709         2.55213
LJ         -0.836359       -0.836359        0.497196
LJ         0.0240196       0.0240196          1.3644
LJ          -1.64442      -0.0172774         1.16581
LJ        -0.0172774        -1.64442         1.16581
LJ           1.13576       -0.348849         1.13576
LJ           2.76131        -1.25619         1.91039
LJ           1.91039        -1.25619         2.76131
LJ           1.03164        -1.41874         1.03164
LJ          -3.30022        -0.22999        -0.22999
LJ         -0.792873         2.18665        0.712116
LJ           -2.3437        0.244996        0.244996
LJ         -0.792873        0.712116         2.18665
LJ         -0.348849         1.13576         1.13576
LJ          -1.25619         2.76131         1.91039
LJ          -1.41874         1.03164         1.03164
LJ          -1.25619         1.91039         2.76131
LJ           2.24556         2.24556         2.24556
LJ            1.9567          1.9567       -0.358276
LJ         -0.358276          1.9567          1.9567
LJ            1.9567       -0.358276          1.9567
