108
#Comment!
LJ          -3.97224        -3.96924        -3.97119
LJ         -0.332977       -0.334716        -4.01951
LJ          -4.02072       -0.332746       -0.332165
LJ         -0.330245        -4.01859        -0.33362
LJ         -0.808007        -2.99665        -2.99899
LJ          0.734622        -0.40008        -3.17752
LJ           0.39279        -1.20579        -1.20572
LJ          0.733961        -3.17935       -0.398814
LJ           1.34143        -2.10528        -2.10526
LJ            1.6088        0.247551       -0.515448
LJ          -2.66867         5.03263         5.03263
LJ           1.60807       -0.515909         0.24775
LJ          -3.00483       -0.809812        -3.00427
LJ         -0.397661        0.735001        -3.17947
LJ          -3.17857        0.735902       -0.398944
LJ          -1.20828        0.389992        -1.20752
LJ          -1.03764        -1.03861        -2.89975
LJ         -0.140753       -0.137851        -1.04142
LJ          -1.82915       0.0565429        -2.61531
LJ         0.0604011        -1.83062        -2.61086
LJ           2.13678       -0.431851         -2.2529
LJ           1.04063        -1.07817        -1.99996
LJ          -0.03751       -0.853318        -2.26562
LJ           4.71239        -2.43507        -3.67491
LJ          -2.10562         1.34235        -2.10373
LJ          0.247425         1.60595       -0.519852
LJ         -0.517917         1.60692        0.243472
LJ           5.03263        -2.66867         5.03263
LJ         -0.430273         2.13673        -2.25539
LJ          -1.07779         1.04217        -1.99718
LJ          -2.43524         4.71272        -3.67499
LJ         -0.853874      -0.0378304        -2.26413
LJ          0.276115        0.277453        -2.27947
LJ          0.583631        0.582819        -3.49251
LJ           0.29514         2.36877        -1.45415
LJ           2.36281        0.294085        -1.45583
LJ          -3.00462        -3.00124       -0.809415
LJ          -1.20858        -1.20735        0.390817
LJ          -3.17844       -0.400539        0.734467
LJ         -0.398269        -3.18046         0.73408
LJ          -1.03843        -2.89907        -1.03829
LJ         0.0590235         -2.6121         -1.8296
LJ          -1.82832        -2.61384       0.0551636
LJ         -0.141614        -1.04089       -0.139218
LJ           2.13535        -2.25027       -0.431226
LJ            4.7125         -3.6751        -2.43544
LJ        -0.0371219        -2.26405       -0.852675
LJ           1.04076         -2.0003        -1.07792
LJ          -2.90319        -1.03808        -1.03718
LJ          -2.61293       0.0579586        -1.83027
LJ          -1.03895       -0.139708       -0.140685
LJ          -2.61143        -1.82946       0.0598655
LJ           -2.1045        -2.11044        -2.10658
LJ          0.662146        0.659884       -0.926982
LJ           -0.9269        0.661898        0.663415
LJ          0.662514       -0.930448        0.661884
LJ          0.651091       -0.202683        -0.20053
LJ          0.875452       -0.129638         -1.4469
LJ           1.42035       -0.927616       -0.928001
LJ          0.873168        -1.44737       -0.130963
LJ          -2.25809         2.13951       -0.430295
LJ          -3.67492         4.71253        -2.43515
LJ          -1.99894         1.04145        -1.07841
LJ           -2.2652      -0.0381073       -0.853119
LJ         -0.199911        0.650959       -0.201295
LJ          -0.12831        0.875179        -1.44541
LJ          -1.44629        0.875659       -0.126432
LJ         -0.925086          1.4173       -0.922675
LJ           2.66244         2.66231         1.77544
LJ           2.86582         2.86615        0.621131
LJ         -0.252115          2.7285        -4.69758
LJ           2.72833       -0.252134        -4.69764
LJ           -2.1061         -2.1056         1.34162
LJ           5.03263         5.03263        -2.66867
LJ         -0.516136        0.244022         1.60756
LJ           0.25076       -0.517098         1.60558
LJ         -0.429701        -2.25323           2.136
LJ         -0.852729        -2.26194      -0.0378557
LJ          -2.43544        -3.67517         4.71275
LJ          -1.07798        -1.99795          1.0424
LJ          0.275792        -2.28114        0.277422
LJ           2.36448        -1.45496        0.296096
LJ          0.294811        -1.45368         2.36649
LJ          0.583713         -3.4932        0.583764
LJ          -2.25659       -0.431921         2.13858
LJ          -2.26612       -0.851795      -0.0378986
LJ          -1.99946        -1.07885         1.04094
LJ          -3.67484        -2.43504         4.71231
LJ         -0.198766       -0.201991        0.651147
LJ         -0.926447       -0.923665         1.41855
LJ          -1.44841        -0.12709        0.875125
LJ         -0.129906        -1.44592        0.874576
LJ           2.66196         1.77533         2.66215
LJ           2.72878          -4.698       -0.252313
LJ         -0.252313        -4.69784         2.72859
LJ           2.86552        0.620766         2.86565
LJ          -2.27962        0.276344        0.275872
LJ          -1.45394         2.36557        0.294418
LJ          -3.49208        0.582762        0.582982
LJ          -1.45456        0.295297         2.36383
LJ           1.77553         2.66214         2.66246
LJ          -4.69664         2.72782       -0.252428
LJ          0.621028          2.8661         2.86578
LJ          -4.69733         -0.2522          2.7285
LJ          -5.72985        -5.72985        -5.72985
LJ           1.44469         1.44217        -1.15749
LJ          -1.16113          1.4438         1.44494
LJ           1.44681        -1.15555         1.44083
