108
#Comment!
LJ          -2.54037        -2.54037        -2.54037
LJ            -1.658          -1.658        -3.05602
LJ          -3.05602          -1.658          -1.658
LJ            -1.658        -3.05602          -1.658
LJ          -1.39625        -2.44528        -2.44528
LJ          -1.88485        -2.65719        -3.54036
LJ         -0.236041         -1.3405         -1.3405
LJ          -1.88485        -3.54036        -2.65719
LJ           0.81548        -1.86247        -1.86247
LJ           2.23956       -0.752927        -2.26675
LJ           3.65489         6.43865         6.43865
LJ           2.23956        -2.26675       -0.752927
LJ          -2.44528        -1.39625        -2.44528
LJ          -2.65719        -1.88485        -3.54036
LJ          -3.54036        -1.88485        -2.65719
LJ           -1.3405       -0.236041         -1.3405
LJ          -0.63205        -0.63205        -2.50734
LJ        0.00876726      0.00876723        -1.33478
LJ           -1.4894     -0.00266727        -3.06122
LJ       -0.00266727         -1.4894        -3.06122
LJ           1.63137        0.432508         -3.7984
LJ           1.26097        0.374549        -2.55091
LJ           0.38242       -0.774976        -2.01562
LJ           2.78423        0.823032        -2.50301
LJ          -1.86247         0.81548        -1.86247
LJ         -0.752927         2.23956        -2.26675
LJ          -2.26675         2.23956       -0.752927
LJ           6.43865         3.65489         6.43865
LJ          0.432508         1.63137         -3.7984
LJ          0.374549         1.26097        -2.55091
LJ          0.823032         2.78423        -2.50301
LJ         -0.774976         0.38242        -2.01562
LJ         -0.199817       -0.199817        -3.39317
LJ          0.194021        0.194021        -2.41237
LJ          0.600448         2.28939       -0.982502
LJ           2.28939        0.600448       -0.982502
LJ          -2.44528        -2.44528        -1.39625
LJ           -1.3405         -1.3405       -0.236041
LJ          -3.54036        -2.65719        -1.88485
LJ          -2.65719        -3.54036        -1.88485
LJ          -0.63205        -2.50734        -0.63205
LJ        -0.0026674        -3.06122         -1.4894
LJ           -1.4894        -3.06122     -0.00266744
LJ        0.00876733        -1.33478      0.00876734
LJ           1.63137         -3.7984        0.432508
LJ           2.78423        -2.50301        0.823032
LJ           0.38242        -2.01562       -0.774976
LJ           1.26097        -2.55091        0.374549
LJ          -2.50734        -0.63205        -0.63205
LJ          -3.06122     -0.00266718         -1.4894
LJ          -1.33478      0.00876718      0.00876719
LJ          -3.06122         -1.4894     -0.00266715
LJ         -0.620298       -0.620299       -0.620298
LJ          0.428467        0.428467       -0.392992
LJ         -0.392992        0.428467        0.428467
LJ          0.428467       -0.392992        0.428467
LJ          0.612358       -0.868439       -0.868439
LJ           0.95747       0.0093603        -1.63031
LJ           1.51759       0.0692644       0.0692644
LJ           0.95747        -1.63031      0.00936029
LJ           -3.7984         1.63137        0.432508
LJ          -2.50301         2.78423        0.823032
LJ          -2.55091         1.26097        0.374549
LJ          -2.01562         0.38242       -0.774976
LJ         -0.868439        0.612358       -0.868439
LJ        0.00936033         0.95747        -1.63031
LJ          -1.63031         0.95747      0.00936026
LJ         0.0692644         1.51759       0.0692644
LJ           1.11212         1.11212       0.0298572
LJ           1.03412         1.03412        -1.33863
LJ           1.89552          2.6343        -1.40925
LJ            2.6343         1.89552        -1.40925
LJ          -1.86247        -1.86247         0.81548
LJ           6.43865         6.43865         3.65489
LJ          -2.26675       -0.752927         2.23956
LJ         -0.752927        -2.26675         2.23956
LJ          0.432508         -3.7984         1.63137
LJ         -0.774976        -2.01562         0.38242
LJ          0.823032        -2.50301         2.78423
LJ          0.374549        -2.55091         1.26097
LJ         -0.199817        -3.39317       -0.199817
LJ           2.28939       -0.982502        0.600448
LJ          0.600449       -0.982502         2.28939
LJ          0.194021        -2.41237        0.194021
LJ           -3.7984        0.432508         1.63137
LJ          -2.01562       -0.774976         0.38242
LJ          -2.55091        0.374549         1.26097
LJ          -2.50301        0.823032         2.78423
LJ         -0.868439       -0.868439        0.612358
LJ         0.0692644       0.0692644         1.51759
LJ          -1.63031      0.00936022         0.95747
LJ        0.00936025        -1.63031         0.95747
LJ           1.11212       0.0298571         1.11212
LJ            2.6343        -1.40925         1.89552
LJ           1.89552        -1.40925          2.6343
LJ           1.03412        -1.33863         1.03412
LJ          -3.39317       -0.199817       -0.199817
LJ         -0.982502         2.28939        0.600448
LJ          -2.41237        0.194021        0.194021
LJ         -0.982502        0.600448         2.28939
LJ          0.029857         1.11212         1.11212
LJ          -1.40925          2.6343         1.89552
LJ          -1.33863         1.03412         1.03412
LJ          -1.40925         1.89552          2.6343
LJ           2.52212         2.52212         2.52212
LJ           1.91493         1.91493       -0.617647
LJ         -0.617647         1.91493         1.91493
LJ           1.91493       -0.617647         1.91493
