108
#Comment!
LJ            -2.941          -2.941          -2.941
LJ            -1.117          -1.117        -3.19448
LJ          -3.19448          -1.117          -1.117
LJ            -1.117        -3.19448          -1.117
LJ          -1.36877        -2.26061        -2.26061
LJ         -0.862216        -2.11202        -3.78766
LJ         -0.247816        -1.35974        -1.35974
LJ         -0.862216        -3.78766        -2.11202
LJ          0.984757        -1.62298        -1.62298
LJ           2.11072        -0.43462        -1.66364
LJ           4.28106         5.08027         5.08027
LJ           2.11072        -1.66364       -0.434621
LJ          -2.26061        -1.36877        -2.26061
LJ          -2.11202       -0.862216        -3.78766
LJ          -3.78766       -0.862216        -2.11202
LJ          -1.35974       -0.247814        -1.35974
LJ         -0.827105       -0.827106        -2.27414
LJ         -0.277988       -0.277987        -1.50803
LJ          -1.66691       0.0811878        -2.48714
LJ         0.0811884        -1.66691        -2.48714
LJ           1.21189        0.435975        -3.35979
LJ           1.43453       -0.595909        -2.50944
LJ          0.383983       -0.783939        -2.02306
LJ           3.28213        0.124106        -2.28424
LJ          -1.62298        0.984758        -1.62298
LJ          -0.43462         2.11072        -1.66364
LJ          -1.66364         2.11072       -0.434619
LJ           5.08027         4.28106         5.08027
LJ          0.435974         1.21189        -3.35979
LJ         -0.595912         1.43453        -2.50944
LJ          0.124105         3.28212        -2.28424
LJ         -0.783939        0.383984        -2.02306
LJ        -0.0627376      -0.0627374         -2.8742
LJ          0.655361         0.65536         -2.4964
LJ          0.782465         1.93579        -2.02582
LJ           1.93579        0.782465        -2.02582
LJ          -2.26061        -2.26061        -1.36877
LJ          -1.35974        -1.35974       -0.247815
LJ          -3.78766        -2.11202       -0.862216
LJ          -2.11202        -3.78766       -0.862216
LJ         -0.827105        -2.27414       -0.827107
LJ         0.0811866        -2.48714        -1.66691
LJ          -1.66691        -2.48714        0.081186
LJ         -0.277989        -1.50803       -0.277988
LJ           1.21189        -3.35979        0.435974
LJ           3.28213        -2.28424        0.124106
LJ          0.383983        -2.02306       -0.783938
LJ           1.43453        -2.50944       -0.595908
LJ          -2.27414       -0.827105       -0.827104
LJ          -2.48714        0.081188        -1.66691
LJ          -1.50803       -0.277986       -0.277987
LJ          -2.48714        -1.66691       0.0811893
LJ         -0.508866       -0.508866       -0.508866
LJ          0.186638        0.186638       -0.707207
LJ         -0.707206        0.186638        0.186638
LJ          0.186637       -0.707209        0.186638
LJ          0.641094       -0.909368       -0.909367
LJ          0.818475       0.0496467        -1.52969
LJ            1.1669       -0.107184        -0.10718
LJ          0.818474        -1.52969       0.0496486
LJ          -3.35979         1.21189        0.435974
LJ          -2.28424         3.28213        0.124105
LJ          -2.50944         1.43453       -0.595912
LJ          -2.02306        0.383984       -0.783938
LJ         -0.909367        0.641094       -0.909367
LJ         0.0496476        0.818476        -1.52969
LJ          -1.52969        0.818476       0.0496467
LJ         -0.107183         1.16691       -0.107183
LJ          0.936702        0.936702        0.184104
LJ           1.22722         1.22722       -0.969191
LJ           1.74413         2.70511        -2.09702
LJ           2.70511         1.74413        -2.09702
LJ          -1.62298        -1.62298        0.984757
LJ           5.08027         5.08027         4.28106
LJ          -1.66364        -0.43462         2.11072
LJ         -0.434621        -1.66364         2.11072
LJ          0.435974        -3.35979         1.21189
LJ         -0.783938        -2.02306        0.383984
LJ          0.124105        -2.28424         3.28213
LJ          -0.59591        -2.50944         1.43453
LJ         -0.062738         -2.8742      -0.0627374
LJ           1.93579        -2.02582        0.782464
LJ          0.782465        -2.02582         1.93579
LJ          0.655361         -2.4964         0.65536
LJ          -3.35979        0.435975         1.21189
LJ          -2.02306       -0.783939        0.383983
LJ          -2.50944       -0.595911         1.43453
LJ          -2.28424        0.124106         3.28213
LJ         -0.909367       -0.909367        0.641093
LJ         -0.107182       -0.107186         1.16691
LJ          -1.52969       0.0496463        0.818475
LJ         0.0496492        -1.52969        0.818476
LJ          0.936702        0.184108        0.936703
LJ           2.70511        -2.09702         1.74413
LJ           1.74413        -2.09702         2.70511
LJ           1.22722        -0.96919         1.22722
LJ           -2.8742      -0.0627373      -0.0627376
LJ          -2.02582         1.93579        0.782463
LJ           -2.4964         0.65536         0.65536
LJ          -2.02582        0.782463         1.93579
LJ          0.184103        0.936701        0.936702
LJ          -2.09702         2.70511         1.74413
LJ         -0.969192         1.22722         1.22722
LJ          -2.09702         1.74413         2.70511
LJ           3.55207         3.55207         3.55207
LJ           1.96179         1.96179        -0.79691
LJ          -0.79691         1.96179         1.96179
LJ           1.96179       -0.796911         1.96179
