108
#Comment!
LJ          -2.79871        -2.79871        -2.79871
LJ         -0.188982       -0.188917        -3.21831
LJ          -3.21838       -0.188917       -0.188927
LJ         -0.188727        -3.21816       -0.188929
LJ        -0.0886145        -2.70367        -2.70398
LJ          0.842182       -0.745318        -3.04256
LJ          0.325156        -1.63247        -1.63259
LJ          0.842385        -3.04251       -0.745042
LJ          0.737583        -2.35251        -2.35214
LJ           1.36429        0.213341       -0.522812
LJ           -1.0903         5.05463         5.05463
LJ           1.36457        -0.52317          0.2133
LJ          -2.70487       -0.088876        -2.70463
LJ         -0.745385        0.842102        -3.04182
LJ          -3.04187        0.841904       -0.745659
LJ          -1.63199        0.324265        -1.63204
LJ         -0.614377       -0.614326        -2.40099
LJ         -0.388777       -0.388614        -1.22071
LJ          -1.52757         -0.1954        -2.66854
LJ         -0.195446        -1.52602        -2.66885
LJ           1.41916      -0.0289145        -2.18654
LJ           1.31293        -1.39222        -2.17671
LJ          0.395847       -0.627387        -2.11672
LJ           4.19548        -2.04671        -3.14707
LJ          -2.35176        0.735629        -2.35157
LJ          0.213034         1.36539       -0.523071
LJ         -0.522807         1.36489        0.212814
LJ           5.05463         -1.0903         5.05463
LJ        -0.0285821         1.41966        -2.18658
LJ          -1.39186          1.3131         -2.1762
LJ          -2.04683         4.19569        -3.14712
LJ         -0.627019        0.395744        -2.11595
LJ          0.534309        0.534039        -2.39772
LJ          0.972597         0.97255        -3.36076
LJ         0.0731398         2.14822         -1.2634
LJ           2.14614       0.0730506        -1.26274
LJ          -2.70482        -2.70411      -0.0888958
LJ          -1.63202         -1.6319        0.324622
LJ           -3.0421       -0.745497         0.84195
LJ          -0.74497        -3.04192        0.842171
LJ         -0.614358        -2.40106       -0.614351
LJ         -0.195378        -2.66915         -1.5262
LJ          -1.52744        -2.66861       -0.195377
LJ         -0.388674        -1.22092       -0.388307
LJ           1.41938        -2.18663      -0.0290898
LJ           4.19555         -3.1472        -2.04697
LJ          0.395921        -2.11639       -0.627105
LJ           1.31267        -2.17721        -1.39205
LJ           -2.4015       -0.614452       -0.614228
LJ           -2.6682       -0.195638        -1.52741
LJ          -1.22075       -0.388997       -0.389106
LJ          -2.66804        -1.52704       -0.195246
LJ          -2.20707        -2.20813        -2.20745
LJ          0.227837        0.228023       -0.663393
LJ         -0.663419        0.227861        0.227773
LJ          0.227278         -0.6638        0.227453
LJ          0.645217       -0.951063       -0.951144
LJ          0.800216      -0.0265976        -1.43588
LJ            1.7032        -1.18433        -1.18424
LJ          0.800705        -1.43521      -0.0264417
LJ           -2.1866         1.41963      -0.0282966
LJ          -3.14707         4.19557        -2.04677
LJ          -2.17614         1.31344        -1.39212
LJ          -2.11616        0.395627       -0.627323
LJ         -0.951779          0.6458       -0.951642
LJ        -0.0262383        0.801243        -1.43492
LJ          -1.43555        0.800997      -0.0263477
LJ          -1.18388         1.70545        -1.18393
LJ            2.3718         2.37175         1.54201
LJ            2.3084         2.30856        0.313875
LJ           0.18184         2.48002        -4.13412
LJ           2.47991        0.181795        -4.13411
LJ          -2.35159        -2.35189        0.736143
LJ           5.05463         5.05463         -1.0903
LJ         -0.522697        0.212983         1.36434
LJ          0.213255       -0.523134         1.36525
LJ        -0.0289812        -2.18667         1.41962
LJ         -0.626795        -2.11591        0.395825
LJ          -2.04696        -3.14725         4.19571
LJ          -1.39191        -2.17675         1.31268
LJ          0.534312        -2.39797        0.534187
LJ           2.14719        -1.26298       0.0731889
LJ         0.0730156        -1.26337         2.14795
LJ          0.972709        -3.36078        0.972866
LJ          -2.18672       -0.028917         1.41919
LJ          -2.11661       -0.627532        0.395945
LJ           -2.1764        -1.39229         1.31349
LJ          -3.14702        -2.04669         4.19542
LJ          -0.95144       -0.951287        0.645112
LJ          -1.18427        -1.18373         1.70412
LJ          -1.43593      -0.0265946        0.800557
LJ        -0.0261426        -1.43492         0.80143
LJ            2.3717         1.54208         2.37169
LJ           2.48011        -4.13427        0.181699
LJ          0.181708        -4.13426         2.48006
LJ            2.3083        0.313489         2.30836
LJ           -2.3976         0.53407        0.534146
LJ          -1.26313         2.14729       0.0730567
LJ          -3.36075        0.972573        0.972567
LJ           -1.2628       0.0734393         2.14651
LJ            1.5421         2.37183         2.37184
LJ          -4.13371         2.47976        0.181653
LJ          0.313651         2.30852         2.30837
LJ          -4.13394        0.181766         2.48003
LJ           6.35396         6.35396         6.35396
LJ           1.06038         1.05989        -1.80666
LJ          -1.80693         1.06026         1.06039
LJ           1.06042        -1.80687         1.05971
