108
#Comment!
LJ  -0.35897160326450317   0.35590868325221403   -0.20290647954660013
LJ  -0.2361817288251904   -0.19639773043928063   -0.19405643813138373
LJ  -0.26224096339461356   0.25529910745909429   0.11632402360672185
LJ  0.2476213343132993   0.14243843125021455   -0.23035465726974294
LJ  -0.024378671692193741   -0.044554536364677905   0.41696548318968624
LJ  0.095128532203049926   0.46381709684254524   0.23883575421677508
LJ  0.37808858224309438   0.49007058183029717   0.05169615644925845
LJ  -0.40650399894792333   -0.19724201949529466   0.41658057202834159
LJ  -0.33262722177361154   -0.45175038691435365   -0.48319504569809496
LJ  -0.40602539956162692   -0.27730892075527258   0.22365426705013941
LJ  0.28579855131476073   0.28615044510023563   -0.087453022040384368
LJ  -0.35513053415290347   0.15973632608704347   0.42968680930539521
LJ  0.40826294064475777   -0.19735925702638743   -0.14089664483866907
LJ  -0.18462400431057063   0.064709134981813465   0.1799117110141214
LJ  0.37524200960490073   0.0036544690134419065   -0.091544029832306098
LJ  -0.23790099525583769   0.40860122884101735   -0.034257338157471291
LJ  0.05188006376488357   -0.37677822440577469   -0.18615848058126674
LJ  -0.3838123375010839   -0.45921426526139009   0.053580673903221597
LJ  -0.24813550376668037   -0.25808114316636166   -0.40785421494457152
LJ  -0.49665054857822938   -0.36189104009212969   -0.3264353444285541
LJ  -0.12117094526568789   0.42948462959159267   0.14777504394599891
LJ  0.45283497695874581   0.2113091177882149   -0.18149737653731643
LJ  0.22999379308150936   0.48587626846048365   -0.1093247152308186
LJ  0.0064938386622634282   -0.21273458010787938   -0.39315660985125928
LJ  -0.29098019719352836   0.3498093358910791   -0.39566670543592503
LJ  -0.068847074525328608   0.22160453567360497   0.090008342551704479
LJ  0.28123421987208846   0.015426286415899776   -0.38813254807775371
LJ  0.42188837773974835   -0.15332044832360545   -0.39622638501034646
LJ  -0.21645492235522965   0.22686931559061727   -0.067960257115626393
LJ  0.32228069814828736   -0.3809276610042806   -0.24396654194082676
LJ  -0.12975090744659912   -0.058071171977019304   -0.34019254963141671
LJ  -0.17411089135268726   0.47643570879300584   -0.26359393351238369
LJ  -0.28409224648222181   -0.091112116129188542   0.028203633933240029
LJ  -0.25127663054238664   -0.33137558754105156   0.37380575103690777
LJ  0.34345293046720649   -0.26238367524477313   0.32644294024305381
LJ  0.21964706560921118   -0.18201339667563471   0.15348017857437452
LJ  -0.35018636521669849   0.010564827417541897   -0.39751222433555472
LJ  0.25861996599103021   0.13732266544375979   0.054964345986538946
LJ  0.069516580615816143   -0.26516461932461277   0.055171933764253514
LJ  -0.39137096978452646   -0.15603205807122386   -0.30814583505172349
LJ  -0.087880122755672863   0.32982879524928715   -0.1733941900204595
LJ  0.32980479647577543   0.213700689773375   0.22976164592932716
LJ  -0.10092968028628965   -0.47895464969540014   0.34198714446431189
LJ  -0.42699913495672215   -0.26733623859004935   -0.046894300854452904
LJ  0.11659883732168971   -0.19618883741106002   0.32480536900740742
LJ  -0.032899822889249301   0.17205322980492041   -0.28942840995589353
LJ  -0.45384500279303092   0.22859447968357277   -0.37829224252646276
LJ  0.04861934459930161   0.40633922972876008   0.42364888526649558
LJ  -0.49969222734504104   0.43326100704958931   -0.39108690910098265
LJ  -0.071991069073831016   -0.37396404259233584   0.17595584089725283
LJ  0.29321856935222329   0.11361291964881083   0.45888995711416491
LJ  -0.10392167690541526   -0.43417747758225439   -0.46685276669446796
LJ  0.22214181955346859   -0.37710309768189115   0.14941677605855688
LJ  -0.20345892079132483   -0.35903755172614416   -0.05265093923449686
LJ  0.36054575059002253   -0.47032082776902795   0.47377642740664777
LJ  -0.30852433906126897   -0.37413361553073654   -0.25849964468340597
LJ  0.21340594421315104   0.31025479821681518   0.38235626401929546
LJ  0.17568665746387527   0.28156537455803871   -0.4307960598782552
LJ  -0.2257437439402071   -0.086825248906288677   0.48250185314289329
LJ  -0.22586508113450449   -0.24754610115057027   0.16543062809647691
LJ  -0.0051658686448481138   0.11002711991118146   0.26857045422926878
LJ  -0.11212203679786434   -0.19397283603302129   -0.011080829510050561
LJ  -0.046606416797595439   0.30073324695416948   0.29491881814906129
LJ  -0.46879766900614223   0.35863779230076215   0.18707985359030932
LJ  0.48575252951017617   0.031401388290964456   -0.49978255388566101
LJ  0.017930075437604734   -0.1696752709421043   -0.15717426755772107
LJ  -0.28783333100341268   0.49074778151095561   0.26254065086602651
LJ  -0.072046250678527782   -0.12095219443625914   0.18203861442989372
LJ  0.47542361319053811   0.22296852145896912   0.37716941454357739
LJ  -0.23558552434065733   0.14742326077628662   -0.2990089202984143
LJ  0.33035577355822388   -0.023713231743185341   0.15940745575161272
LJ  0.24602938648923128   -0.30671844121599806   -0.052297711273526594
LJ  0.13969677343751813   -0.46387905754633729   -0.40083980474563863
LJ  -0.49348340991697615   -0.063953910204374201   0.086107333799345515
LJ  0.38625284442857005   -0.28662058784120614   0.082653775372601476
LJ  -0.050367549613653119   0.093965263257842949   -0.073368754807209946
LJ  0.026811868194655496   -0.47563208378057992   0.0084079052571960494
LJ  0.12227838008167291   0.28882235011692597   0.14633900894846077
LJ  -0.29819041496595655   -0.049903286158886513   0.29233643799925824
LJ  0.20747909847814372   -0.062856712257678971   -0.034896390040357758
LJ  -0.23025993465136496   0.014771484607068466   -0.1500032457502751
LJ  0.49308901532971333   0.14441362850850309   0.015867035122835868
LJ  0.31222711881849519   0.44304515871560357   -0.32741725287728379
LJ  0.081026694435088309   -0.014151398828920017   -0.2683014699738655
LJ  -0.0064740628878565114   0.36142769909840416   -0.38627863767858062
LJ  -0.0482491454709131   -0.2792074110173357   0.35086097142130346
LJ  -0.3816142033869096   0.12014331380400127   0.22573971724024136
LJ  0.31355554102594108   0.42538199097844293   0.25430396332730287
LJ  0.10425390999930481   0.36305780955428707   -0.24027362333607521
LJ  0.066494992873929265   0.32772730606991257   -0.042208283154305061
LJ  0.47708833379704324   0.026549528945217331   -0.27955394253245491
LJ  0.37517447716355973   0.31947425065157647   -0.48988007622736801
LJ  -0.48295065308392415   0.3889180873930726   -0.041690090351614896
LJ  -0.23397264864158948   0.25337232489199835   0.31379750063694661
LJ  0.21404487284202064   -0.17697100828725038   -0.27526934641228129
LJ  0.13469563780080046   -0.40671402335727713   0.40178891215717027
LJ  0.47769874053111372   -0.42884567516747407   -0.12578136220741554
LJ  0.24634950458354321   -0.092461429349343552   0.43151088632073342
LJ  -0.35701964993564522   0.37135099887021089   0.41969489003097332
LJ  0.4605156197618186   -0.062340425110023322   0.30787941620773079
LJ  -0.14314910665608913   0.36621760914820201   0.4612184463650631
LJ  0.48482099601471862   -0.43508802738893371   0.2530856244161101
LJ  0.06195691091176344   0.00039658128008715618   0.097783960462705752
LJ  -0.44117225495663309   -0.049380802203475377   -0.091407989969296555
LJ  0.25080394799404793   -0.26093534567765664   -0.45152432379638546
LJ  0.073530496667369855   0.14621625117325859   0.45269247702764664
LJ  -0.1296618943115696   0.14235757341572569   0.47534227575572491
LJ  0.20455417230908052   0.059426646894397799   0.28166750373457278
