108
#Comment!
LJ  -0.35886432408881491   0.3558314199753177   -0.20272253999217482
LJ  -0.23641288282061912   -0.19627115429210737   -0.19367512572409001
LJ  -0.26223620658202784   0.25535928009189968   0.11638663949693541
LJ  0.24752810967198513   0.14273441344067406   -0.23030603012343681
LJ  -0.024777573226881743   -0.044498900566431888   0.41713727074110468
LJ  0.095127029008003738   0.46355581387799943   0.23898892006660286
LJ  0.3780584422172184   0.48981446296591585   0.051952932192128869
LJ  -0.40634567850618103   -0.19764906749548261   0.41593780245769463
LJ  -0.33264581738149951   -0.45178290145205036   -0.4833122642502744
LJ  -0.40603633215629259   -0.27719352602184738   0.22353702371341
LJ  0.28588163170706699   0.28612436512327472   -0.087615184486615608
LJ  -0.35510411622594529   0.15942375168823428   0.43007521366978546
LJ  0.40836243569827863   -0.19701209449264195   -0.14075578075925696
LJ  -0.18478521228768455   0.064943361834440425   0.1798341407432944
LJ  0.37486380617958132   0.0037669323194857258   -0.091575791608973195
LJ  -0.23787424515916672   0.40842646029410135   -0.03463378872819739
LJ  0.051862468749659232   -0.37696754926448278   -0.18627612036409436
LJ  -0.38382937408244738   -0.45911826625017288   0.053559643760196236
LJ  -0.2481945708742154   -0.25803018156971425   -0.4078053119170103
LJ  -0.4967408715834456   -0.36202199503124727   -0.32633050920404555
LJ  -0.12099153053275888   0.42953419911961943   0.14749810685225911
LJ  0.45266875866651818   0.2109590154475085   -0.18135822952657962
LJ  0.22994642494158096   0.48609610470435749   -0.10935920341347094
LJ  0.0064874989374079919   -0.213183320035855   -0.39349913402023023
LJ  -0.29108733023783412   0.34969942530084258   -0.39569469317821926
LJ  -0.069053084441098145   0.22167575531916825   0.089965358496104667
LJ  0.28160201064760315   0.015392794939092475   -0.38801548126897245
LJ  0.42189554189937811   -0.15358174970016636   -0.39608665252348524
LJ  -0.21653874491694677   0.22673592871054912   -0.068010276624083085
LJ  0.32213113066390991   -0.38088906843687598   -0.24400918591072018
LJ  -0.12973247609701888   -0.057893505180230086   -0.33967029719093139
LJ  -0.1743496496203529   0.47652279882062715   -0.26355532003882137
LJ  -0.28412226277765107   -0.091118998079981611   0.028207019449645994
LJ  -0.25131461607726746   -0.3311842962178248   0.37411402907792574
LJ  0.34373550311410594   -0.26188988275547209   0.32631996916371486
LJ  0.21918115300288488   -0.18201189313576291   0.15345211267442407
LJ  -0.35027378362847711   0.010817554120530643   -0.39703761785881803
LJ  0.2586049903712575   0.13736762723199691   0.054979316429748258
LJ  0.069599685273900647   -0.26504025468272185   0.055300496199826063
LJ  -0.39142347667011013   -0.15584501562064873   -0.30837292808632982
LJ  -0.087889367166966145   0.32997443919137603   -0.17325243995099462
LJ  0.32969311739957824   0.21375246303489889   0.22963168309872437
LJ  -0.10103276989636401   -0.47898165988215818   0.34206911937344803
LJ  -0.42690163495498307   -0.26702104082358141   -0.047222365079160535
LJ  0.11660985743942966   -0.19597129791730572   0.32472682240455814
LJ  -0.033069807455617981   0.17235299806753127   -0.28936546044754324
LJ  -0.45381271549702734   0.22878247767644927   -0.37793216230184762
LJ  0.048429964336165574   0.40639893694217144   0.42351213346672073
LJ  -0.49958371515143368   0.43330228688390865   -0.39154254082234541
LJ  -0.071993262633672755   -0.37385496669716095   0.17581094505474751
LJ  0.29301435490635164   0.11392606270188546   0.45891850122536548
LJ  -0.1036341900134484   -0.43399655865730846   -0.46686564835740063
LJ  0.22237790770675664   -0.37687230129873633   0.14957334337794151
LJ  -0.20373425812149679   -0.35907499985535674   -0.052733343407612786
LJ  0.36077046720887201   -0.47024896604142824   0.47383584388265271
LJ  -0.3084422465300915   -0.37385652641600253   -0.25854054135105847
LJ  0.2136044879161775   0.31027423605544197   0.38249507070846855
LJ  0.17523487856032069   0.28159671111395612   -0.43083170395093234
LJ  -0.2256390396454214   -0.086895926836854653   0.48295709228482925
LJ  -0.22565697491784087   -0.24792569899062711   0.16545158385599049
LJ  -0.0050968702252804192   0.10986938057340925   0.26835597883180834
LJ  -0.11176493122047376   -0.19421917797823759   -0.010950109255300272
LJ  -0.046506406960104392   0.30073661736585661   0.29464080454012448
LJ  -0.46883529502927257   0.35823971722102504   0.1869108552079243
LJ  0.48569564779288665   0.031390095225054912   -0.49968948889808373
LJ  0.017705781304792129   -0.16959768771432499   -0.15682011833575604
LJ  -0.28784595729171331   0.49060935875598682   0.26304335759167791
LJ  -0.071982311170196975   -0.12104556856111878   0.18203990810030107
LJ  0.47537530328472272   0.22328646599591678   0.37709740376296869
LJ  -0.23573558469197969   0.14700683765628811   -0.29916554845495896
LJ  0.33059115252234511   -0.024098825113986897   0.15916373101840761
LJ  0.24613936111413856   -0.3072159486308278   -0.052152464605541321
LJ  0.13966557817610389   -0.46345112715883097   -0.40110077495026114
LJ  -0.49374637087731493   -0.064299664183985777   0.086184142680475459
LJ  0.3861829690452524   -0.28643196350379779   0.082674743879847495
LJ  -0.05016166109526364   0.09379046064406342   -0.073396038305940534
LJ  0.026712857841243387   -0.47602795287782862   0.008366630035619332
LJ  0.1223715936085155   0.28860322470281868   0.14632451227206231
LJ  -0.29782065606940872   -0.049974424144828229   0.29246269039250428
LJ  0.20793090203304007   -0.062871876290736206   -0.034644442958786402
LJ  -0.23004193017925367   0.014813283094498557   -0.15042148390741852
LJ  0.4933087242794445   0.14469239001590001   0.015731942814592885
LJ  0.31210477273280296   0.44278909125592941   -0.32764149798885384
LJ  0.080921145242823775   -0.014298478766446163   -0.2683885379704492
LJ  -0.0070032874609099027   0.36125378053489526   -0.38575163670236517
LJ  -0.048242090549303958   -0.27920783789081677   0.35064834690074365
LJ  -0.38166582157403117   0.12040403087214112   0.22567917432518353
LJ  0.31366736182521859   0.42540303897937504   0.25401923540344129
LJ  0.1046657149145315   0.36296804114475545   -0.2401013427573454
LJ  0.066325584545758293   0.32789824256464262   -0.042218705768174269
LJ  0.47705938474029991   0.026495069043271646   -0.27940504510396413
LJ  0.37525243886996612   0.31995162112711145   -0.48977172717598616
LJ  -0.48277784788297468   0.38885852086183514   -0.041789609048857673
LJ  -0.2342371189128209   0.2534660170036106   0.31399342596794227
LJ  0.2141365322487313   -0.17702245779615944   -0.27500738261215335
LJ  0.13451042071121644   -0.4065824423045723   0.40160943729495002
LJ  0.47794302677283101   -0.42873521590877517   -0.12599608455879771
LJ  0.24644612029420895   -0.092340665116386736   0.43115399318925657
LJ  -0.35716658060675877   0.37110137426480583   0.41959423652501759
LJ  0.46019553478895603   -0.062353449789612381   0.30795440790112977
LJ  -0.14315968291265438   0.36632009032213297   0.46123661865503074
LJ  0.48497293280671533   -0.43515753394442164   0.25351343464309789
LJ  0.061842159000508642   0.00014250558131497865   0.097790256339627707
LJ  -0.44083429339883368   -0.049712596770895089   -0.091713444977364472
LJ  0.25070305982250651   -0.26090835523101397   -0.4519107137429037
LJ  0.073797074132536097   0.14630103449602724   0.4526185347019866
LJ  -0.12969822962249136   0.14242509688438459   0.47538878026292875
LJ  0.20495227661331072   0.059479352707253484   0.2815751522216467
