108
#Comment!
LJ           5.28182        -3.48861         5.07265
LJ           6.18881        -5.72942        -4.84128
LJ          -1.21494       -0.104176         1.89175
LJ           2.14739       -0.628157         3.36203
LJ           3.05978       -0.598776         2.90694
LJ          -1.76595        0.227939         2.97846
LJ          -3.60125        -5.68134        -4.18435
LJ           4.70888         5.48629        -4.92339
LJ          -1.98363          3.3131         4.31427
LJ           1.44956        -5.87751        -6.29197
LJ          -5.51162         2.40152        -5.23285
LJ         -0.665442        -3.25896        -5.61211
LJ           2.36805         4.85586        -4.97569
LJ         -0.800339        -3.47845        0.969729
LJ         -0.244656         1.21315         1.48804
LJ          -6.10263          3.6699         4.33087
LJ         -0.172252         3.33156        -3.03756
LJ           -1.9232        -3.40479        -6.11195
LJ          -0.96712        0.225962         3.89515
LJ            3.6319         2.73915          3.5088
LJ           3.07823          5.0099        0.818173
LJ        0.00523405         2.51209        -5.56381
LJ           6.15064        -4.57189        -5.38232
LJ          0.707385         -3.8464         3.17772
LJ          -1.47279         5.57222         5.23928
LJ           1.31493         3.30703       -0.432542
LJ          -5.53659         -2.5653         5.91675
LJ          -1.76093         5.57882       -0.881294
LJ          -4.01515         5.69494        -1.37849
LJ          -1.17722        -4.87322         -1.9345
LJ          0.423797         2.62418       -0.299034
LJ          -5.23826         6.07122         3.18432
LJ          -2.42845        -5.94904        0.409946
LJ          -4.10877        -4.29114        -6.05836
LJ           1.16925         4.54818        -2.71819
LJ           3.01517         5.70172         2.53847
LJ           2.80859         5.76086        -4.57192
LJ          0.390424         -3.9106         1.56778
LJ          -2.82346         -2.9573         6.03348
LJ          -5.30959        -1.67508         3.89664
LJ       -0.00936707        -2.73173      -0.0120175
LJ           2.17171        -4.24392         1.45164
LJ          -6.26937         3.90703        -4.88356
LJ         -0.446997         5.97665          1.8095
LJ          -2.09814         2.43042        -6.38869
LJ         -0.609952        0.195313        0.785825
LJ           3.31019        -3.86069         1.36795
LJ          -2.95717         6.43495           5.155
LJ          0.988275        -3.65969        -4.89214
LJ           2.86687          5.2722        -3.64485
LJ          -2.87631        -3.66736        -4.60978
LJ            4.6865        -1.18463         1.36144
LJ          -3.33336        -1.58341         3.04811
LJ          -1.68087         4.38819        0.444896
LJ            5.0541        -5.12803         -5.5076
LJ         -0.406253        -1.75198          4.4389
LJ            5.6449        -1.26204        -2.92068
LJ          -0.93338        -3.80703        -4.09929
LJ          -4.15348          4.8207        -4.98342
LJ          -3.71251      -0.0195841        -4.92321
LJ          -4.23358       -0.586504         2.44436
LJ          0.771229         1.46658        -5.01543
LJ          -4.34477        -5.78346        -6.26115
LJ           -1.5886       -0.873556        -5.65476
LJ           6.19696        -1.28096        -4.65885
LJ           -3.2673         5.45196        -4.67817
LJ           1.71906         4.33243        0.609815
LJ           2.59051         5.14383        -6.12642
LJ           5.54511        -1.02243        -6.08944
LJ            2.3855        0.749991        -5.37368
LJ          0.016049       -0.929735         4.82202
LJ         -0.268002         1.01052         2.49557
LJ          -4.41109        -5.48024        -4.73319
LJ           4.76071         2.36718        -1.31413
LJ           1.80443        0.402001          6.3935
LJ           5.47711         4.18914         4.17924
LJ          -3.57042        -4.95803        -1.73661
LJ          -5.19243          4.9672        -5.40726
LJ           3.54424         2.96349        -2.73769
LJ          -1.37808        -4.23339        -3.24969
LJ        -0.0710324        -3.02845        -4.52559
LJ        -0.0890348         1.18273         5.86783
LJ           1.23404        -4.50235         2.33966
LJ          -3.79254        -3.12148         2.64349
LJ           4.78241        0.731566        -2.14755
LJ         0.0241524       -0.581682         6.02119
LJ           3.58928        -4.34339          5.3792
LJ           6.18726        -6.01272        -3.18671
LJ           5.67647         2.34159        -5.38574
LJ           3.92948        -6.08827        -3.64703
LJ           1.40364        -3.74919        0.963021
LJ           1.50648        -1.94437        0.641788
LJ           5.40304        -4.47413         5.55963
LJ           2.78107        0.142553         6.07042
LJ          -2.71213        0.156668        -3.42493
LJ          -4.10862        -2.49814         4.36237
LJ          -4.45222        -5.85012        -1.48055
LJ          -4.44861        -3.28006         3.55157
LJ          -4.99143        -4.46762        -5.09945
LJ           4.26815         1.70193         2.70583
LJ          -4.20206        -0.33077        0.717729
LJ           -1.3653         1.17567        -5.64312
LJ         -0.498342       -0.584009       -0.553284
LJ          -1.56655         2.15837         2.06088
LJ           5.88803       -0.101082         5.60093
LJ          0.498422         5.63461         1.27495
LJ          -4.53458         2.57912         2.01055
LJ           5.25622        -3.61366         -4.8225
