108
#Comment!
LJ          0.527529         2.48576         1.56866
LJ           5.06043         1.31167          5.7906
LJ           4.72663         1.62556         2.09055
LJ           1.52984         3.57522         2.96729
LJ           2.81588        0.771595         2.35149
LJ           1.82008        -2.27296         1.04892
LJ          -4.53081         2.84483          -3.217
LJ          -3.17313         2.71023        -1.58641
LJ           4.20346         4.78807         1.49635
LJ           -2.7579         4.29035        -3.16984
LJ           -3.3923        -2.37699        -5.43693
LJ          -2.17951         3.83108        -3.99203
LJ           2.77608         3.04448         2.78099
LJ           -1.6903        -5.28197        -2.09585
LJ         -0.695693         5.59166          -3.739
LJ           -3.4803         -3.5466         5.89306
LJ           2.93849        0.386184        -1.26559
LJ           5.27215       -0.108393         2.39928
LJ           6.43306       0.0537318        -5.13982
LJ          -3.94187        0.572284         5.19086
LJ           5.46129        -6.12741        -4.87527
LJ           1.60845       -0.279505        -1.19926
LJ           6.15212        -2.20639          5.0521
LJ          -2.14991         2.62282        -3.28494
LJ           5.22581         1.15979        -3.05847
LJ           1.92001       -0.401565         6.08967
LJ          -6.23825         1.27431       -0.185401
LJ          -4.80346         1.07756        -4.01243
LJ          0.303199         1.12779        -5.67295
LJ          0.785843       -0.803746         4.19995
LJ          -4.62961         2.40703         2.50285
LJ          -2.29069         3.42937        -1.61052
LJ           6.20018        -2.12933         -6.2528
LJ           2.55615        -4.30674        -2.19193
LJ           1.53923        -3.21958        -5.20631
LJ          -5.12878        0.191987         5.28633
LJ           1.46489        -5.47196        -1.97975
LJ          -1.77511         -6.1894         -4.2146
LJ          -1.04896         3.43077         3.02634
LJ          -4.87371        -4.52216        -2.25097
LJ           4.27076        -5.86427        -6.36642
LJ         -0.177513        -5.41576        -2.54557
LJ          -2.22034         3.41871          -5.795
LJ          -4.36211         2.73239        -4.23088
LJ          -4.01086         -2.1503         6.31159
LJ           1.98341        -2.27746         4.74547
LJ           5.69429        -6.18569        0.288001
LJ           4.40648        -5.06161          1.5127
LJ          -5.43149         1.51182         4.32177
LJ             5.554        -4.98756        0.779312
LJ          -1.90975        -4.13317        -5.51851
LJ          -4.15291         1.78519        -2.66704
LJ          -3.32867        -5.36544        -2.53766
LJ           3.40249        -4.14498      -0.0338147
LJ          0.769046        -4.56698         3.74649
LJ           6.39563        -5.17916        -6.17357
LJ           2.76483        -5.97379        -2.35236
LJ          -3.57868        -3.79873        -5.39384
LJ           3.23433         4.17189         2.72035
LJ           -1.0163         2.33342        -3.47763
LJ          -3.36444         3.90257         5.55452
LJ            3.0057        -1.42001         3.31234
LJ           3.83353         1.57336         2.81836
LJ          -5.22832         4.91768       -0.856666
LJ           3.75196         2.87203         2.40178
LJ           2.89573         4.82998         4.10276
LJ            1.5674         1.83935        -1.88312
LJ          -4.91166        -4.28819        -6.05284
LJ           4.65773        0.209648         5.40437
LJ          -2.92646         6.10226         -4.4464
LJ          -3.57744         2.68583         2.33259
LJ           3.35126         -0.7132         5.46748
LJ          -4.01024        -1.23101         4.67492
LJ           5.29168         6.00315        -6.12408
LJ          -1.57412         3.14948        -2.21557
LJ          -5.07089         1.17818         2.75516
LJ            4.7681         5.00355        -1.64408
LJ          -1.30784         3.69361         -6.2194
LJ          -2.18334         1.08985        -1.43173
LJ          -2.84448        -4.94804        -1.53944
LJ          -4.59769         4.10273        0.867896
LJ           -2.9742         5.74889         4.52291
LJ          -3.45914        -3.67974        -1.17375
LJ           1.48293         6.05938        -3.69335
LJ          -5.29658         2.09899       -0.233524
LJ           4.55921        -3.90816         -6.1589
LJ            3.5548        -6.41452          3.7951
LJ           5.91579        0.306124         3.56785
LJ           6.01146         4.05589        -2.34255
LJ          0.638418       -0.469689         6.34814
LJ          -1.67459       -0.881969          3.4576
LJ          -1.45787        -2.98109       0.0580568
LJ           3.02992         4.70677         1.67164
LJ           -2.6109         2.00576       -0.529593
LJ           2.57133         5.87397         4.50438
LJ          -5.19217         5.76194         2.15779
LJ           2.38688         3.41647         3.69148
LJ          -4.42326        -1.16524       -0.111305
LJ           3.43237         -2.3334        -4.44285
LJ          -4.94808        -5.15269         4.72204
LJ          -2.95445         5.45301        -5.92248
LJ           2.35583        -3.51082         3.13389
LJ           5.26019        -3.32113         1.45533
LJ           1.72464      -0.0441849         3.27394
LJ           -4.5632         2.65357        0.949544
LJ          -4.92233        -5.90936        -2.88907
LJ          -3.76641        -1.40165        -3.13701
LJ         -0.570591         2.73543        -4.77474
