108
#Comment!
LJ           6.38477         1.46889        -1.81004
LJ          -0.20629        -3.92899         4.38254
LJ          -2.97994         2.82772         2.62192
LJ           3.54684        -3.91781          1.8562
LJ          -3.39181        -3.01455        0.280465
LJ          -1.23749       -0.640796        -2.27137
LJ            3.9397        -4.90575        -4.00933
LJ            6.1966        -2.66199         2.75173
LJ          -1.84983         5.66873         1.59115
LJ           5.20454         5.82631         5.90078
LJ          -5.28809         5.88585         4.76617
LJ          -5.48183        -2.93725          -6.395
LJ           2.15862        -1.26534         3.34676
LJ         -0.894559         1.35688        -5.75238
LJ          -1.71529         -1.9405        -2.00167
LJ           5.32272         3.65527        0.355212
LJ            4.8061        -6.28868        -3.75576
LJ            3.2167        -5.70896         4.92476
LJ         -0.909226       -0.785668        0.612602
LJ            5.5235        0.739274        0.384044
LJ          -1.87002         2.68735         3.87473
LJ            4.7886      -0.0244811         2.49331
LJ          -5.78533        -4.66815        -5.83226
LJ            1.8394       -0.494789       -0.459418
LJ          -4.14705        -4.48413          3.9036
LJ          0.426298         4.20563        -2.96808
LJ           5.83065         1.49711         1.66902
LJ          -5.46486        -6.21641        -4.59706
LJ         -0.498578        -6.41965        0.568413
LJ           3.39348        0.658838        0.338692
LJ          -5.98808        -3.57504        -2.53326
LJ           4.02121        -1.92357        -1.83765
LJ           3.76394        0.184826       -0.827212
LJ           3.36785        -4.76972        -2.64096
LJ          -5.61481        -1.66431         6.03792
LJ          -1.31072         5.45243       -0.171598
LJ          -6.46211        -5.66147        -4.37481
LJ          -4.72273         3.68838         5.49421
LJ           1.97853         1.96379         3.54958
LJ          -3.20779        -4.35845        -1.52375
LJ           2.44069         -3.4818         3.91011
LJ            4.6417        -3.47368         1.85744
LJ           1.58562         2.28888         1.55627
LJ            5.4676         2.37745      -0.0115319
LJ            -5.855         1.44016         6.17033
LJ           4.12411         3.30696        0.703168
LJ         0.0670485        -4.78776         4.99965
LJ          -6.15081        -4.86771        -3.55486
LJ           3.57305        -3.54085          4.6324
LJ           2.40143         -5.3182         5.86071
LJ           3.89175        -3.90642         5.49658
LJ           4.80582         2.12313         1.98835
LJ           4.21743         3.90645         1.93549
LJ          -4.55896        -4.56649         5.80321
LJ           3.17115       -0.124772        -2.72868
LJ          0.466765         1.29105         4.31331
LJ          0.841352        -3.23541        -3.77603
LJ            5.2474        -5.27233        -1.94725
LJ           2.48386        -6.37058        -2.51605
LJ            3.1006        -4.21756        -4.13773
LJ           -4.3812         2.11824        -5.43484
LJ           3.02227          4.6432        -5.83244
LJ           3.60442        -5.02247          3.8021
LJ         -0.867251        -2.34107        -3.04353
LJ          -1.31918         5.90258        -5.21121
LJ           3.41057        -3.88932        -5.06825
LJ           6.32062        -3.21945         6.22318
LJ          -4.88661         -3.4371         5.47704
LJ          0.915825         2.15897        -1.60233
LJ         -0.607738          1.4187         3.87385
LJ         -0.361745        -3.23583         2.97169
LJ           4.92623          0.6533        -1.01511
LJ           3.62522         5.00962         1.78515
LJ          -1.05657        0.888434       -0.322771
LJ            3.0559         5.82556        -1.05847
LJ          -2.80224         3.44132       0.0895758
LJ           5.33231         6.37946        -5.75889
LJ          -3.41934         4.75549        -2.20146
LJ          -6.25416        -2.59152        -3.95097
LJ         -0.940946        -3.16621       -0.867179
LJ           2.91287         5.23786        -2.52272
LJ          -1.62042        -1.20234         5.83949
LJ            2.8082         1.13501         2.36211
LJ          -5.76211         3.01419         3.81805
LJ          -3.62497        -6.20825          -1.099
LJ          -4.82559        -2.52316        -3.35585
LJ          0.901674         1.53738          2.7576
LJ           1.50139        0.152196        -6.18593
LJ          -4.60139        0.816194        -2.38477
LJ          -5.13323        -5.54331         5.47819
LJ           3.31155       -0.490671        0.039536
LJ         -0.680532         -1.8795        -1.17856
LJ           5.78694         4.84253         5.76945
LJ          0.307107         6.32493        -3.26098
LJ           4.36596         5.25108        0.291493
LJ          -5.85237         5.04961        -1.66096
LJ          -6.26076        0.480272        -2.13996
LJ           -6.1638         5.68111         1.88773
LJ           1.31522         4.06385         1.00767
LJ          -3.78335         3.48986         6.21928
LJ           4.72887         1.14375         1.44406
LJ          -2.14018         5.48677         2.64738
LJ           5.66542         2.13352         4.60751
LJ          -6.20641       -0.944195          5.2436
LJ           2.10738        -3.85547        0.337463
LJ          -4.34949        -5.26288         4.63544
LJ          -3.01839        -1.45345        -2.38192
LJ          -2.26231        -4.16664        -4.32453
