108
#Comment!
LJ          0.925079        0.739681        -0.42351
LJ          -2.87703       -0.916333         2.71955
LJ           6.08929        -1.50776          4.3065
LJ          -4.39565         6.09943         5.81261
LJ           5.12306         5.56005        -0.57845
LJ         -0.723022         6.08898         3.04202
LJ           5.73011        -4.82378        -3.50448
LJ           4.80571        -4.91534        -1.43599
LJ          -1.64489       -0.151065         4.35809
LJ         -0.481659          4.1502        0.230192
LJ          0.292551       -0.480172        -1.41916
LJ           4.22251         2.55325         5.02735
LJ          0.243829         5.85213        0.227056
LJ         -0.834188        -3.81405         5.86346
LJ           3.76473          2.5466          5.9788
LJ           -5.9673        -2.91014        -2.92459
LJ          -3.61275         4.36331       0.0750985
LJ           4.59281         1.09043         3.94493
LJ           2.22811         5.89259         5.48791
LJ            6.3385        -5.16944        -2.53684
LJ          -1.07962        -1.28065        -5.07497
LJ           1.66672      -0.0450791        -1.08271
LJ            2.0126        0.407723        -2.24691
LJ          -5.24244         1.05111         4.29837
LJ          0.845916        -2.08251        -5.67054
LJ           5.26671        -4.56271       -0.160504
LJ         -0.914023        -3.30957        0.755875
LJ           5.97639         3.21025         4.34861
LJ           2.02383        -5.36069         1.72678
LJ          0.356825         1.13143         5.83464
LJ            3.2772        -6.02952            3.34
LJ          -2.37711        -2.03749        -1.03624
LJ           -2.5877        -2.98829         -1.8103
LJ           4.28155       0.0895131         4.83731
LJ          -3.36114         5.76862        -5.73073
LJ           2.04729        -5.62177        -5.56983
LJ           3.03096        -1.73615        -1.38201
LJ           3.06965        0.550389         1.28071
LJ          -5.38968         1.85015        -2.74681
LJ           3.30114         1.35326         4.06587
LJ          -0.23758        0.233154         1.77897
LJ           1.27746         4.17168        -2.64221
LJ          -5.04083        -4.88603         4.43198
LJ            5.0824         3.60961         4.65678
LJ           2.14979         1.21469        -4.26669
LJ           4.45519         6.43596         2.35388
LJ          0.542919         4.08465         5.59893
LJ          0.961169         2.41229        -3.73351
LJ          0.317092          4.0863         3.84254
LJ           1.78689        -6.28825        -4.51222
LJ           2.56572         2.73383         -5.7181
LJ          -4.92881        -5.22501         2.81379
LJ          -1.85351        -3.19573         -5.9429
LJ          -3.92944        -2.51498         3.62054
LJ          -4.42569         1.32071        -5.92879
LJ           3.29739         5.21704         6.04774
LJ         -0.726378         1.24637         5.12792
LJ           3.20366       -0.666657         6.30705
LJ          -4.50102        -3.97084         5.92878
LJ           3.60295          -2.855        -6.02966
LJ           3.14221         5.45271        -1.31239
LJ           6.27574        0.166206         -1.7042
LJ          -6.02452        -1.91514         4.91473
LJ          -6.00984        0.286896         3.40962
LJ          -5.99322         2.01527       -0.659963
LJ          -3.37718        0.148552        0.318418
LJ           -1.9304        -1.24493         5.19097
LJ           1.98947         2.28867        -3.15457
LJ          -5.83336        -1.78524        -1.55845
LJ           3.34806         -5.6279        0.841912
LJ          -4.88667         2.59406         4.81514
LJ           6.16544      -0.0736237        -3.52041
LJ           6.29834         4.54827         4.50408
LJ          -1.58097        -4.34377         4.95897
LJ         -0.122486         0.89433        -4.33268
LJ           2.81376         4.90664         1.18265
LJ            6.4133          5.7609         5.06867
LJ          0.686966         6.45571        -1.66677
LJ           5.30639         -3.3073        -1.62534
LJ           1.80694         4.54898         1.05319
LJ          -2.90183         -4.9157        -6.33983
LJ           5.29636        -5.97568        -3.67034
LJ         -0.537783        0.719853        -3.21961
LJ         -0.377612       -0.598947        -6.26549
LJ           2.15376        -5.97447         6.32607
LJ           -1.9602         2.00848         5.13797
LJ          -4.68761         2.91978        -3.15923
LJ           1.63933         3.58775        -6.16668
LJ          0.215952        -1.95541         -2.3316
LJ          -4.71374        -1.56063        -5.78596
LJ         -0.303168        0.670354         4.06935
LJ           5.76221        -2.74777         2.35465
LJ          -1.18764       -0.417639        -2.96686
LJ          -1.85156       -0.577832         -3.6683
LJ          -4.14492        -1.72708        -0.57104
LJ           1.77162         2.48872         2.03555
LJ          -4.92943        -2.85276        -3.33482
LJ          -5.70399        0.795755        -3.91994
LJ           1.95258         -4.3167        0.132972
LJ           -3.0099          -3.559        -0.70546
LJ          -0.41797       0.0959136         4.92408
LJ          -3.31164         2.47085         1.27452
LJ           2.65398        0.386706        -5.98834
LJ           3.94137         1.93286          3.4333
LJ         -0.510447        -1.86123         3.07919
LJ         0.0326182        -5.92821        -2.43722
LJ           4.51923      -0.0777774        0.263951
LJ           3.74133         3.89345        -2.86996
