108
#Comment!
LJ           5.68605        -4.19587         4.78362
LJ          -4.25382          5.6728        -4.56653
LJ          -2.26869         2.47437         2.24148
LJ           3.85099        -2.55132         3.75248
LJ           3.22934        -1.83339        -3.15314
LJ          -1.17974         1.18914         3.42226
LJ           -4.8619        -3.85801        -5.36182
LJ           6.23301         5.01006         3.60577
LJ          -3.12639         2.88581         2.83034
LJ           2.96706         3.96566        -5.63738
LJ          -5.82151        0.723392        -5.77733
LJ          -2.22458         -4.0394        -5.51962
LJ           2.24373         4.86991        -3.71561
LJ          -4.73931        -3.10792         1.25129
LJ           2.79473      -0.0473648         1.23978
LJ           5.60303         3.30316         3.22371
LJ           2.00727         2.06012        0.479388
LJ          -5.06466        -3.87227        -6.33866
LJ          -1.84444         0.96317         4.41495
LJ           4.22408         1.49263         1.67251
LJ           2.51881          4.3629        -1.09215
LJ          0.207534         2.53135          6.2605
LJ          -5.98063        -3.81109         6.00881
LJ           3.48668        -3.34435        0.837762
LJ          -2.58243         5.76853         4.98032
LJ           2.59903         5.37751         2.69686
LJ           5.77277          1.4271         5.28762
LJ           -2.2652        -6.42926        -1.26692
LJ          -2.75707         4.86603        -1.06585
LJ           1.85418         5.21205        -2.52201
LJ        -0.0468424        0.138906         1.61338
LJ          -5.89438        -6.26158         1.61718
LJ           -1.8383        -5.50585          1.6722
LJ          -1.72585        -4.67972        -4.77303
LJ          -1.07339        -6.12705        -4.63196
LJ           1.77684         6.02996         2.09725
LJ           2.39544        -5.83515        -6.31176
LJ          -1.63743        0.428706         1.25905
LJ          -3.45057        -4.16227        -5.53049
LJ           6.19543       -0.544417         -5.8187
LJ           1.02189         1.41757        -3.12485
LJ           4.69075        -4.08106        0.231951
LJ           6.02892         6.20517        -4.81308
LJ          0.331867        -4.77711        0.146736
LJ          -2.70488         3.02719         6.37971
LJ           4.06821      -0.0677419        0.776076
LJ           3.15648          -2.842         5.24118
LJ         -0.286317        -5.85671         3.77824
LJ           1.06511        -5.72255        -5.47034
LJ        -0.0486146         5.03258       -0.592109
LJ          -3.18156        -5.35704        -3.74524
LJ           5.24495        -3.03249       -0.733794
LJ          -2.85935         -3.0922         1.62621
LJ          0.702508         4.02905        0.024633
LJ          -5.67249        -2.71324        -6.32264
LJ           3.07891        -5.51857        -4.27575
LJ          -4.97948        -5.49456        -2.12163
LJ           1.62056        -4.17026        -3.18411
LJ          -4.48974        -6.05766       -0.580582
LJ          -4.10665         -3.5619        -3.57108
LJ           -5.3557         1.23575        -1.39485
LJ           2.48009       -0.662665        -4.38398
LJ           6.20573        -3.76132        -4.60085
LJ         -0.322214       -0.739548         5.67619
LJ            6.0978         3.46715        -3.63027
LJ           6.24816         4.62205          -2.034
LJ          -1.01056         6.17812        -0.14563
LJ           4.83164         -4.9916         -5.2351
LJ           6.09729        0.764867        -5.88437
LJ          -0.49144         3.15439        -3.22685
LJ          -0.54961        -1.28678         3.41242
LJ           0.50068      -0.0538909         4.00749
LJ          -6.04363        -6.07078        -4.21608
LJ           1.46586         0.48335        0.413054
LJ          -2.07744         1.08924        -4.89352
LJ           5.40815          4.4007         2.80369
LJ          -2.24296        -3.92687       -0.437036
LJ          -4.69767         5.05074         -6.2087
LJ           1.65512         3.65648         -4.5388
LJ           3.02576        -3.26596        -3.27976
LJ          0.417203        -4.96693        -3.34847
LJ          -3.30945         1.76381         5.45563
LJ           2.43363        -2.94065         1.17256
LJ            -4.175       -0.300484        0.486309
LJ            4.2694         2.32257       0.0888198
LJ         0.0464958         1.12211        -4.35978
LJ            4.2085        -5.51883        -6.28557
LJ          -4.63422        -6.38572        -3.83199
LJ          -4.03607        0.754808         6.42068
LJ           2.63971        -6.39731        -1.48585
LJ          0.352762        -4.02812          3.1173
LJ           3.26595         -4.3759       -0.175697
LJ           4.90483        -5.18177         5.00351
LJ         0.0641562       -0.865224        -3.24923
LJ          -4.34125       0.0460073        -3.00224
LJ          -4.16791        -5.91121         3.85247
LJ          -1.29911         4.73117        -2.55838
LJ          -4.20961        -3.55506          3.9648
LJ          -6.04278        -1.26101        -4.03649
LJ            2.8951         1.25555       -0.204476
LJ           5.85612        -2.51991         1.11087
LJ          -2.95622         1.28755         4.03165
LJ          -1.00381        -1.26627        -3.38925
LJ          -2.41195         2.82602          1.0882
LJ           6.28046        0.205384         5.82525
LJ          0.237088         4.53935         1.47682
LJ          -4.54106        0.490288         3.57505
LJ           3.73194        -4.22342        -4.95034
