108
#Comment!
LJ           1.23777        -5.32774       -0.763073
LJ          -2.42267       -0.722397        -1.10345
LJ          -2.84057         6.44472          4.3255
LJ          -5.79137        -4.71636        -5.76974
LJ          -1.70253         6.29618        -2.80601
LJ          -4.20937       -0.492463         2.00777
LJ           6.29768        -2.64276        -4.24563
LJ            2.6053         2.94744      -0.0295705
LJ          -2.51448        0.315141         1.99327
LJ           1.45976         2.75624        0.444025
LJ        -0.0800719        -3.63695        -6.34905
LJ           6.29902        0.505328         3.12522
LJ          -5.32597         5.85517         2.64985
LJ          -3.83728          -1.756         -6.1008
LJ          -2.03803         5.08147         2.71024
LJ            6.0101        -0.46041         6.33614
LJ          0.762936        -3.13614        0.625124
LJ            2.7753         2.12459         1.49558
LJ           4.18121         5.91131        0.114065
LJ          -6.43524         -4.1235        -3.98288
LJ          -1.91713         4.69794        -6.07278
LJ           1.34763         -1.2551       -0.989077
LJ          -3.69032       -0.678677         1.06522
LJ          -4.89116       -0.683032        -4.38373
LJ         0.0540598        0.860046        0.487997
LJ           6.21234           1.582         3.00069
LJ           2.68107         1.43242        -0.23569
LJ          -2.44259        -2.70766        -5.70917
LJ          -1.06921        -1.90708        -4.45374
LJ           5.49236         4.12394        -4.15294
LJ         -0.159261        -2.18398        0.346277
LJ          -3.06374         3.21592         3.97321
LJ           3.14719         5.56662         5.64153
LJ           6.18743        -5.64564         5.83095
LJ            1.2565           3.852         3.86814
LJ           3.09216       0.0043939         5.22873
LJ          -1.44062       -0.400318         -3.2643
LJ          -4.11622        -1.73571          1.1762
LJ          -3.59813        -6.22022        -2.61193
LJ           2.84896         2.96353         2.39112
LJ          -4.65526         5.06351        -4.76845
LJ           2.05329        -5.18353        -5.13173
LJ          -3.84041        -1.16699        -4.26024
LJ           1.88734          2.6455          1.6445
LJ           4.26836         1.70327        -2.14711
LJ           1.08448         6.34294         5.26049
LJ           3.67032        -2.11999       -0.880514
LJ          -1.20734        -5.59963         -2.4728
LJ           1.77226         3.75655        -2.46659
LJ        0.00970719        -5.63447         4.50758
LJ           2.27975         5.02937        -5.36145
LJ          -1.31059        -3.57993        -6.23246
LJ           6.00591        -2.56707       -0.777008
LJ           -3.2607       -0.966322        -5.18554
LJ          -1.04006       -0.648943        -4.44902
LJ           -1.7686         2.30332         4.51757
LJ          -1.46671         2.06246        -2.87656
LJ          -3.55022         2.56151         5.61549
LJ          -4.09554         2.59586         4.44004
LJ          -3.44557         4.79848        -2.62385
LJ            -3.428        -4.47622         2.38095
LJ           3.94848        -4.23174        -3.32952
LJ           4.11728         4.92252        -5.37003
LJ          -3.32396       -0.871662         5.13271
LJ          -3.59439        -1.48904         4.25435
LJ          -2.11781       -0.895867        -2.59025
LJ          0.582683        -1.69159         2.29369
LJ          -3.30733        0.646726        0.197204
LJ           -1.9296       -0.825887         1.16607
LJ          -2.40662        -5.29386        0.991753
LJ          -3.85767         4.57119         3.81254
LJ           4.41508         3.45294        -3.96326
LJ           1.02541         3.67698         2.85597
LJ           2.73192         6.35932        -3.80857
LJ           3.97256        -4.13465         1.46945
LJ           0.95874         4.84433        -4.76892
LJ           -3.9869         6.26001         -4.5897
LJ          -1.08147         5.14413        0.245588
LJ          -1.17762         4.63789         2.68163
LJ           1.28601         4.70756       -0.599013
LJ           3.38527        -3.34007        -1.85187
LJ          -3.39224        -3.62821         -2.8246
LJ          -4.07868        -6.44952       -0.416534
LJ           0.16013         1.11766       -0.588549
LJ          -1.88087        -1.72176         6.28665
LJ          -3.11651         3.72176        -2.75039
LJ           -2.7338         2.54327        -5.97725
LJ           1.43169         3.73531         6.37703
LJ           5.30943       -0.524765        -2.80935
LJ           5.52994         5.49121        -5.43101
LJ           6.04057         1.00317         5.04781
LJ          0.931285        -2.31587       -0.676864
LJ          -5.25784         3.37538        -1.91509
LJ          -6.04268         1.86842        -4.75589
LJ          -3.93381         4.25072          6.3462
LJ           4.20197        -1.63716         1.51412
LJ           5.85084        -4.53861        -4.94985
LJ          -2.11204          6.4155        -4.15142
LJ          -4.15713        -5.07778        -2.41909
LJ          -3.74641        -3.55587         -0.1748
LJ          -2.64859          5.3719          -3.781
LJ           4.55021         4.12807        -6.29694
LJ          -3.48463         2.15411        -5.23578
LJ           5.22399         1.82706         4.84458
LJ          -3.70787        -5.50212         1.51702
LJ         -0.953919        -5.16038        0.430853
LJ          -1.11756        -4.01085       -0.359752
LJ            3.7794         5.81591        -3.79629
