108
#Comment!
LJ           4.05039       -0.619187         3.50923
LJ           3.91256        -4.40137        0.306972
LJ          -4.82329         2.97541        0.520172
LJ          0.659196       -0.453037         3.10931
LJ           4.90599          5.6854        -2.46071
LJ          -2.48116        -1.42142         3.38846
LJ           3.71423         3.54141        -5.82553
LJ           4.97975        -3.50505         4.27122
LJ          -3.90311         4.02641         4.50936
LJ          -5.99975         6.10411         -3.5909
LJ          -4.10206       -0.819487         4.74241
LJ          0.343964        -3.37052        -3.14222
LJ           3.77653        -3.52498        -1.73915
LJ          -3.78967          3.9027          6.3686
LJ          -2.77112        -2.17082         4.23362
LJ          -3.69546         2.42326        -5.76464
LJ           2.75536         2.93658        -3.18735
LJ           3.82929        -1.98511         -3.3814
LJ          0.820698         5.90106         3.84623
LJ          -5.71664         2.32336        -1.38935
LJ           4.12298       -0.885366        0.205547
LJ          -3.83805        0.707654        -3.93811
LJ          -1.33316        -5.43842         5.05339
LJ          -5.10003         5.38632        -4.50928
LJ          0.605926         3.42748          2.6007
LJ           1.64025         1.85465        -4.75305
LJ           5.67586        -1.06661        -4.78894
LJ           -3.1281        0.693253      -0.0452472
LJ           1.45435        -1.85638        -2.34949
LJ           3.96205        0.439769          2.0183
LJ          -3.49138         4.85119        -5.61098
LJ          -2.05028        -3.82028        -5.40122
LJ          -3.65017        -4.35532          1.4174
LJ         -0.414092         1.31223        -3.66609
LJ          0.917577        -2.33334         2.65124
LJ          -4.07206         3.15674         5.89969
LJ           1.94272         1.34303        -3.64033
LJ          0.137912        -6.05165       0.0492986
LJ           1.01773          3.1733         3.92714
LJ          -4.63787         -4.7046         1.89217
LJ           3.30877        -5.41641        -2.63503
LJ           1.11671        -5.93904       -0.635505
LJ           4.06156         4.51242        -2.89778
LJ           4.17841          3.3375        -4.48434
LJ          -3.95454         2.04672         6.20125
LJ         -0.534734        -2.35965        -6.15733
LJ          -6.20096       -0.837618        -2.35316
LJ           3.54416        -5.40807         3.31453
LJ          -2.20736         0.89318        -1.57199
LJ            4.7547       -0.233793         5.39097
LJ          -5.71529        -1.40002        -6.34498
LJ           4.25587         1.66674        -5.61987
LJ          -2.98539         -6.0933        -5.54236
LJ           4.97512        0.721808        -3.04878
LJ           3.44159         -4.6106         2.04921
LJ           0.17803         2.48451         4.71156
LJ            3.4105         1.46772        0.607009
LJ          -1.40012        -5.77845        -1.84909
LJ           1.84921         4.89592           3.859
LJ          -2.64126        -2.93836        -6.39241
LJ          -5.49697         3.47949            5.01
LJ           1.98134         5.59279          4.6379
LJ          -4.87584        -5.95674         3.51412
LJ          -3.96941          1.0483        -2.37281
LJ           5.53612         4.87613         3.04809
LJ          0.345254         4.57928          4.9449
LJ           4.54272         5.39244         3.11181
LJ          0.779553         -5.5501        -2.19674
LJ           5.88071        -3.06735        -2.24109
LJ          -4.60022        -3.73767          1.0218
LJ          -0.54177         1.63822         2.24198
LJ          -4.93637      -0.0803488         5.59685
LJ          -2.94238        -0.82255         5.29109
LJ          -4.54383         2.59979         4.36153
LJ          -4.74014         0.28906        0.418695
LJ          -4.85082         3.89142        -6.09554
LJ            6.2127         4.72109        -3.71188
LJ           4.89331         4.63509        -4.35024
LJ          -4.87884         1.97071         1.28975
LJ          -2.35189         6.02438        -2.31089
LJ          -4.01743        -3.41457         4.23321
LJ          -6.03481        -2.63149        -5.01831
LJ          -5.55299        -4.81904         0.28278
LJ         -0.628881        -6.13004        -1.07697
LJ           3.29694        -5.62528       -0.691664
LJ           4.26667        -2.74428        -4.97928
LJ           1.04311        -5.54767         1.39223
LJ           5.06172        -2.16516        -2.66971
LJ           5.99316         3.36145        -1.98683
LJ          -1.22408        -4.08604         -3.4637
LJ         -0.453503        -6.25575         4.53473
LJ          0.750371       -0.807231        0.894311
LJ           2.95392         4.35695         4.09071
LJ          -3.83302         0.38979          1.1227
LJ          0.369073         3.17949        -6.31824
LJ          -4.89592        -4.17506         3.13687
LJ           5.81164       -0.857807        0.551003
LJ          -4.36757         5.52217         1.84948
LJ         -0.670739        -1.91648         5.60523
LJ           5.11242        -6.27991       -0.539146
LJ          -3.01631        -6.10228        -3.23511
LJ           1.25035         4.57117        -5.52181
LJ          -3.34476        -1.24651         4.12166
LJ          -1.90076         1.39032         1.46511
LJ          -4.75925       -0.447677         1.81106
LJ           1.89882        -4.44506       -0.230626
LJ          -4.03978         -5.9296        -1.79219
LJ          -2.49093        -5.37788         2.82256
