108
#Comment!
LJ          -3.22919         4.90043         -5.8665
LJ         -0.549309          5.4806        0.505002
LJ          -4.16462         2.03638          3.0565
LJ         -0.459673        -1.13527        0.660785
LJ           -4.5733        -1.02523       -0.430641
LJ          -3.86029         1.18899        -6.21138
LJ           2.24823        -6.22642        -5.08554
LJ          -5.55734       -0.176417       -0.178604
LJ          -5.97399        -6.28092          1.7978
LJ           6.36136         3.71232         5.21458
LJ           -6.1833        -2.34673       -0.627817
LJ            4.0151        -3.09329         -4.4337
LJ          -3.77775       -0.825724          5.7129
LJ          0.448501         0.29807         3.78421
LJ           2.88449         2.35281        -5.13942
LJ           6.35078         4.69899         1.26646
LJ          -6.02269         2.95234        -3.67049
LJ          -5.23549        -6.44965       -0.539878
LJ          -1.07833         1.66977         1.37618
LJ          -3.87746          3.0873        -1.73672
LJ           -1.2202         4.16295         6.03008
LJ          0.660149         2.72104         2.69878
LJ           5.06347         -4.1849       -0.650369
LJ          -1.41945        -3.06788         4.63462
LJ           -6.2227        -3.56036         2.60942
LJ          -2.04342          -3.469        -2.88937
LJ           5.55274         5.57988       -0.964249
LJ          -2.40043         4.92171         6.14895
LJ           3.03781         4.86962        0.107948
LJ          0.620272        -2.27834        0.550636
LJ           5.59209        -2.48541        -2.84685
LJ           2.85473       0.0436613        -1.10547
LJ           -6.1321        0.130424        -3.04735
LJ           3.05846        -5.44951        -4.17682
LJ           6.28177       -0.644719         3.05377
LJ          -2.08007           5.518       -0.699174
LJ          -3.96543         4.93905         5.05646
LJ           4.71252         3.75547         -5.7825
LJ           2.44396         4.02801         3.34645
LJ          -2.01141        -5.13007        -4.09905
LJ           3.24026       -0.936887         2.50996
LJ           0.62989        -5.14163         2.64228
LJ           3.05779       -0.622753        -4.97124
LJ           5.15892       0.0938865         6.06695
LJ          -3.72534        -2.53585         3.45368
LJ           4.56831         2.37552        0.647591
LJ           -3.8164           4.041         2.12454
LJ          -5.38806        -5.96739        -1.40473
LJ           2.53465        -2.20765         3.02265
LJ           4.66192         4.60632        -4.48598
LJ           3.11646        -3.77712         6.41913
LJ          0.825359       -0.630533         3.33544
LJ          -4.77296         2.25337         1.91353
LJ          -5.56686        -6.19693        0.440981
LJ          0.768661         2.46956        -3.10648
LJ           4.37387       -0.119162         3.33468
LJ           1.80364       -0.557528       -0.891452
LJ           5.04424        -4.49393        0.731257
LJ           4.96524        -5.97722       -0.169297
LJ           2.45885         6.30671        -6.15745
LJ          -2.83557       -0.706942        -6.26945
LJ           1.50138        -5.22453         4.31613
LJ          -2.16382         6.25385         1.34759
LJ         -0.617394        -4.90022        -2.81232
LJ          -1.96529         3.48408        0.433095
LJ           4.42827        -2.37842        -5.27992
LJ           5.38949         1.04241         6.44913
LJ           3.50272        -1.72654        -4.38074
LJ          -1.39053         0.48715         2.56463
LJ         0.0689876        0.123132         2.78491
LJ           2.06817        -4.96281        -1.20619
LJ          -6.42102       -0.171491        -1.88064
LJ           1.59907         4.66175        -5.69584
LJ         -0.334446         3.91675         3.12404
LJ            5.4734         4.78053        -1.76774
LJ          -6.30014         1.61903        -1.56999
LJ           -2.7106        -4.27569           -3.39
LJ          -5.25404         5.24043          4.2119
LJ           -1.2226         1.70182        -3.74151
LJ           -3.2827        -1.16231         1.00442
LJ           3.96688         0.69297        -5.59473
LJ          -1.87792        -2.09406        -5.64503
LJ           2.99142         6.16078        -2.29803
LJ          -2.93255         1.36866         2.16086
LJ        -0.0534068        -4.54739         1.21044
LJ           -3.9703        -3.07661          1.8939
LJ           3.53893         1.01149         5.53964
LJ           1.36552       -0.119225         6.36517
LJ          -5.09881        -1.09312        -4.76101
LJ          -5.14459        -5.26608          2.4183
LJ          0.858216        -1.34784        0.978032
LJ         -0.579215        0.278277         1.81745
LJ          -4.29002         6.30517        -6.08094
LJ          0.611952         6.24008        -3.40093
LJ          -4.79622         1.32618        0.903162
LJ          -5.01002         4.64749       -0.634062
LJ           -3.1988        -0.76638        -1.90845
LJ           3.40338         -5.4382         5.72237
LJ          -5.24449         5.24433        0.133308
LJ           5.34011         3.01716        -5.27614
LJ           0.24437         1.46617         2.65533
LJ          -1.63048         6.16467         4.63673
LJ           2.71995        -1.62589        -5.22421
LJ           -1.9844        -4.58472         6.23489
LJ          -0.90231       -0.650587        -3.13958
LJ           2.52619        -4.66782          4.2189
LJ           1.32619        -5.03488        -3.53201
LJ           4.81026        -3.14899         5.94272
