108
#Comment!
LJ          -4.46768        -4.96045         2.35533
LJ          -1.93221         5.70868        -4.84849
LJ         -0.282404        -4.22458        0.576961
LJ          -5.58375        -6.15239         5.80483
LJ          -4.50076        -4.01748        -1.08179
LJ          -1.83999         2.39027         4.78183
LJ           5.06655        -2.99867        -3.01642
LJ           -5.5257         3.16856        -4.44126
LJ           4.04164         4.10251         2.11369
LJ          -6.44789         1.82919        -2.98387
LJ          -5.61356        -3.04627         1.60248
LJ          -2.62681        -5.07873         5.63337
LJ          0.101135          2.2726         3.12822
LJ          0.367877        -2.74314       -0.156286
LJ          -2.21294        -2.74489      -0.0153383
LJ           2.77816          4.1484         1.14079
LJ           4.35083        -2.54226         1.38475
LJ          -5.35926        -6.10037         4.46541
LJ           -2.1188         3.74991         1.74045
LJ          -1.62942          1.2498         1.61762
LJ           6.29649         2.22405        -1.97556
LJ          -1.79678         4.06364         4.92332
LJ           -4.5451         3.04217         6.40865
LJ          -5.08175         5.45891         -1.6603
LJ           1.02022         4.83362         6.00789
LJ           3.10695        -1.17368        -3.89943
LJ           5.46683        0.961613        -4.23079
LJ          -4.35257         2.33135         -2.3919
LJ          -2.57302       -0.618013     -0.00451299
LJ          -5.49941         1.50243        -1.43966
LJ          -4.11938        -6.10658         3.86676
LJ           5.47164          -4.585        -1.35585
LJ          -3.32319        0.271675        -3.01584
LJ           2.59244        -4.00945        -3.15327
LJ          -4.93689         5.16362          5.0943
LJ          -1.84861        -6.23805      -0.0851419
LJ           2.05906        -5.30275        -6.25032
LJ          -3.55251         3.41074       0.0849143
LJ           1.49163        -3.80296         4.56588
LJ           1.41937         2.97015       -0.838641
LJ           1.86912         -5.5652         4.84481
LJ           5.25215        -2.90808        0.640271
LJ          -4.17034        0.301727         -3.7868
LJ           3.30685        -5.99398        -1.10261
LJ           4.85297         5.74731         5.02349
LJ          -2.27654        0.394842        0.797891
LJ         -0.562336         3.02404        0.738583
LJ           2.97775        -4.49703       -0.132976
LJ           1.73515        -4.60484         5.82349
LJ          -6.07001        -5.14494         3.98787
LJ          -6.22429         6.20531        -4.44722
LJ           4.92922         5.32417        0.538063
LJ          0.396935        -5.71337        -1.43318
LJ          0.559042         4.61584        -1.30021
LJ          -5.68808        -1.79535        -5.65894
LJ           2.61388         4.26912         4.00224
LJ          -1.34891         4.40426        -4.41303
LJ           4.78244        -6.29334        0.722214
LJ          -2.13201        -4.31488        -6.36337
LJ          -5.87667        -3.53745      -0.0995967
LJ          0.793067         4.68187        -2.33316
LJ           3.49646         1.09065         -4.6499
LJ          -5.38862        -3.84305        -5.70383
LJ          -0.68164        -0.86194        -6.40508
LJ          -3.57487         1.79308        0.168368
LJ           2.44733         1.48069        -3.28902
LJ          -2.32865         5.85169         2.24767
LJ          -3.30048        -5.63901       -0.401381
LJ           3.35058          3.1921         5.96054
LJ          -4.08356         2.90243       -0.627919
LJ          -1.61082       -0.741882        -1.40785
LJ            4.2452        -1.07751         2.10754
LJ          -1.18096         -3.1691        -3.60491
LJ          -1.74904        -3.69671        -1.65371
LJ           5.76521         4.79234        -1.97784
LJ           4.06894         3.35048        0.817689
LJ          -1.80131        -4.15229         3.74931
LJ          -3.82697         5.22877        -6.17086
LJ           2.01569        -5.16498        -3.35014
LJ           3.51817         2.05009        -2.25682
LJ            1.9478        -5.93917        -1.96875
LJ          -3.21579        0.317506         5.06551
LJ           -2.7013         -1.8217        -3.65446
LJ          -3.48383         3.98529        -5.82609
LJ           3.84914         4.28597         5.22573
LJ           3.29139       -0.809235        -2.16342
LJ           6.30361         3.54441        -1.33463
LJ          -1.19707          3.9096          -5.587
LJ           2.96155         1.78872         2.21916
LJ          -3.31323        -6.04105         2.72814
LJ          0.985328        -3.52899         5.79561
LJ           6.23849         -4.6587        -0.17631
LJ           3.76012         -6.3019           2.182
LJ         -0.286017         2.71152         1.83012
LJ          -2.40768        -3.58803        -4.31089
LJ           4.64188        -6.44316        -1.20947
LJ           2.77535        -4.80903        -4.93106
LJ           -2.3939        -4.65865         1.80587
LJ         -0.495106         3.70164        -2.13137
LJ          -1.35774         3.30727         4.21115
LJ           3.18847         6.13752      -0.0606737
LJ          -3.58381         2.64835         5.99449
LJ           4.79547         -5.2024         4.56271
LJ           5.84494        -5.73515          4.6642
LJ           5.79724         3.06496         5.63214
LJ         -0.811252         2.53513        -1.80774
LJ          -4.31448        -1.76049         2.34168
LJ          0.830018        -6.27742        -2.68587
