108
#Comment!
LJ            -5.747        -0.27623         -5.9836
LJ          0.612548         2.47462         -3.5763
LJ          -5.07782         2.23408         3.19874
LJ          -1.75045         2.59371         1.40885
LJ           6.29085         2.10256       -0.886698
LJ           6.38688         1.87162         1.31333
LJ            1.3092         4.39541        -5.62894
LJ           4.17757         2.80732        -5.24752
LJ            3.9819        -3.92049         1.61843
LJ          -3.47843         3.44379            2.73
LJ           5.43515         1.52378        -3.25385
LJ          0.835599         1.31104        -4.16232
LJ          -1.05924         1.81186        -6.31663
LJ           4.15605         2.09608         5.62555
LJ          0.715331         4.11407         6.17222
LJ          -4.57651         4.18501       -0.439368
LJ          -1.76772        0.386874        -2.76868
LJ          -3.28999        -5.45617        -1.83679
LJ          -3.88526        0.110586         3.88053
LJ          -3.21917         4.81866        -1.55805
LJ          0.946202         5.44238        -5.80224
LJ         -0.586765         3.12595         3.40686
LJ           3.19905        -4.33362         2.49955
LJ          -3.73989        -4.97119        -2.69765
LJ          -5.75657        -1.55796         2.16996
LJ          -2.20793         3.40166        -6.41285
LJ           3.44516         -5.0228        -3.61022
LJ          -2.49404         5.55461         2.77366
LJ           6.42799         6.38735       -0.538247
LJ         -0.870368        -2.16007       -0.185712
LJ           3.36836        -4.15995        -1.80128
LJ           1.55346         1.05288        0.125482
LJ          -3.11886        -2.23239        -3.46551
LJ          0.617456        -4.99279        -4.75653
LJ          -6.12254       -0.860986       -0.415032
LJ           -2.2027         4.38222        0.167885
LJ          -2.42019         3.16926         5.44653
LJ            1.3429        -5.14777        -5.94093
LJ           2.04811         5.41447         3.09772
LJ         -0.608354          5.7268         5.77654
LJ           4.47136      -0.0722081         2.63803
LJ          0.413129        -6.22894         3.91022
LJ           5.28291       -0.381077        -1.97226
LJ           3.90765        -3.50304        -1.21946
LJ           -2.0451        -5.72722        -2.32545
LJ           4.92738        -1.77282       -0.336104
LJ           4.87087         2.16746         2.03232
LJ           -4.8101        -6.07807        -1.81349
LJ           4.67215         1.05972         1.75855
LJ           5.75837         2.48327        -2.15936
LJ           1.42988          1.8319        -3.35968
LJ          -5.55023        -2.38084         4.38988
LJ          -3.90867         1.30969       -0.331534
LJ          -4.82967          3.1409       0.0462831
LJ          -1.42076         -3.7114         0.49424
LJ           3.83532       -0.772523         1.32681
LJ          0.679361        0.431332         1.38818
LJ           5.57545        -6.02008         4.28962
LJ          -4.38637          4.7701        0.900366
LJ           2.35716         3.42488         5.29946
LJ          0.437803        -5.81878        -3.76988
LJ          -2.96522       -0.391819        -2.82884
LJ          -2.10509          2.0222       -0.360314
LJ         -0.418035        -4.02977        -2.67605
LJ          -1.48297         5.76734         2.58585
LJ           6.35006        -2.17484        -5.17496
LJ          -5.20323         1.31207         4.69354
LJ           1.60384        -3.61326        -3.21857
LJ          -1.03432        -3.31718         3.72998
LJ          0.275262         -0.4029        0.741983
LJ           5.50829         5.71145         -5.6968
LJ          -6.27623         2.07411        -3.51706
LJ           1.55981          5.8112        -2.72605
LJ         0.0500346         2.28636         6.01584
LJ          -3.03585         6.33829        -1.54142
LJ             6.204        -2.23399        -3.01339
LJ          0.396051        -4.97245        -2.45812
LJ           3.65605         6.43674         -1.1565
LJ          0.271801         3.46393        -5.43469
LJ          -5.22284        -2.97404        -1.35504
LJ           2.23639        -3.72423        -4.67963
LJ         -0.873374        -1.15559        -5.68833
LJ            4.9251        -1.33068        -2.08438
LJ           1.17017        -3.14774         4.07642
LJ          -1.74408          -5.692       -0.274592
LJ         -0.637651       -0.611759         1.66058
LJ          -5.83984       -0.422262        -3.62123
LJ           2.09068        0.272273         6.30845
LJ          -6.22307        -3.32786        -4.91433
LJ           4.36008        -3.93578        0.525643
LJ          -1.61275        -2.03091         2.03346
LJ         -0.583855        0.297684         3.96119
LJ          -3.53174        -4.49269         6.23234
LJ           3.02326        -6.45268         -4.3149
LJ          -2.40778        -1.26404         1.11871
LJ          -1.95566           4.393        -2.02403
LJ          0.368234       -0.312065          -0.659
LJ           2.92729         5.56999         6.24309
LJ          -2.86099        -3.97397        -2.37868
LJ           5.89773         4.04416        -3.07531
LJ         -0.527519         1.61384         4.92313
LJ           -2.3811         5.83319         1.70069
LJ          -1.00922        -5.71649        -3.79009
LJ         -0.741083        -6.09822        -5.80305
LJ          -2.46864         1.98886        -5.77188
LJ           1.30242        -2.91929         2.89364
LJ            2.1294         2.92886         6.26782
LJ          -1.23837       0.0177608        -6.03188
