108
#Comment!
LJ           5.51295        -2.85359         4.81182
LJ           5.31797        -5.98618           -4.06
LJ          -1.70749       -0.251516         1.81914
LJ          0.567445        0.850798         2.91181
LJ           3.74538         2.96827         5.44892
LJ         -0.602381        0.617248         2.31515
LJ          -1.14171         6.09776        -4.37459
LJ           4.34036         5.22237        -4.10818
LJ          -1.16936         3.43691         5.31851
LJ           2.20369         -5.6109         6.32457
LJ          -5.16465         1.77097        -5.51214
LJ          0.542684        -2.65769        -5.49305
LJ            2.2491         4.36622        -4.23643
LJ         -0.440831         -5.8364         2.93251
LJ          -2.06026        0.266785        0.614788
LJ          -5.69846         4.19599          4.9861
LJ          -1.35756         4.62295        -5.07556
LJ         -0.232489        -3.47612         -5.6565
LJ         -0.600733        -1.86129         4.22608
LJ           4.87137         3.28618         5.65836
LJ           3.99509         5.49624         1.71325
LJ          -1.65021         2.86629        -5.44799
LJ            3.2244        -4.49516        -5.89721
LJ          0.209782        -5.26239         5.96836
LJ         -0.506849         5.40013         5.50074
LJ          0.146967         2.67311        -2.50254
LJ           6.19337        -3.39635         5.41076
LJ          -1.65603         4.39808       -0.599451
LJ          -6.09006        -5.65567        -1.82474
LJ          -3.39923        -3.03241       -0.887768
LJ          -1.47071         2.92072        -2.08866
LJ          -4.80567         5.64316         4.31077
LJ          -2.80892        -5.82877        0.372604
LJ          -3.71098        -5.68127        -5.67387
LJ            1.4637         2.68648        -1.44797
LJ           3.70476         5.13315         3.17587
LJ           2.48756         5.03681        -5.25058
LJ           1.97074        -5.21411        0.684749
LJ          -1.03642        -1.11391          5.0868
LJ           -5.8304        -2.23001         4.41723
LJ            1.1784        -3.64437       -0.408878
LJ           1.08058        -5.06973         1.53634
LJ           6.13758         4.18585        -4.92648
LJ          0.249648         6.34321         3.27546
LJ          -2.55893         2.28048         6.34454
LJ           -2.3577        0.189168         2.99155
LJ           2.69032        -6.45958       -0.540774
LJ          -5.42511         6.25777         5.69699
LJ          0.298769        -1.29125         -4.5333
LJ           3.89287         4.21921        -1.32705
LJ          -5.05106         -2.7191         6.02383
LJ           4.04997      -0.0287393         2.91103
LJ           -2.8822        -2.08559         4.94312
LJ           -3.4513         3.21315       -0.577456
LJ           4.62064        -5.94975         6.23397
LJ          -4.05893       -0.670666        0.758929
LJ           4.87923       -0.240178        -5.04681
LJ          -1.27325        -4.39273         -3.4532
LJ          -2.47834         4.05938         5.77749
LJ          -3.07225         2.79938        -5.26497
LJ           -5.6388         1.60401         2.99562
LJ          0.232545         2.86435         -6.4064
LJ          -2.37295          5.8501        -5.90491
LJ          -2.30032       -0.771637        -4.69295
LJ           6.25024        -3.62416        -5.60982
LJ          -2.49824          5.2085         6.03047
LJ           4.83975         5.24627         2.73768
LJ           1.12663         3.84349         4.27957
LJ           5.46555        -2.91695        -6.11064
LJ            3.3708        -1.16478         6.08014
LJ          0.474751       -0.467576         3.79448
LJ         -0.204334         1.72447         2.82888
LJ          -4.30113         5.25243        -5.00213
LJ          -5.53694         1.97497        -3.81422
LJ           4.73464        0.474921         4.73887
LJ           6.21349         3.94837         5.12372
LJ          -4.71872        -6.15475        -2.39674
LJ          -5.51398         4.57059        -4.24253
LJ            4.8549         2.59152        -1.54587
LJ          -1.49426        -5.22653        -2.77013
LJ          -2.02973        -1.42427         -6.2505
LJ           1.69057       -0.355062        -5.87151
LJ         -0.770203        -4.10323         2.10108
LJ          -2.38276         6.40572         2.30828
LJ           4.32005         1.75254        -2.01362
LJ             1.295        -1.36442        -5.60921
LJ           3.02909        -4.24301         4.21936
LJ           5.02465        -5.20676        -3.19979
LJ            4.6509          4.3177        -4.09715
LJ           3.54508        -5.98785        -4.52663
LJ           1.89809        -4.03376         1.37222
LJ           0.45976       -0.775435         1.33794
LJ           5.35579        -4.10847         5.32245
LJ           4.58618       -0.593823         4.67296
LJ          -1.35913        0.286836        -4.39684
LJ          -4.75061         -2.1354         4.62617
LJ          -5.28893         -4.3207       -0.690876
LJ          -3.77978        -1.53885         3.57004
LJ          -4.20266        -3.97627        -5.66805
LJ           4.48603         2.19408         5.00086
LJ          -2.97564         1.58304        0.182148
LJ          0.957821         2.91205        -4.24997
LJ         -0.665296       -0.348332         1.82721
LJ          -1.58795         2.51258         1.61878
LJ           6.26324       -0.204513         4.53044
LJ         0.0944029         6.35253         0.82133
LJ          -4.46695         3.95211        0.967777
LJ          -5.99225        -3.49552        -2.91403
