108
#Comment!
LJ         -0.996869        0.362385        -2.07907
LJ          -2.30147       -0.831608        0.546904
LJ          -5.56301        -2.51569         4.48731
LJ          -5.64592         -6.1438        -4.73142
LJ          -5.69938          6.3407        -2.85243
LJ          -2.54967        -3.41063         4.77668
LJ          -5.47033        -5.28579         -3.8404
LJ           3.92741         5.94369       -0.672874
LJ           4.63883        -1.42365         2.78267
LJ           2.21809         2.90056         1.71974
LJ          -1.09781        -1.98118         2.40691
LJ           3.69726         1.44151         3.23254
LJ           3.86212         5.03101         1.16049
LJ          -1.38767        -2.36339         6.26498
LJ           6.01642         3.59282         4.59219
LJ          -5.84401        -1.87579        -5.55174
LJ          -1.51776         6.24131        0.262449
LJ           2.31612         1.52902         1.76185
LJ           3.71617        -4.22234         4.03657
LJ           -6.3433        -6.05388        -3.52041
LJ         -0.848951        0.704716        -5.64338
LJ           1.88456         1.77611        0.554643
LJ         -0.304024         1.68878        -2.38624
LJ          -4.51045        0.942715         6.20787
LJ            1.2807       -0.670065        -4.04045
LJ           5.69213        -1.94722        0.902985
LJ           2.44645         -0.3379       -0.138384
LJ           -5.5605        0.922979       0.0071113
LJ           1.27203         4.90273       -0.778602
LJ           2.63267         1.48275        -5.37774
LJ           1.46034         -5.4041         2.22402
LJ          -1.95024        -6.38379         -4.0268
LJ          -6.19525        -4.66958        -4.85173
LJ           2.51216        -2.98858          3.8201
LJ          -3.48562          4.6575         5.71691
LJ           3.19771         4.27916         6.30966
LJ           1.56069       -0.268629        -2.01588
LJ           4.26166       0.0206891       0.0808477
LJ          -5.06873         2.81159        -3.91483
LJ           2.66871         2.24053         4.05118
LJ          -1.96668         2.20833         4.39706
LJ           1.21492         4.66116        -2.51385
LJ          -3.80507        -4.09283         5.04771
LJ           3.06569         2.44242         3.08602
LJ           2.69572        0.625769        -2.33634
LJ           3.42644         5.83627         4.70146
LJ           1.56667        -1.10248         2.39445
LJ         -0.601579         3.87543        -2.60986
LJ           1.51505         5.31986         1.90522
LJ          0.919492         6.26633        -6.36003
LJ           3.35552         1.52999         -4.6147
LJ         -0.949026        -4.62412         3.70054
LJ           -3.5846         4.70911        -3.39027
LJ          -3.48135        -2.60042        -6.24616
LJ          -1.89956         1.35353        -3.83629
LJ           0.45936         4.29036         6.25193
LJ          -1.27924         2.29139          6.4346
LJ           5.16222        0.734375          5.5416
LJ          -4.97381        -6.02846         4.64794
LJ          -5.67367        -5.64145         3.95447
LJ          0.766001         1.21878      -0.0147591
LJ           3.91208        0.615468        -3.97073
LJ           6.41175        -3.89188         4.91777
LJ          -4.85603        0.118711         5.27505
LJ           -4.9747        0.658808         2.13972
LJ          -3.40386      0.00729935        0.154198
LJ          -1.55736        -2.32568         -3.2517
LJ         -0.590945        0.993814        -1.22892
LJ           -4.4866        -1.39321       -0.147207
LJ           1.55712         3.50181        0.252495
LJ          -4.20418         3.68655         5.15764
LJ           5.40542         1.84802         -3.9431
LJ           3.03126        -5.80559         2.53286
LJ         -0.277007        -4.42678        -6.34319
LJ          -3.86163         4.38311        -1.72615
LJ           2.15681         5.66078         3.52941
LJ          -4.58964         5.54321        -6.08824
LJ         -0.450172        -5.15306        -1.57273
LJ           2.17801        -1.29778        0.447801
LJ           1.90334        -6.02437         1.42209
LJ         -0.660078        -4.83016        -3.96799
LJ           6.41911        -4.90657        -3.85784
LJ          -1.82326         3.10436        -2.22417
LJ          0.950768         0.48642        -4.49916
LJ          0.877514        -3.24826         4.26171
LJ          -3.28712         1.03297         2.00117
LJ          -4.07088         1.46002        -5.83767
LJ           1.59048         3.06091         6.31967
LJ           2.83936        -1.79913        -2.16596
LJ          -5.64587        -3.81117        -5.25588
LJ           2.29953          1.3656          4.6085
LJ           2.97101        -4.86973         2.60211
LJ           2.44547        -3.98898        -2.57014
LJ          -3.78912        0.290966        -3.85056
LJ           1.24302        0.979051        -2.20587
LJ           3.25774        0.993744         1.11666
LJ          -4.84828        -2.51972        -5.07191
LJ          -5.09052          3.8694        -3.31339
LJ          -0.97521         -6.0739        -1.03246
LJ          -3.69041        -1.40535        -5.81337
LJ          -1.35217          2.3999        -5.36116
LJ          -5.36658         2.77684         3.87635
LJ           6.41645        0.115854         -6.0259
LJ           5.47369          1.5177         3.92768
LJ          -1.72474         1.73073         2.14317
LJ          0.367289        -5.95391        -1.65315
LJ           3.07557        -1.40589         1.03435
LJ            4.5499         5.08344        -2.83015
