108
#Comment!
LJ            5.4536        -2.94829         4.82715
LJ           5.34484        -5.91257        -4.19699
LJ          -1.64773       -0.415258         1.83813
LJ           0.75449        0.599889          3.0562
LJ           3.53477         2.54156         5.13962
LJ         -0.582766        0.609015         2.30077
LJ           -1.4341         6.24297        -4.33836
LJ           4.42155         5.38766        -4.00627
LJ          -1.26246         3.41751         5.17543
LJ           1.89723        -5.54106         6.20924
LJ          -5.24958         1.91446         -5.4666
LJ          0.388656        -2.84435        -5.57873
LJ           2.23819         4.36437        -4.33008
LJ         -0.456573         -5.6296         2.66551
LJ          -1.97939        0.523703        0.638114
LJ          -5.73567         4.13449         4.90134
LJ          -1.21877         4.36458        -4.90041
LJ          -0.45815        -3.46615        -5.72081
LJ         -0.636823        -1.56551         4.26068
LJ           4.91218         3.33678         5.36835
LJ           3.85872         5.57778         1.58742
LJ          -1.42465          2.9589        -5.37059
LJ           3.57396        -4.43296        -5.80261
LJ          0.478399        -5.18927         5.78086
LJ         -0.619783         5.42797         5.46648
LJ          0.268251         2.68778        -2.25174
LJ          -6.40572        -3.48058         5.62089
LJ          -1.65621         4.56668       -0.643928
LJ           -5.7938        -5.87314        -1.79918
LJ          -3.12073        -3.25218         -1.0396
LJ          -1.30228         2.88169        -1.85437
LJ           -4.8567         5.69964         4.14675
LJ          -2.76276        -5.84362        0.371629
LJ          -3.86645        -5.44099        -5.85591
LJ           1.52287         2.97934        -1.60907
LJ           3.56491          5.2518          3.1221
LJ           2.53347         5.18808        -5.19929
LJ           1.91417        -5.22818        0.582556
LJ          -1.20555        -1.38245         5.11712
LJ          -5.82153        -2.15866         4.33932
LJ           1.04156        -3.55911       -0.291179
LJ            1.2138        -5.02551         1.70788
LJ           6.23378         4.04609        -4.97151
LJ         0.0926499         6.35975          3.0921
LJ          -2.50245          2.2786         6.33255
LJ          -2.40512        0.302884         2.63452
LJ            2.6651        -6.07745        -0.25525
LJ          -5.02123          6.1874         5.73995
LJ          0.501502        -1.50751        -4.67382
LJ           3.85402         4.40958        -1.69452
LJ          -4.92609          -2.833         6.19827
LJ           4.12934       -0.173866         2.71072
LJ          -2.94412         -2.0075         4.67531
LJ          -3.24431         3.34566       -0.445586
LJ           4.62823        -5.93244        -6.41984
LJ          -3.63512       -0.821413         1.23426
LJ           4.92873       -0.252325        -4.69024
LJ          -1.21998        -4.28483        -3.56261
LJ          -2.70011         4.19107         6.06494
LJ          -3.17727         2.44419        -5.19317
LJ          -5.42389         1.15958         3.06203
LJ          0.327432         2.72501        -6.28461
LJ          -2.59898         6.02728        -5.99875
LJ          -2.17228       -0.819537        -4.83582
LJ           6.27301        -3.41742        -5.39007
LJ          -2.67753         5.27698         6.19964
LJ           4.52877         4.93985         2.46025
LJ           1.30653         3.99823         4.61945
LJ           5.42483        -2.62836        -6.13499
LJ           3.23616       -0.945601         6.29054
LJ          0.439227       -0.535226         3.88588
LJ         -0.270943         1.46439         2.68999
LJ          -4.31504          5.5438        -4.94645
LJ          -5.85471         2.02486        -3.49436
LJ           4.34156        0.566141          5.0066
LJ           5.95074         3.88107         5.04229
LJ          -4.59798        -6.03118        -2.32208
LJ          -5.45687         4.63758        -4.35386
LJ           4.69621         2.68129        -1.67483
LJ          -1.48903        -5.14719        -2.76313
LJ          -1.85503        -1.48789        -5.90543
LJ           1.47986      -0.0949851        -6.04849
LJ         -0.499239        -4.07048         2.15729
LJ          -2.55868        -6.10183         2.35026
LJ           4.41194         1.45298        -2.13577
LJ           1.05676        -1.35031        -5.59527
LJ             3.093        -4.25575            4.36
LJ           5.06182        -5.50359        -3.23445
LJ           4.72623          4.0569        -4.25151
LJ           3.73048         -5.9805        -4.57902
LJ           1.80773        -3.83757         1.24741
LJ          0.396668       -0.804683         1.33696
LJ           5.49055        -4.04543         5.34953
LJ           4.40188       -0.633832         4.79798
LJ          -1.52385        0.208518        -4.33969
LJ          -4.71483        -2.00181         4.51756
LJ          -5.20318        -4.46704       -0.747131
LJ          -3.82165        -1.77637         3.54147
LJ          -4.32401        -4.00674        -5.49744
LJ           4.54305         2.13321         4.66086
LJ          -2.90858         1.28641        0.361037
LJ          0.656946         2.62843         -4.3606
LJ         -0.398067       -0.266066         1.62069
LJ          -1.56732         2.47193         1.64716
LJ           6.22849       -0.183375         4.66394
LJ          0.153974         6.24672        0.847606
LJ          -4.48102         3.78181         1.10281
LJ          -6.18944        -3.47897        -3.20604
