108
#Comment!
LJ          0.879433        -3.38981        -1.12249
LJ          -2.86738       -0.309661         -1.3646
LJ          -3.85594        -5.08603         4.34882
LJ          -5.24786        -5.43841        -5.70126
LJ          -2.82683        -6.19265        -3.84785
LJ          -4.41878        -1.55534         4.12417
LJ          -5.73035        -3.21055        -4.05076
LJ           3.02163         3.85718        0.213369
LJ          -0.10263       -0.505067         1.37548
LJ           2.25664         3.02255         1.34462
LJ          -1.29523        -3.12141         5.21334
LJ           4.98444       -0.918619         2.97856
LJ           6.25977         5.55253         2.13443
LJ             -2.96        -1.41696        -6.45983
LJ          -3.92036         4.65652         2.95576
LJ          -6.01055        -1.37838         6.26566
LJ          0.108825        -4.68951        0.271045
LJ           2.71014         1.87899          1.3293
LJ           4.14782        -4.18512         1.78948
LJ           6.26181        -4.98437         -3.5833
LJ          -1.01724         3.19571        -5.83948
LJ           1.19164        -0.54938        0.456517
LJ          -2.74467        0.323266       -0.334182
LJ          -4.96848      -0.0266037          -5.231
LJ           0.81565        0.188019        -1.15643
LJ           6.13027        0.420409         2.18678
LJ           2.67928        0.952283       -0.526114
LJ          -3.25394        -1.39293        -4.18283
LJ         -0.254628        0.835244         -3.4832
LJ           4.80791         3.42389        -5.58986
LJ           0.80259        -3.32108       -0.128584
LJ          -2.06876         3.85758         5.51763
LJ            4.3641         5.63433        -6.27783
LJ           3.92625        -4.86103         5.04347
LJ          -0.97673         4.02265         4.61788
LJ            3.2806         1.40234         5.48007
LJ         -0.739532       -0.347055        -2.68602
LJ          -4.67943       -0.164658        0.477183
LJ           -3.5166          6.2459        -2.89187
LJ            2.8289         3.27586         2.77629
LJ          -3.75341          4.1389        -6.06108
LJ           1.23521         6.45716        -4.17236
LJ          -3.38187        -2.48266        -6.21095
LJ           1.85274         2.41498         2.22184
LJ           3.62804         1.23319        -1.91858
LJ           1.77948         5.44976          5.2507
LJ           2.98544        -3.29286      -0.0758211
LJ          -1.35265        -6.27218        -2.03168
LJ           1.57851         4.30851        -1.00842
LJ          0.395128        -6.01649         5.32512
LJ           2.72336         3.79816        -4.80437
LJ         -0.673904        -3.60352         6.24612
LJ          -5.71766      -0.0237564        -1.66032
LJ          -3.48129        -1.04154        -5.24425
LJ          -1.29473         1.02158        -5.66176
LJ          -1.29241         2.08026         5.66578
LJ          -1.60784         2.68913        -4.28311
LJ          -5.11062         1.87083         5.53518
LJ           -3.6696         4.21484         4.50464
LJ           -3.8938         5.76814       -0.109322
LJ          -1.91604        -2.51011          1.8274
LJ           3.51462        -2.44122         -3.3359
LJ           5.17072        -6.21316         6.36012
LJ           -3.9712       -0.516984         5.36789
LJ          -3.89901       -0.420981         4.16654
LJ          -2.10145        -1.12772       -0.910747
LJ         -0.174214        -1.98366         2.06242
LJ          -1.81833        0.928585        0.388435
LJ          -3.06074        -1.25654        0.944917
LJ         -0.716207         5.96026        0.946399
LJ          -4.81905         4.31347         4.54068
LJ           4.28348         2.57175         -4.2034
LJ           1.98305         4.67586         2.42581
LJ           2.14902        -5.50976        -4.72179
LJ           5.88518        -5.67232        0.310573
LJ           1.03635         5.30315        -6.25463
LJ          -4.95821         6.32597        -4.80142
LJ         -0.925412         5.91206       -0.531584
LJ          0.121115         2.14664          2.5434
LJ           1.87092        -6.22363        0.229178
LJ           1.53769        -4.06746         -1.8938
LJ          -4.66499        -4.42496        -2.92552
LJ          -4.38619          4.9019        -1.43163
LJ          0.556554        0.847725        -1.95362
LJ         -0.303132        -1.86535          3.1122
LJ          -3.97032         1.85716       -0.903875
LJ          -2.96199         2.09096        -5.78791
LJ           1.77726         4.04234         5.85207
LJ           4.51995       -0.969401        -2.40135
LJ          -6.21879        -6.41478        -4.97072
LJ           4.38793        0.912552         5.18767
LJ           1.50042        -2.28995         1.10259
LJ          -6.43584         5.62382        -1.78599
LJ          -5.26836         1.41966        -4.29018
LJ           6.44659         3.22399        -4.56916
LJ           3.55845       -0.642736         1.20351
LJ          -6.22425         -3.2498         -5.7637
LJ          -3.71128         4.96807        -3.75452
LJ          -3.18754        -5.40755        -2.03148
LJ          -3.93934        -2.55897         2.17376
LJ          -2.12855         4.21742        -3.86577
LJ           5.20214         3.87615         6.27258
LJ          -3.53581       -0.651936        -6.34139
LJ           5.46201         1.94331         4.39912
LJ          -2.96119         5.43277         1.68884
LJ         -0.879869        -5.70786        -1.12885
LJ         -0.104075        -2.98168        0.606068
LJ            4.0849          5.5164        -3.41945
