108
#Comment!
LJ           5.67842       -0.406173         6.40976
LJ         -0.857051         3.48352          5.9594
LJ          -5.32143          1.7449         4.02134
LJ          -1.01756         4.38815         2.51864
LJ           4.94305         3.58862        -2.67394
LJ           4.91718         2.76013        -1.52638
LJ           1.45209         3.54905         6.42691
LJ           2.67713         4.50889         5.05196
LJ           2.00136        -2.92435          2.3348
LJ          -1.90951         2.60106         1.74726
LJ           5.71149          1.6945         -2.9477
LJ         -0.590857         1.67984         -4.7857
LJ          -2.04002         1.41935         5.99811
LJ           5.84599         3.22287        -6.01041
LJ          0.180163         3.26997         6.11192
LJ          -3.72482         2.62455       -0.859162
LJ          0.139208       -0.707625         -2.4115
LJ          -2.04822        -4.00899       -0.879104
LJ          -5.71505        -1.19542         5.25061
LJ              -1.7         4.59446        -1.92206
LJ           1.95788         3.76512         5.50145
LJ         0.0479913         2.13313         2.22421
LJ           3.74718        -3.62784          2.3984
LJ          -5.35342        -4.14868       -0.537555
LJ          -4.84141       -0.221777         2.32862
LJ           -3.3478         -6.4097         5.94675
LJ           3.65825         -3.4448        -3.22654
LJ          -3.83113         5.81565        0.284139
LJ          -5.48088        -5.59923       -0.552334
LJ          0.925675        -2.80146        -0.52385
LJ           2.86151        -5.33317         -1.1334
LJ           1.24947         1.67846        0.435594
LJ          -1.08934        -2.66781        -4.72695
LJ         -0.558249        -1.91638        -2.46357
LJ          -5.50704       -0.644801        -2.23648
LJ          -1.08649         4.22421        0.735505
LJ          -3.04959          1.3781         4.88677
LJ          -1.50326        -3.76319         4.47888
LJ           1.63695          6.3044         3.05117
LJ          0.919893         5.10347         4.78774
LJ            4.7505        0.132511          1.0422
LJ          0.378307         5.89745         4.44402
LJ          -5.26559        0.633015        0.120499
LJ            3.4285        -5.79207      -0.0607927
LJ          -3.22324         5.31453        -4.03479
LJ           4.21636         -3.7156        -1.43431
LJ           2.31066          1.8526         3.21693
LJ          -3.65761        -6.03394         -1.8412
LJ          -6.09618        0.194637         1.45503
LJ          -6.11652        0.725159        -2.46618
LJ           3.66799         1.06828        -2.36137
LJ           4.08104        -2.89948         4.51698
LJ          -5.91008         1.98372        -2.26926
LJ          -5.69053         3.60937       -0.182303
LJ          -3.55324       0.0819796         3.66841
LJ           3.71692        0.167312        0.919168
LJ         -0.624831        0.566847         1.65542
LJ           5.00369         5.48852         6.25167
LJ           -4.0435         2.62937        0.847248
LJ           2.05397         0.53084         3.75147
LJ          -0.37015         5.77883        -3.26293
LJ            -2.498         2.41684       -0.248866
LJ          -1.16755         1.49187        -2.23146
LJ         -0.364551        -3.94877        -1.10682
LJ         -0.986603         -4.2271         2.54755
LJ          -6.01109         6.40483        -6.41967
LJ          -4.27569         1.84506         3.08689
LJ            2.0589        -4.94371        -3.33972
LJ            0.1101        -6.05433         4.20245
LJ           1.95642        -1.25261        0.442047
LJ          -5.57812         4.54927         5.31904
LJ           5.09233         2.78211         -3.2731
LJ           1.78632        -6.09357        -1.94771
LJ           1.23431        0.491844        -6.20809
LJ           1.64583        -5.72421        -2.98021
LJ           5.73401        -2.19136        -2.37344
LJ        -0.0236506        -5.10202        -1.05894
LJ           1.16644        -5.65444         2.68131
LJ            0.0981         2.75106        -4.18197
LJ           5.44728        -5.63722        -2.60395
LJ           3.31929        -5.20011        -4.71244
LJ       -0.00997559        0.747529         6.39359
LJ           4.55391       -0.720524        0.482666
LJ           3.57619        -4.62797         4.06768
LJ          -2.23533        -6.28152        -1.72999
LJ          0.641586         -0.3417        0.966193
LJ          -4.02553        -1.36229        -1.16622
LJ            2.2227        0.667421         6.28626
LJ           6.02166        -4.41372         -4.8595
LJ           2.05644        -3.03952         1.26742
LJ          -1.74232        -2.59776           3.708
LJ         -0.620789       0.0250757         5.58898
LJ           -3.7158        -3.33382         5.72634
LJ           4.47227        -6.16124        -5.05061
LJ          -3.26231       -0.916259         1.40954
LJ          -1.80743          5.5526        -1.75204
LJ           2.31647        0.899648        0.285282
LJ           3.31311         5.76226        -6.18074
LJ            -2.826         -4.4477         -3.7264
LJ            6.4449        -5.58441        -1.68603
LJ          0.570569         1.67347        -5.83505
LJ          -2.57805         5.57192        0.496064
LJ          -1.18136          5.6883        -2.58251
LJ          -2.07892        -4.76927        -5.08455
LJ          -2.85847          5.1576         6.21125
LJ         -0.178484        -2.61839         2.79052
LJ           2.84484         1.11426         4.37165
LJ          -4.15544         1.26448        -4.19673
