108
#Comment!
LJ           5.40411        -3.13868         4.89942
LJ           5.35475        -5.82683         -4.4839
LJ          -1.48027       -0.538579         1.88893
LJ          0.947124        0.160679         3.29759
LJ            3.3127         1.81024         4.59106
LJ         -0.871227        0.398417         2.42278
LJ          -1.92629        -6.44662        -4.28503
LJ           4.54976         5.70087        -3.85297
LJ          -1.42941         3.39197         4.95415
LJ           1.50828        -5.48696         6.11573
LJ          -5.38849         2.15772        -5.38349
LJ          0.259946        -2.99695        -5.67912
LJ           2.24824          4.4336        -4.55925
LJ         -0.587106        -5.09532         2.13835
LJ          -1.68211        0.889208        0.757906
LJ          -5.88488         4.02398          4.7682
LJ         -0.996343         3.90482        -4.61901
LJ          -0.94646        -3.54186         -5.8468
LJ         -0.545819        -1.10888         4.12267
LJ            4.7339         3.22921          4.8738
LJ           3.67754         5.64088         1.49267
LJ          -1.05806           3.138        -5.25175
LJ           4.16407        -4.35075        -5.64625
LJ          0.808421        -5.00176          5.3726
LJ         -0.814656         5.46849         5.41121
LJ          0.506801          2.7401        -1.80271
LJ          -5.61984        -3.38702         6.01146
LJ           -1.6625          4.8372       -0.719275
LJ          -5.28376        -6.24544        -1.75341
LJ          -2.65801         -3.6207        -1.29267
LJ         -0.988027         2.81773        -1.46828
LJ          -4.94789         5.79258         3.90271
LJ          -2.68467        -5.86902        0.377671
LJ          -4.13796        -5.00712        -6.14208
LJ           1.55042         3.44449        -1.90588
LJ           3.42318         5.42131         2.92703
LJ           2.59056         5.37071        -5.03705
LJ           1.68183        -5.16649        0.540027
LJ          -1.60954        -1.75642         5.35036
LJ          -5.77815        -2.04162         4.22775
LJ          0.831267         -3.4291      -0.0625632
LJ           1.49481        -4.90491         1.88847
LJ           6.41253         3.83601         -5.0116
LJ        -0.0528953         6.24993          2.8451
LJ          -2.41058         2.30181         6.35783
LJ          -2.40056        0.427866         1.95829
LJ           2.70318         -5.4653        0.195935
LJ          -4.33851         6.06142         5.79448
LJ          0.719303        -1.97888        -4.67513
LJ           3.79382         4.71738         -2.3103
LJ          -4.75208         -3.0462        -6.45297
LJ           4.26292       -0.415763         2.38501
LJ          -3.09962        -1.86443         4.18133
LJ          -2.89338         3.56935       -0.220391
LJ           4.63034        -5.89029        -5.94332
LJ          -2.90816        -1.05711         2.03396
LJ           5.01074       -0.273003        -4.09724
LJ          -1.15493        -4.17945        -3.67739
LJ          -3.06033          4.2361        -6.38642
LJ          -3.32283         1.85384        -5.11383
LJ           -5.0663        0.417046          3.1743
LJ          0.474418         2.49541        -6.06507
LJ          -2.97067          6.4593        -6.01341
LJ          -1.97046        -0.71671        -4.96253
LJ           6.26712        -3.02929        -5.07484
LJ          -2.98416          5.4175         6.35494
LJ           3.87132         4.53097         1.98847
LJ           1.60467         4.25596         5.18764
LJ           5.41634        -2.20828        -6.15556
LJ           3.01366       -0.572964        -6.29424
LJ          0.352545        -0.62159         3.99881
LJ         -0.162034         1.47867         2.69686
LJ          -4.35943         6.00966        -4.84946
LJ            -6.384         2.10955        -2.96862
LJ            3.6999        0.656611         5.42413
LJ            5.7981         3.89807         4.86636
LJ          -4.41116        -5.79901        -2.19156
LJ          -5.37863         4.75002        -4.57708
LJ           4.41082         2.76873        -1.91835
LJ          -1.45702        -4.94382        -2.82571
LJ          -1.50125         -1.7099        -5.41652
LJ           1.11026        0.264537         -6.3196
LJ        -0.0431062        -4.07274         2.25751
LJ          -2.84653        -5.40178          2.4126
LJ           4.58188         1.02702        -2.31337
LJ          0.782253        -1.20825        -5.85733
LJ           3.20089        -4.27753         4.59738
LJ           5.10107        -5.98493        -3.25758
LJ           4.88276         3.62178        -4.51327
LJ           4.09837        -5.97779        -4.66172
LJ           1.61268        -3.61413         1.02002
LJ          0.732496        -1.11362         1.17143
LJ           5.46455        -4.09786         5.35284
LJ           4.09063       -0.603957          5.0299
LJ          -1.83981      0.00807038        -4.28067
LJ          -4.61979        -1.78041         4.28847
LJ          -5.06126        -4.72543       -0.854084
LJ          -3.90592        -2.19066         3.60325
LJ           -4.5191        -4.09351        -5.24756
LJ           4.56332         2.09228         4.17822
LJ          -2.93814        0.826795        0.646357
LJ          0.149173         2.16233        -4.55719
LJ         -0.392741       -0.218586         1.10157
LJ          -1.52845         2.38458         1.69614
LJ           6.15458       -0.152978         4.88622
LJ          0.256634         6.08013        0.901069
LJ          -4.49903         3.49603         1.32222
LJ            6.4067        -3.45306         -3.7023
