108
#Comment!
LJ           5.07852        -4.00223         5.19955
LJ          -5.42718         6.03401        -4.40942
LJ          -1.82327         1.37868         2.19913
LJ            3.2105        -1.69007         3.65371
LJ           3.33598        -2.19048       -0.757363
LJ          -1.45426        0.595854         2.88843
LJ          -4.57323        -4.69677         -4.3451
LJ           5.71263         5.19858          5.2285
LJ          -2.72449         3.11117         3.39118
LJ           1.98555         5.44667         -5.8133
LJ          -5.59739         1.55709        -5.40199
LJ          -2.58468        -3.25486        -5.01044
LJ           2.33042         4.94524        -4.01689
LJ          -3.11469        -3.24735         1.21225
LJ           1.59832        0.456253         1.33714
LJ           6.12043         3.29857         3.66945
LJ           1.15987         2.55649       -0.845319
LJ          -3.66537        -3.16296         6.31118
LJ          -1.45005         1.43735         4.00136
LJ           2.88975         1.88655         1.54583
LJ           2.09989         4.57217        -0.77499
LJ          0.361722         1.96159        -6.07021
LJ          -6.44949        -4.39358         6.07285
LJ           2.54211        -3.15393         1.31414
LJ          -2.74232         6.14381         4.85238
LJ           2.45424         4.00222         1.34187
LJ           6.32227        0.109028         5.10162
LJ          -2.19516        -6.31251       -0.944959
LJ          -2.13874          5.3274       -0.879258
LJ          0.736616         6.31644        -2.29927
LJ           1.22095         1.45729         1.40281
LJ          -5.65679         6.45273         2.17839
LJ          -1.86956        -6.26818        0.437018
LJ          -2.55481        -4.90419        -4.95248
LJ         -0.156858         5.95378        -3.97383
LJ           2.28099         5.94505         2.31534
LJ           2.75395        -6.25363        -5.69488
LJ          -1.03445        -1.16985          1.4202
LJ          -3.61761        -4.16017        -5.85069
LJ          -5.35062       -0.662935         5.67264
LJ          0.681851      -0.0285058         -1.9876
LJ           3.70323        -3.68264        0.432961
LJ          -6.29499         5.56825        -4.64817
LJ        -0.0923813        -5.84229        0.614098
LJ          -1.82195         2.31785        -6.34605
LJ             2.428       -0.213114        0.702271
LJ           3.27847         -2.9695         3.72781
LJ          -1.15691        -5.95473         4.20151
LJ           1.06004        -5.50095        -5.49251
LJ           1.35465          4.8719        -1.44686
LJ          -2.65782        -4.83015        -3.89859
LJ           5.14422         -2.3147      -0.0294333
LJ          -2.94725        -2.58148         2.16345
LJ         -0.167703         4.25918        0.417129
LJ           6.44359        -3.46264         -5.6227
LJ           2.28524        -4.21348         -5.9334
LJ          -5.83182        -3.94145        -2.38608
LJ          0.204648        -3.55921        -3.98428
LJ          -4.73617         6.32032        -2.35751
LJ           -3.8003        -2.68286         -4.5171
LJ            -4.612        0.423262       -0.670589
LJ           2.00796       -0.186373        -4.32022
LJ          -6.04077        -4.37249        -5.32123
LJ         -0.825655       -0.906828         6.24471
LJ           6.02619         1.69289        -4.12504
LJ          -5.05341         4.82748        -2.48486
LJ          -1.31862         5.54958       -0.359613
LJ           4.32048        -5.68948        -6.09807
LJ           5.81499        0.160968        -5.70091
LJ          0.685123         2.29326         -4.0965
LJ         -0.385037        -1.25631          4.0444
LJ          0.132465        0.245915         3.49653
LJ          -5.05518         -5.8782        -5.06624
LJ           2.51161         1.78648        0.568156
LJ         -0.953834        0.481756        -5.34723
LJ           5.33544         4.42335         3.20235
LJ          -2.72506        -4.24657       -0.914482
LJ          -4.82212         4.96626        -6.06126
LJ           2.37448         3.26065        -3.87717
LJ             1.376        -3.50158        -3.09308
LJ          0.543666        -4.77097        -3.71429
LJ          -2.00662         1.86443         5.59492
LJ            1.8653        -3.90935          1.9251
LJ          -4.32728        -1.01666         1.66086
LJ           4.55006         1.78065       -0.794842
LJ         -0.437371         1.43889        -5.69162
LJ            4.2421        -4.46193         6.20668
LJ          -5.10213         -6.0034        -3.64569
LJ            -5.374        0.632307         6.45878
LJ           3.14714        -6.25395        -2.24363
LJ          0.445161        -4.00297         2.28033
LJ           2.72178        -3.51939        0.192335
LJ           4.91181        -5.39924         6.05139
LJ          0.689912        0.332299        -4.71307
LJ          -4.04444        0.318794        -2.48422
LJ          -3.56962        -5.35364          4.4387
LJ          -2.57241         5.27164        -2.01944
LJ          -4.42692        -3.46469         3.73276
LJ          -5.21451        -2.30432        -4.46283
LJ           3.51203         1.40008        0.778824
LJ          -6.09008        -1.78555        0.943862
LJ          -2.81236        0.930955         5.21534
LJ         -0.786445        -1.03726        -2.37342
LJ           -1.9511         2.42334         1.74191
LJ           5.75699       0.0242229         6.09212
LJ          0.474202         4.98458         1.68352
LJ           -4.5621         1.24519         3.00231
LJ           4.21734        -3.93473          -5.435
