108
#Comment!
LJ          -5.32412          2.6905        -3.24452
LJ         -0.425653        -5.36548         2.90406
LJ          -3.23381         2.27894         2.79733
LJ           1.97889         -3.1828         1.24286
LJ          -3.65965        -2.60813       -0.181149
LJ          -1.89014       0.0541459        -2.50097
LJ           3.57787         -5.2694        -4.31317
LJ          -5.80066        -2.71795         2.39762
LJ          -3.11294         6.36217        0.787647
LJ           5.31548         4.92251         5.70808
LJ          -5.61501        -5.67098         2.16002
LJ            5.9667        -3.00634        -5.43979
LJ           4.88964        -1.52535         3.93411
LJ         -0.476036        0.994788         6.04028
LJ          0.118704       -0.446784        -3.48458
LJ           5.52411         3.64257      -0.0148042
LJ           5.13665         5.54483        -3.98894
LJ            4.4742         6.08656         2.00758
LJ          -1.36787        0.228959       -0.210775
LJ          -5.85114         1.36313       -0.757564
LJ          -1.61693         3.23073         4.69719
LJ           2.63906         1.05585         2.53261
LJ           6.30698        -4.35358        -3.97191
LJ           0.63666        -1.43909         1.52775
LJ          -4.87742        -4.14002         3.24531
LJ         -0.838583         6.18405        -1.82694
LJ          -6.26148         2.99928        0.520009
LJ          -4.32222          5.9194        -5.19671
LJ          0.170468         5.11487        0.717528
LJ           3.03132       -0.205676        0.252333
LJ          -5.80131         -2.3223        -2.45036
LJ            3.5876       -0.704257        -1.82841
LJ           4.46793       -0.140508        -1.77254
LJ           3.11144        -5.00552        -3.34972
LJ           6.25838       -0.977986         5.32975
LJ           -1.4565         5.49111       0.0277388
LJ          -5.40994        -6.24951        -6.34596
LJ          -6.23763         2.98533          5.8209
LJ           2.50539         2.94226         3.48259
LJ           -2.8254          -3.881        -2.36481
LJ           2.70571        -2.92302         2.99354
LJ           3.84649        -4.35933         1.14014
LJ           1.32441         2.16632         4.44941
LJ           5.17861         1.11172         2.13316
LJ          -4.81722        0.219717         5.65758
LJ           4.37719          4.4892        0.989444
LJ          -1.99972         6.36423          4.1841
LJ            -5.792        -5.33591         -2.6501
LJ           3.23981        -2.99815         4.39847
LJ           3.74934         6.26627        -5.76486
LJ           3.82628        -4.01911         5.92097
LJ           3.70524         1.62885         1.79528
LJ           5.77772         3.94178         2.28052
LJ          -5.80937        -3.61127         2.89628
LJ           2.45448       -0.158835        -2.50779
LJ           2.27557         0.27948         4.09433
LJ           1.38578        -1.66581        -2.86788
LJ           4.44995        -4.83114       -0.143349
LJ           3.39502        -5.83044        -1.64998
LJ           2.41219        -5.20881         -4.7373
LJ          -4.39039        0.769956        -5.78368
LJ           2.40551         5.77156         6.00815
LJ           1.62748        -5.01065         2.89753
LJ         -0.725033        -3.65765          -2.778
LJ          -2.48405         4.85563        -2.01613
LJ           3.87237        -3.62024        -5.21481
LJ            5.6011       -0.633505        -6.27279
LJ          -6.41184        -2.54055         6.45612
LJ          0.299179         1.63562       -0.125649
LJ         -0.489142        0.909797         3.42279
LJ          0.531803        -3.71537         1.37982
LJ           5.56526        0.386492        -1.23693
LJ           2.84743         4.87507          3.9026
LJ         -0.392627         2.85617        0.732531
LJ           3.95103         5.32198        -1.36241
LJ          -4.05617         2.88175       -0.189796
LJ          -6.02435        -6.35631        -5.20185
LJ          -3.13129         4.75054        -1.05459
LJ          -4.27484        -1.38539        -3.80269
LJ          -2.25415        -2.01603      -0.0977799
LJ           3.47292         3.55572        -3.77603
LJ          -1.69418        -1.53689         6.37012
LJ           2.98889         2.94782        0.672794
LJ          -4.86138         3.14649         3.24373
LJ          -2.21785        -5.97572       -0.327189
LJ          -4.37446        -3.32294       -0.116769
LJ           1.84171         1.24873         3.70462
LJ           1.41167       -0.101813         -6.3148
LJ          -4.81005        0.286087        -3.66625
LJ          -4.64166        -5.53293          4.6443
LJ           1.75676        -0.77137        0.402975
LJ          -1.39724        -1.53073       -0.269061
LJ          -5.83695         5.74759        -5.95225
LJ          0.467307         6.32827         -3.3945
LJ           5.70205         3.98176         1.17128
LJ          -5.61819         4.90781        -1.30996
LJ          -5.46748       -0.692204        -2.26592
LJ           5.10485         5.32598         2.76695
LJ           3.51951         4.96951          1.9676
LJ          -4.86583         3.33387        -5.98261
LJ           3.59617        0.636945         2.21763
LJ          -1.51239         5.51784         3.14424
LJ           5.27084         0.40076          5.3399
LJ           -4.3914        -2.14082         5.37528
LJ          0.950091        -2.74569       -0.940532
LJ          -5.57662        -4.72159         3.83196
LJ          -1.99068        -2.54252        -2.99756
LJ           -4.3355        -3.81397        -5.31414
