108
#Comment!
LJ          -4.43329         3.60173        -4.28909
LJ         -0.527469        -6.41987         1.85793
LJ          -3.54581         2.00608         2.97111
LJ          0.846455        -2.53457        0.962168
LJ          -4.08898        -1.96223       -0.339098
LJ          -2.66453        0.846382        -4.17754
LJ           3.01076        -5.84587        -4.63347
LJ          -5.15294        -1.66364         1.36758
LJ          -4.27562        -6.45773         1.26124
LJ           5.57898         4.24752         5.69478
LJ          -5.82017        -4.28317        0.618705
LJ           4.88941        -3.17363        -4.95271
LJ          -6.02993        -1.54126         4.54308
LJ         -0.119852        0.712799         5.18638
LJ           1.32343        0.611837        -4.41787
LJ           5.78844         3.86382        0.631877
LJ           5.36559          4.7904        -4.24046
LJ           5.83956         6.06273        0.547338
LJ          -1.44109        0.879738        0.286037
LJ          -4.89224         1.95759        -1.52894
LJ          -1.43542         3.61119         5.26734
LJ           1.63304         1.92172          2.5247
LJ           5.75775        -4.26215        -2.59037
LJ         -0.256326        -2.13079         2.87657
LJ          -5.75208        -3.89988         2.87212
LJ            -1.677         -5.3579        -1.73121
LJ          -6.26029         4.25256       -0.330504
LJ           -3.6379         5.48388         -5.8933
LJ           1.06621         4.55731         0.66547
LJ           2.10771        -1.25002         0.22198
LJ          -6.30246        -2.12603        -2.57323
LJ           3.36739       -0.375634        -1.48695
LJ           5.45028     -0.00309457        -2.47157
LJ           3.15796         -4.9766        -3.40833
LJ           6.01716       -0.482527         4.50047
LJ          -1.68047         5.54272       -0.248781
LJ           -4.8208         6.00532         5.61761
LJ           5.76786         2.51941          6.2156
LJ           2.51006         3.45546         3.43014
LJ          -1.87358        -4.20235        -3.01508
LJ           2.92984        -2.13319         2.76332
LJ           2.48357        -4.72226         1.44151
LJ           1.99011         1.29288         6.27782
LJ           4.90527        0.624967         3.63281
LJ          -4.40418       -0.915424         4.77493
LJ           4.33551         3.95247        0.982422
LJ          -3.08017         4.90593         3.19416
LJ          -5.58543        -5.61307         -2.1246
LJ           2.95722        -2.65663         3.83774
LJ           4.66626         5.23031        -4.79056
LJ            3.7194         -3.9549         6.27075
LJ           2.94655        0.594139         2.05615
LJ          -6.15957         3.30629         2.35981
LJ          -6.11954         -4.8404         1.77157
LJ           1.61297         0.64222        -2.68186
LJ           3.51732        0.119102         3.72702
LJ            1.6234       -0.872086        -2.09544
LJ           4.52378        -4.76958         0.32143
LJ           4.05778        -5.72963       -0.901232
LJ           2.34019        -5.84191          -5.593
LJ          -4.06781      0.00163705        -5.52228
LJ           2.08182        -6.23549         5.25236
LJ          0.149584        -5.46974         2.17435
LJ         -0.926417        -4.44013        -2.76322
LJ          -2.36423          4.1528       -0.939071
LJ            4.0706        -3.36983        -5.59683
LJ           5.45753         1.08531        -6.37055
LJ           5.37781        -2.09802        -5.58179
LJ         -0.356492         1.32924          1.0973
LJ         -0.302485        0.565941         3.12103
LJ            1.2253        -4.22594        0.215304
LJ           6.00342        0.158852        -1.36626
LJ           2.31589         4.73734         5.31733
LJ        -0.0689426         3.78061         1.56081
LJ           4.58302          5.0633         -1.6179
LJ          -5.06803          2.4471       -0.483116
LJ          -4.64242        -5.43993        -4.40802
LJ          -3.80318         4.77675         1.19873
LJ           -2.9315       -0.347562        -3.60729
LJ          -3.23744        -1.55456        0.384105
LJ           3.89743         2.35435        -4.68299
LJ          -1.75323        -1.77522        -6.16471
LJ           2.94681         4.29824       -0.612245
LJ          -4.07528         3.13161         2.80846
LJ          -1.09203         -5.4934        0.150569
LJ          -4.91617        -3.80853         2.16134
LJ           2.49079         1.27546         4.53722
LJ            1.3148       -0.250656         -6.4408
LJ          -4.68321       -0.166633        -4.67274
LJ          -4.61234        -5.06897         3.50088
LJ            1.3455       -0.702828        0.813127
LJ         -0.987542       -0.908928         0.64646
LJ          -4.98988          5.9054        -5.75108
LJ           0.52636         6.27002        -3.39782
LJ          -6.20259         2.58711         1.05811
LJ          -5.46802         4.74011       -0.986984
LJ          -4.64538       -0.986933        -2.19035
LJ           4.20494         6.43253         4.01784
LJ            5.2242         5.29242         1.53054
LJ          -5.88406         3.17698        -5.59721
LJ           1.94991        0.800483         2.84091
LJ          -1.40909         5.78772         3.76331
LJ           4.35989       -0.591638         6.26417
LJ          -3.36879        -3.19142         5.73262
LJ          0.118244        -1.88575        -1.86726
LJ            6.3117        -4.25074         3.37503
LJ          -0.71485        -3.40465          -3.413
LJ          -5.89748        -3.54758        -6.04154
