108
#Comment!
LJ           6.01697       -0.670682        -6.30264
LJ         -0.931342         3.27027        -6.03683
LJ           -5.4342         1.97781         3.77686
LJ          -1.31237         3.93404         2.31628
LJ           5.26231         3.16072        -1.90635
LJ           5.28872          2.6652       -0.952708
LJ           1.38626         3.62064        -6.16657
LJ           3.09493         4.04245         5.74964
LJ           2.44645        -3.05493         2.03027
LJ          -2.41398          2.8712         1.74574
LJ           5.48265          1.6104         -3.0887
LJ         -0.227309         1.66862        -4.51013
LJ          -1.39146         2.52671        -6.40308
LJ           5.43409         2.90885         -6.3572
LJ          0.539698         3.59577         6.11126
LJ          -3.98034          3.2339       -0.987095
LJ         -0.343768       -0.418188        -2.50406
LJ          -2.32082        -4.40001        -1.06971
LJ          -5.23233       -0.880095         4.89764
LJ          -2.30954         4.43972        -1.81255
LJ           1.49256         4.35566         5.72396
LJ        -0.0832861          2.3966         2.56076
LJ           3.70431        -3.94498         2.51067
LJ          -4.94377        -4.29122        -1.08854
LJ          -5.38986       -0.401797          2.1186
LJ          -3.07822         5.76188         6.05248
LJ           3.65159        -3.82668        -3.30188
LJ          -3.54638         5.73773         1.02285
LJ          -5.74978         -5.8661       -0.502953
LJ           0.44687        -2.63172       -0.440367
LJ           2.99646        -5.08767        -1.27673
LJ           1.06454         1.11723        0.570289
LJ           -1.3508        -2.73224        -4.11031
LJ         -0.585512        -2.67782        -3.31527
LJ          -5.59957       -0.800356        -1.76223
LJ          -1.61059         4.18467        0.591502
LJ          -2.90058         1.84097         5.01852
LJ         -0.764953        -4.09656         5.17155
LJ           1.78902         6.02264         3.07303
LJ          0.632653          5.1412         5.18373
LJ           4.79975        0.141779         1.57307
LJ          0.348615         6.18475         4.22752
LJ          -5.72416        0.660289       -0.524401
LJ           3.56262        -5.14892       -0.294731
LJ          -2.92289         5.79547        -3.73135
LJ           4.41033        -3.22932        -1.12631
LJ           2.99334         1.95745         2.85214
LJ          -3.59043        -6.14951        -1.75604
LJ          -6.29231        0.259671         1.73215
LJ          -6.41003         1.02525        -2.47613
LJ           3.09732         1.26221        -2.60922
LJ           4.93899        -2.76144         4.48621
LJ          -5.53599         1.60498        -1.55857
LJ          -4.86467         2.92468       -0.245896
LJ          -3.00769       -0.938124         2.92349
LJ           3.56244       -0.101979        0.956448
LJ         -0.293382        0.760724         1.63816
LJ           5.14658         5.87109         5.72403
LJ          -3.46412         2.95439        0.748243
LJ           2.06457         1.23727         4.07637
LJ         -0.249726         5.29449        -3.75121
LJ          -3.39787         2.26694       -0.250244
LJ          -1.39622         1.63359        -1.74633
LJ         -0.130975        -3.95203         -1.6206
LJ           -1.1164         -4.9834         2.53267
LJ           -6.0986        -5.10717        -6.19572
LJ          -4.35846         1.62772         3.53103
LJ           1.71081        -4.56796        -3.19188
LJ          -0.18778        -5.32859         4.07703
LJ           1.78795        -1.67839        0.648002
LJ          -6.03284          4.8377         5.82193
LJ           5.59127         2.68663        -3.47393
LJ           1.78735        -6.41839        -2.12878
LJ           1.03726        0.902913        -6.33252
LJ          0.383338        -5.91677        -2.61663
LJ           5.94762        -2.38243        -2.44669
LJ         0.0934527        -5.03229        -1.31535
LJ           1.80128         -5.8405         1.64789
LJ        -0.0100057         2.70442        -4.63732
LJ           5.90703        -4.73316        -2.41794
LJ           2.99985        -4.79806        -4.77441
LJ         -0.270508        0.294681         -6.1981
LJ           4.66104       -0.875741       -0.252152
LJ           2.94287        -4.25959         4.12864
LJ           -2.4997        -6.18726        -1.45999
LJ          0.553265       -0.158673        0.926908
LJ          -4.49557        -1.12054        -1.81191
LJ           2.31976        0.478765         6.29695
LJ           6.19003        -4.11807        -4.85361
LJ           2.40168        -2.68256        0.857284
LJ          -1.69655        -2.46962         3.30768
LJ         -0.635315       0.0587677           5.093
LJ          -3.66867        -3.63348          5.8562
LJ           4.12997        -6.26188        -4.84406
LJ          -3.06919       -0.949585         1.22504
LJ          -1.63192         5.49203        -1.85211
LJ           1.81387        0.562067         0.02199
LJ           3.20861         5.73501        -6.31617
LJ           -2.7935         -4.1419        -3.47349
LJ           6.31514         6.43441        -2.04715
LJ         0.0529596         1.69517        -6.39258
LJ          -2.51292         5.72391        0.739969
LJ          -1.18804         6.14858        -2.88204
LJ          -1.73398         -5.1176        -5.28523
LJ          -2.49223         4.11316         6.45594
LJ          0.214637        -2.68369         2.79708
LJ           2.72319         1.60971         4.93649
LJ          -3.41877        0.947449        -4.66835
