108
#Comment!
LJ          0.617924         2.37093          1.6014
LJ           5.05866         1.18283         5.60643
LJ           4.81434         1.73867         1.92477
LJ           1.68445         3.83608         3.02106
LJ           2.98362        0.919198         2.33682
LJ           1.65184        -2.28356         1.13096
LJ          -4.78907         2.81023        -3.17871
LJ          -3.23744         2.60934        -1.46986
LJ           4.13323         4.77178         1.58113
LJ          -2.83689         4.25834        -3.33669
LJ          -3.47049        -2.38684        -5.51109
LJ          -2.11724         3.74394        -3.85193
LJ           2.82521         2.90361         2.59121
LJ          -1.86206        -5.34737         -1.9316
LJ         -0.684317         5.70891        -3.92034
LJ          -3.41303        -3.33082         5.93243
LJ           3.05973        0.598609        -1.24171
LJ           5.29329       -0.159988         2.26524
LJ           6.27766        0.216951        -5.25062
LJ          -3.94347         0.63509         5.04629
LJ           5.37621        -6.20048        -4.67304
LJ           1.92231        -0.36369         -1.1942
LJ           6.31087        -2.18946         4.98006
LJ          -2.36377         2.70889        -3.26033
LJ           5.07553         1.16584        -2.96243
LJ           1.96388       -0.363688          6.1904
LJ          -6.19129         1.11817       -0.293669
LJ          -4.65145        0.960056        -3.98093
LJ           0.21319         1.03003        -5.51801
LJ           0.84708       -0.758589         4.22164
LJ          -4.55482         2.50936          2.6846
LJ           -2.4206         3.14757         -1.4995
LJ           6.43015        -2.20337        -6.32243
LJ           2.57229        -4.13498        -2.28502
LJ            1.5448        -3.22726        -5.33073
LJ          -5.08537        0.380283         5.20959
LJ           1.39942        -5.23995        -2.07259
LJ          -1.71741        -6.13371        -4.07698
LJ          -0.99541         3.44058         3.06215
LJ          -4.84365        -4.48056         -2.1947
LJ           4.24434        -5.79062         -6.2775
LJ         -0.199495        -5.45991        -2.51276
LJ          -2.04386         3.54048        -5.61532
LJ          -4.45407         2.84001        -4.28927
LJ          -4.04525        -2.14136         6.41154
LJ           1.86433        -2.28627         4.80372
LJ           5.94029        -6.14022        0.189817
LJ           4.38077        -5.07722         1.57444
LJ           -5.3068          1.3518         4.27517
LJ           5.53624        -4.81813        0.530241
LJ            -1.954        -3.98925        -5.49088
LJ          -4.21743         1.80186        -2.78653
LJ          -3.23782        -5.33901        -2.54001
LJ           3.35476        -4.19884       -0.248253
LJ          0.748897        -4.57917         3.65727
LJ          -6.29691         -5.1936        -5.87736
LJ            2.9629        -6.11199        -2.46614
LJ          -3.60294        -3.73257        -5.35999
LJ           3.26926         4.19439         2.72487
LJ          -1.12815         2.14497        -3.45656
LJ          -3.41624         3.84349         5.58788
LJ           2.99946        -1.57923         3.35405
LJ           3.90611         1.70563         2.93092
LJ          -5.21787         4.74023       -0.913482
LJ           3.82696         2.77386         2.15746
LJ           2.75101         4.84397          4.0572
LJ           1.65148         1.88233        -1.67551
LJ          -5.09374        -4.54698        -5.86222
LJ           4.67395        0.153642         5.12857
LJ          -2.98662         6.10497        -4.28667
LJ          -3.59188          2.6679         2.24805
LJ           3.46553       -0.737399         5.50435
LJ          -3.96832        -1.25155           4.644
LJ           5.38134         5.90556        -6.21625
LJ          -1.57783         2.85333        -2.25689
LJ          -5.20731         1.25091         2.81274
LJ           4.70671         4.89989        -1.63534
LJ          -1.01241         3.74741        -6.15779
LJ          -2.19291          1.0551         -1.2808
LJ          -3.00767        -4.85717        -1.62103
LJ          -4.58725         3.98034        0.976847
LJ          -3.05847         5.89496          4.6156
LJ          -3.51716        -3.85608        -1.20426
LJ           1.59879         6.20066        -3.58137
LJ          -5.55514         2.03872       -0.167985
LJ            4.5381        -3.92917        -6.11748
LJ           3.38547         6.43577         3.84254
LJ           5.88842        0.185713          3.4214
LJ            6.0321         4.02969        -2.28768
LJ          0.423326       -0.607025        -6.44151
LJ          -1.64731       -0.665146           3.358
LJ          -1.39749        -2.91695       0.0701339
LJ           3.19149         4.71049         1.74372
LJ          -2.49825         2.12073       -0.517394
LJ           2.56821         5.87607         4.53668
LJ          -5.10368         5.85034         2.00207
LJ           2.46229         3.35428          3.4555
LJ          -4.55275        -1.10535       -0.167734
LJ           3.32731        -2.30696        -4.42954
LJ          -5.03751        -5.18656         4.57037
LJ          -2.94465         5.52698        -5.77622
LJ           2.34371        -3.65683         3.27119
LJ           5.38208        -3.26038         1.53988
LJ            1.5657      0.00940673         3.17586
LJ           -4.5328         2.81717         1.00232
LJ          -5.12195        -5.88591        -2.81102
LJ          -3.77996        -1.47577        -3.23754
LJ         -0.618683         2.77852        -4.95369
