108
#Comment!
LJ           -4.2216        -3.78126         3.01653
LJ          -2.11072         5.80861        -4.72304
LJ         -0.498738        -5.38126        0.125751
LJ          -6.45032        -5.76001         5.30955
LJ          -6.15186        -2.34514        -2.68227
LJ           -2.5929         2.09674         4.35601
LJ           5.20313        -2.53567         -3.9843
LJ          -5.14037         4.50826        -2.95647
LJ           5.67097         3.65854         2.38753
LJ          -6.36689        0.495222        -4.32823
LJ          -6.06584        -1.78592         3.05148
LJ          -1.56731        -5.12459         5.76064
LJ          0.834456         2.81441         5.18612
LJ           2.01977        -3.09473         0.57023
LJ          -4.75007        -2.80393        0.222878
LJ           3.33206         3.59164         1.61612
LJ           5.30697        -1.44815         2.66871
LJ          -4.84256        -5.69924         5.31648
LJ          -2.59027         2.85642         2.37195
LJ          -3.48075         1.21208          1.6946
LJ           5.34844         2.62052        -1.40135
LJ          -1.39841         4.10343         5.29434
LJ          -5.86754         1.31038         5.11182
LJ            6.2886        -6.02915        -1.81467
LJ          0.103255          4.2947         6.24732
LJ            3.1527        -2.60252        -4.96006
LJ           5.18268         1.74133        -4.86583
LJ          -3.37335         3.73027        -1.97915
LJ          -2.60179        0.906289       -0.494092
LJ           6.31167         2.47304        -1.67591
LJ          -3.97815        -5.21107         3.19284
LJ           5.74877        -5.33503       -0.341045
LJ          -2.73149        -1.09132        -5.13172
LJ           1.62643         -3.6595         -3.0724
LJ          -4.58435         6.10899         5.93181
LJ         -0.779329        -5.97831         1.21064
LJ           1.34519         -5.0405        -6.01573
LJ          -3.43883         3.00827       0.0409481
LJ           0.47588        -3.24746         5.40802
LJ           2.41552         1.89452        -1.47482
LJ           1.59273         5.92065         5.65264
LJ           5.36994        -3.19191         0.44871
LJ          -5.75111       -0.994252        -4.08888
LJ           2.40126        -4.73697       -0.861873
LJ           6.37237         5.17898         5.05233
LJ          -4.08102        0.251601        0.796348
LJ          0.606587         5.39654         2.55611
LJ           2.86893         -5.0316          1.4634
LJ           2.18897         -5.0233         5.71861
LJ          -4.72775        -6.09243          2.9355
LJ          -5.26819          5.4981        -3.72039
LJ           4.73561           5.978       -0.602139
LJ         -0.849543        -4.42582       -0.826815
LJ           2.01919         5.34992       -0.807245
LJ           -4.9094        -2.61471         6.28209
LJ           2.82883         4.99343          2.4858
LJ          -2.18995         4.82191        -3.53247
LJ           5.47019         6.40907        0.328741
LJ          -3.32707        -4.11996         5.49157
LJ          -5.19839        -3.74202      0.00391541
LJ           2.54761          4.7277        -1.50533
LJ           3.14437        0.484134        -4.71772
LJ          -4.88972         -3.3886        -5.30761
LJ         -0.453594       -0.764517         6.13872
LJ          -5.34561         4.06102       -0.206461
LJ           3.00209         2.77971         -2.9362
LJ          -1.20908         5.63888        0.815376
LJ          -5.09849        -5.07013        -1.35829
LJ           4.17234         2.59965         5.62567
LJ          -4.15944         3.00219       -0.928838
LJ          -1.40758       -0.749733       0.0452668
LJ           3.20057        -1.00236         2.71691
LJ           1.20031        -4.34158        -4.04847
LJ           -1.0574          -3.373       -0.994872
LJ          -5.95284         3.75633        -3.13928
LJ           4.82935         4.01711         1.12059
LJ          -2.80467        -3.58213         2.45252
LJ           -3.7512         5.25611        -6.14794
LJ             1.137         6.37668        -4.18812
LJ           3.61752        0.162888        -2.53962
LJ           1.27795        -5.28829        -2.25462
LJ          -3.59402         0.79401         5.06999
LJ          -4.58231        -1.89851        -2.44256
LJ           -3.6054         2.73959        -4.20111
LJ           3.35629         3.50723         4.13304
LJ            2.7086       -0.301615        -2.49181
LJ           5.38339         4.30519        -2.53899
LJ          -2.41837         4.55174        -6.19032
LJ          0.825706         1.99312         3.36414
LJ          -1.51372          5.9399          1.7919
LJ         0.0497447         -4.5665         5.82548
LJ          -5.94646        -4.80588       -0.901381
LJ           3.80385         -5.7045         2.12331
LJ           0.76036        0.956762         1.43994
LJ          -4.07748         -2.8872        -5.58445
LJ           4.22234        -6.18739       0.0533913
LJ           2.58103        -6.11145        -4.70425
LJ          -2.32169        -4.66518         2.99383
LJ           1.43091         2.55742        -3.07679
LJ         -0.392433         2.57324         2.22191
LJ           3.14119        -6.38076       -0.179075
LJ          -2.38563         2.06258         5.64756
LJ          -6.29971           -4.06         5.83872
LJ          -5.50293         5.86058         2.93887
LJ           6.08273         1.72689        -6.38116
LJ         -0.578172         2.93056       -0.928821
LJ          -4.58253         -1.6194         3.77835
LJ           1.27688        -6.17992        -2.89207
