108
#Comment!
LJ            2.6156         1.91299         4.23629
LJ            3.2895        -6.03809       -0.629665
LJ           1.33064         2.37273         1.35232
LJ           1.80747        -5.79374         5.11034
LJ            2.8926        -4.87738         4.43799
LJ           3.56006         5.49396        -5.16867
LJ           2.79311      -0.0945064         6.04968
LJ           5.65797        -1.98386       -0.777903
LJ          -2.08521       -0.571207         5.59233
LJ           1.59948         1.28909        0.291681
LJ           4.62891        -2.21319        -3.78297
LJ          -2.15581         3.11074         4.73734
LJ           -2.7553        -4.40905        -1.65495
LJ          -1.73745         4.25655         -4.2592
LJ           1.68826       0.0364224         6.16547
LJ          0.299813         -2.6245         3.41582
LJ           2.57583        -2.19651        -1.38594
LJ          0.275447       -0.436603       -0.179517
LJ           3.10528         -4.6808        -3.80333
LJ           2.13177       -0.171714        -5.11547
LJ           4.02332          -1.456         4.67894
LJ         -0.570914         3.58401         -1.9394
LJ           4.95659        -4.28864         0.30516
LJ          -6.04159        -3.33061        -1.70203
LJ          -1.29567        0.162321         2.89747
LJ           2.74658         5.84455         5.44231
LJ           3.21042        -1.38685        -2.50997
LJ           -2.8217         6.12777     -0.00241675
LJ             5.852        -1.41402          1.6625
LJ            4.1028        -4.77247        -1.50974
LJ           2.28736           3.798         1.57162
LJ           6.11086         2.49541         1.36988
LJ          0.554546        -4.09654         3.52985
LJ          -1.33077         5.61684         1.05612
LJ          -5.40874         2.96662        -5.49168
LJ           2.48353         5.79791         3.42315
LJ          -2.45626       -0.424701         4.52876
LJ             4.177        -5.95198       -0.999581
LJ           -3.3198        -5.88693         6.10073
LJ           2.08095         0.76994          3.3392
LJ           5.97054         3.96814       -0.953634
LJ          -3.75376         0.63278         5.10635
LJ          -5.02315         2.25806        -6.08242
LJ           1.74061          2.9893        0.633345
LJ          -5.87068          1.4876        -6.36145
LJ           1.41221         5.32394        -5.35075
LJ          -3.78732        -3.55886         2.57836
LJ          -3.03155         6.08262        -2.59467
LJ           -2.6156          1.5808        -1.74947
LJ          -4.09263        -1.64287       -0.491919
LJ          -3.54809        -1.78469         1.40669
LJ          -4.70378        -4.57982        -5.62565
LJ           5.63506        -2.75599         5.17865
LJ         -0.424098        -3.42827        -1.52837
LJ          -1.98993         5.63942        -3.10642
LJ           5.13236         2.53998         0.48346
LJ          -1.98614       -0.117168        0.947803
LJ           2.31574         5.07784       -0.851139
LJ          -5.97724        0.997239         3.26284
LJ         -0.207604        -3.61078         1.09459
LJ           1.98098        -3.25402       -0.300321
LJ           4.15881         3.02008        -3.20183
LJ            2.4096         4.06794        -4.53537
LJ          -1.75287        -4.26937         3.09228
LJ          -2.03716        -3.29427         2.90569
LJ           3.82471         -4.9218         3.42744
LJ           3.57435         1.14613        0.353454
LJ          -2.32343        -1.97673        -4.75067
LJ          0.331903         4.19523         3.78452
LJ         -0.723844         2.01156         1.60153
LJ          -1.50431         1.73848        0.919241
LJ           4.43472       -0.921462        -4.20633
LJ           1.88223        -5.42418       -0.576313
LJ           0.74167         1.97763        -5.24399
LJ          -4.71147         1.93535        -4.26949
LJ           3.83262        0.408159         -1.3734
LJ          -1.37611        -5.23132          1.1006
LJ         -0.148535       -0.165474          5.7302
LJ           1.13407         2.32493        -1.43379
LJ           2.61793        -0.83126       -0.639016
LJ          -6.24003         6.03221        -3.71755
LJ           1.68488         1.10889        -5.01166
LJ           1.61645        -1.19716         2.58472
LJ          -3.39676         5.38283         3.33493
LJ           -2.8317        -3.91705        -3.63503
LJ           4.32314       0.0178273         1.91357
LJ         -0.556118        -4.16174         3.38813
LJ           1.00662         2.63008          -4.432
LJ           4.96359         4.96425        -3.58201
LJ           1.12552        -6.04305         4.05176
LJ          -1.33203        0.887659         4.13405
LJ          0.808778       -0.856938        -4.44248
LJ          -2.88586         2.92527        -4.99202
LJ           4.03924          4.4448        -5.84208
LJ          -6.08062        -2.08342         2.69458
LJ          -4.65791        -5.54816        0.659306
LJ           4.99056         4.82906        0.311071
LJ            3.1906         4.37909        -5.02383
LJ          -4.70978        -5.21815        -4.46007
LJ          -4.73421         1.54409         3.87331
LJ           2.77487         6.30728        -3.16845
LJ          -6.12228         5.20949         -3.1144
LJ           -1.6967         1.42694       0.0196557
LJ          -4.31273         -1.1231        -5.94223
LJ          -2.43876       -0.917246         2.92133
LJ         -0.680289         3.25632         4.84412
LJ           5.93137        -2.66533        0.846671
LJ           6.13736         1.60434        -3.43991
