108
#Comment!
LJ          -5.00653        -3.62604          3.5738
LJ          -2.33842         5.81546         -4.6425
LJ         -0.994941         6.08908        0.566466
LJ           5.81928        -5.11885         4.92098
LJ           5.82834        -1.23304        -3.91768
LJ          -2.96908          1.8817         4.65855
LJ           5.40608        -2.16569        -4.55315
LJ          -4.95841         4.18065        -1.37792
LJ          -6.29409         3.46865         2.54924
LJ           5.88198        0.320998        -4.99707
LJ          -6.17726        -1.36565         4.07267
LJ          -1.26128        -5.07426         5.92721
LJ           1.26538         3.22034        -6.16253
LJ           3.40365        -2.96904         0.92956
LJ           -5.9185        -2.07398        0.542117
LJ           3.98788         3.36835         1.94814
LJ           5.43332       -0.660668         3.17503
LJ          -4.86529        -5.64064         6.00534
LJ          -2.87885         2.19294         2.81068
LJ          -4.72287         1.14212         1.62992
LJ            4.1771         2.94929       -0.932904
LJ         -0.880528         4.00982         4.95105
LJ           6.13735        0.169596         4.32556
LJ           5.32464        -4.93883        -1.60613
LJ         -0.589168         3.88876         6.24552
LJ           3.18771        -3.77609        -6.13039
LJ            5.1393         2.16582        -5.35103
LJ          -2.84031         4.55042         -1.6882
LJ          -2.85223         1.99594       -0.607361
LJ           5.49878         2.74792        -2.22715
LJ          -3.28715        -3.97473          2.7346
LJ           6.33262        -5.53417         0.12674
LJ          -2.42456        -2.04746         6.37428
LJ          0.850969        -3.87611        -3.32416
LJ           -4.0071        -6.21284         6.36609
LJ         -0.173731        -5.81604         1.64433
LJ            0.8815        -4.84795         6.40978
LJ           -3.0205          2.7976        0.667892
LJ         -0.478921        -3.28002         6.12924
LJ           3.07578         1.21931        -2.07822
LJ           1.39886         5.06771         6.24634
LJ           5.47759        -3.41352        0.326417
LJ          -6.32865        -2.71258        -4.16396
LJ           1.83729        -3.96312        -0.78692
LJ          -5.70478         4.61421         5.29052
LJ          -5.14712        0.316197        0.838705
LJ            1.3669        -5.96397         3.76757
LJ           2.29849        -5.25769         2.13911
LJ           2.24223        -5.58299         6.21503
LJ          -3.69892         6.44065         2.18896
LJ           -4.8483         6.00337        -3.71613
LJ           4.59223        -6.13186        -1.05365
LJ          -1.64569        -4.30009       -0.412358
LJ           1.39455         5.22613       -0.603458
LJ           -4.5294        -3.51253          5.3488
LJ           2.76943         5.47949         1.09859
LJ          -2.72581         5.04171        -3.02263
LJ             5.641         6.11945       -0.750003
LJ          -4.05604        -4.11865         4.75696
LJ          -5.60716        -5.00225       -0.402206
LJ           3.98152         4.31572        -1.38287
LJ           2.93889        0.094715         -4.6955
LJ          -5.28455        -3.35217        -5.05773
LJ          -0.30718       -0.707085         5.88409
LJ          -6.20039         5.47782       -0.873355
LJ            3.2164         3.47324        -2.59138
LJ         -0.450732         5.40369       -0.174805
LJ          -5.36747        -4.99659        -2.56108
LJ            4.8057         1.93314         5.73277
LJ          -4.15848          3.5476        -1.37207
LJ          -1.15703       -0.821421         0.90567
LJ           2.48289       -0.823773         3.18084
LJ           2.88835        -4.97268        -3.94214
LJ         -0.602749        -2.48055       -0.634794
LJ          -5.12243         3.12792        -3.62583
LJ           5.12354         4.35798          1.3971
LJ          -2.22513        -3.40802         1.64506
LJ            -4.122         5.39875        -6.30481
LJ           0.75524         5.67664        -4.67571
LJ           3.99613       -0.847023        -2.83944
LJ          0.842572         -5.0125        -2.38882
LJ          -3.76148          1.2601         5.07072
LJ          -5.98313        -1.96123        -1.69934
LJ          -3.69927         1.96149        -3.12021
LJ           3.21341         3.17402         3.35956
LJ           1.95342        0.124396        -2.20679
LJ           5.08976          4.9563        -3.50597
LJ          -3.04282         4.91829        -5.70044
LJ         -0.186033          2.3118         4.59687
LJ         -0.114174         5.78385         1.09416
LJ         0.0855961        -4.71426         5.60206
LJ           6.16468        -4.67641        -0.47979
LJ           3.97908        -5.40938         2.74207
LJ          0.884306       -0.255779        0.468268
LJ          -4.25783        -1.82211        -6.35633
LJ           5.63433        -5.89004        0.880694
LJ           2.22594         5.96828        -4.24497
LJ           -2.7275        -4.35979           3.698
LJ             2.951         1.82891        -3.52257
LJ          0.311555         2.00661        0.956345
LJ           3.43791        -5.46687         0.32404
LJ           -1.7891         1.66651         4.77526
LJ          -5.02404         -3.4134        -6.09351
LJ          -4.62657         4.84323         1.77455
LJ           6.33157        0.988074        -5.96329
LJ         -0.378654         3.23629       -0.382954
LJ          -4.38092        -1.35765         4.93956
LJ           1.79389        -5.84225        -3.30876
