108
#Comment!
LJ          0.755283        -3.15248        -1.18558
LJ          -2.85638       -0.297614        -1.34959
LJ          -3.96286        -4.94022         4.35058
LJ          -5.20739        -5.53607        -5.66634
LJ          -2.98039        -6.18043        -3.88851
LJ           -4.4088        -1.61933         4.39945
LJ           -5.6423         -3.2932        -4.04541
LJ           3.09523         3.98327        0.155899
LJ          0.238228       -0.619366         1.37689
LJ           2.23678         2.98451         1.42013
LJ          -1.43259        -3.07611         5.14299
LJ           4.85757        -1.04844         2.95377
LJ           6.11996         5.52089         2.08018
LJ          -2.84783        -1.55835         6.45739
LJ          -4.11829         4.61294         2.99432
LJ          -5.91077        -1.47399         6.26035
LJ         0.0548405        -4.79856        0.202403
LJ           2.72212         1.84471         1.30069
LJ           4.15859        -3.88315         1.95891
LJ           6.24259        -5.06274        -3.56052
LJ         -0.933412         3.02826        -5.81549
LJ           1.14868        -0.48221        0.610504
LJ          -2.64492         0.40455       -0.558712
LJ            -4.962        0.047039        -5.33148
LJ          0.923481       0.0786287        -1.31065
LJ            6.1077         0.27981         2.11304
LJ           2.67949        0.907737       -0.559809
LJ          -3.39102        -1.26209        -3.91415
LJ         -0.192483         1.12589        -3.35872
LJ           4.70262         3.28651        -5.59571
LJ          0.872421        -3.48082       0.0236496
LJ          -1.95938         3.91896          5.6583
LJ           4.46185         5.75592         -6.1908
LJ           3.68971        -4.78182         4.96454
LJ          -1.19057         4.05628         4.78563
LJ           3.34469         1.53803         5.49701
LJ         -0.652072        -0.32553        -2.64747
LJ          -4.77227      -0.0364989        0.409539
LJ          -3.61937         6.12099        -3.02233
LJ           2.84561         3.25043         2.91199
LJ           -3.6718         4.00883        -6.20343
LJ           1.23085         6.34172        -4.07086
LJ          -3.22142        -2.51755        -6.43681
LJ           1.91521         2.43536         2.25506
LJ           3.55291          1.1805        -1.88427
LJ           1.87661          5.3087         5.28595
LJ           2.91467        -3.38159       0.0485345
LJ          -1.23612         -6.3409        -1.98023
LJ           1.56182         4.36651       -0.848409
LJ          0.407024        -6.03155         5.39759
LJ           2.76534         3.67222        -4.75147
LJ         -0.512265        -3.66691         6.07735
LJ           -5.5912         0.24442         -1.7533
LJ          -3.53984        -1.10826        -5.26492
LJ          -1.32157         1.18571        -5.77174
LJ          -1.25317         2.07551         5.79379
LJ          -1.62645         2.76614        -4.44007
LJ          -5.26721         1.80774         5.51837
LJ          -3.66757         4.42479         4.52144
LJ          -4.00013         5.86261        0.127778
LJ          -1.76646        -2.29445          1.7594
LJ           3.52147        -2.25597         -3.4154
LJ           5.25907        -6.04848          6.2524
LJ          -4.02286       -0.503061         5.37511
LJ          -3.96633       -0.346203         4.18507
LJ          -2.15304        -1.08212       -0.722503
LJ          -0.25623        -2.03009         1.87562
LJ          -1.70093        0.956646         0.35055
LJ          -3.17016        -1.26765        0.914028
LJ         -0.569655         5.75544        0.929902
LJ          -4.84855         4.23963         4.61688
LJ           4.28619         2.50073         -4.2511
LJ           2.03263         4.83179         2.41782
LJ           2.01345         -5.4296        -4.81999
LJ           6.07134        -5.83817        0.194438
LJ           1.07004         5.34105        -6.43204
LJ          -5.07619          6.3696        -4.82965
LJ         -0.910633         6.04107        -0.59262
LJ          0.231028         1.86507         2.45243
LJ            1.9303        -6.01512        0.315267
LJ           1.36544        -4.20317        -1.93131
LJ          -4.79928        -4.47707        -2.95184
LJ           -4.2323          4.7908        -1.46474
LJ           0.58317        0.827005        -2.10616
LJ         -0.139338        -1.86565         2.92217
LJ          -4.05864         1.66181       -0.708523
LJ          -2.98049         2.03922        -5.77525
LJ            1.8081         4.10699         5.80368
LJ           4.43582        -1.01732        -2.35803
LJ          -6.06695        -6.30107        -4.93049
LJ           4.19113        0.957807          5.1834
LJ            1.5067        -2.28713          1.2576
LJ           6.24975          5.8189        -1.82726
LJ          -5.18404         1.36555        -4.24886
LJ           6.18354         3.12436        -4.35437
LJ           3.48988       -0.537519         1.17086
LJ           -6.1141        -3.11621        -5.82208
LJ          -3.84533          4.8139        -3.68871
LJ          -3.10173        -5.44166        -1.97352
LJ           -3.9408        -2.44783         2.42594
LJ          -2.10363         4.14014        -3.88369
LJ           5.35249         3.81064         6.12612
LJ          -3.71013       -0.702721          6.3717
LJ           5.46859         1.91049         4.37799
LJ          -2.88288         5.21497         1.71455
LJ         -0.833986         -5.7898        -1.28533
LJ         0.0704016        -2.82751        0.656537
LJ            4.1096         5.48816        -3.38653
