108
#Comment!
LJ          -6.22196        -1.21959        -5.88349
LJ          0.249116         3.06563        -4.06784
LJ          -5.25228         2.24566         3.28367
LJ          -1.71664          2.9538         1.68799
LJ           5.96463         2.51202        -1.10213
LJ           6.06732         2.10469        0.685126
LJ           1.30809         4.09461        -5.84863
LJ            3.8491         3.20143        -5.79373
LJ           3.48395         -3.5085         1.71742
LJ          -3.12084         3.29958         2.39822
LJ           5.32564         1.39678        -3.25707
LJ           0.46104         1.60327        -4.16814
LJ         -0.794569         2.25722        -6.21732
LJ           4.57256         2.31449         5.88446
LJ          0.744033         3.94663         6.20098
LJ           -4.4313         3.91693       -0.663773
LJ          -1.32325        0.144176         -2.6932
LJ          -2.93266        -5.27864        -1.58081
LJ          -4.27689        -0.22018         4.18544
LJ          -3.08242          4.6686        -1.62589
LJ            1.0925         5.25675        -6.22721
LJ         -0.416739         2.90628         3.16656
LJ           3.36508        -4.35744         2.64155
LJ          -4.12162        -4.73455         -2.1807
LJ           -5.6377        -1.22107         2.15485
LJ          -2.49242         4.12994         6.29547
LJ           3.54742        -4.65803        -3.50573
LJ          -2.94983          5.5961         2.34059
LJ          -6.28196         -6.3382       -0.518083
LJ         -0.479895        -2.31039       -0.275283
LJ           3.18246        -4.47826        -1.74071
LJ            1.3087         1.06701        0.404959
LJ          -2.65907        -2.59525        -3.52962
LJ          0.216929        -4.28405        -4.39038
LJ          -5.92247       -0.905151       -0.773234
LJ          -2.28029          4.2375         0.34637
LJ          -2.57051         2.78947         5.33758
LJ          0.719552        -4.82568         6.43815
LJ           1.98526         5.58911         3.08093
LJ         -0.253101         5.53994          5.6004
LJ             4.653       0.0360103         2.35301
LJ          0.392191        -6.36562         3.99236
LJ           5.86276       0.0175666        -1.57085
LJ           3.86025         -3.9178       -0.645049
LJ          -2.15812        -6.13415        -2.96867
LJ           4.78473        -2.24449       -0.537244
LJ           4.29117         2.04958         2.26148
LJ          -4.50014        -6.17987        -1.79431
LJ           5.22772        0.860794         1.79879
LJ           6.00933         2.02653        -2.25635
LJ           1.97078         1.65594        -3.10495
LJ          -6.28234        -2.49683         4.41814
LJ          -4.46126         1.31337       -0.662665
LJ          -4.71029         2.96507      -0.0494615
LJ          -1.89592        -2.94841         1.22337
LJ           3.69786       -0.599959         1.16649
LJ          0.479657        0.726696         1.50021
LJ           5.44324        -6.32412         4.71155
LJ          -3.77554         4.30498        0.871418
LJ           2.24822         2.77925         4.80838
LJ          0.193327         6.02571        -4.00387
LJ          -3.23246        0.488282        -2.01934
LJ           -1.8783         1.90894       -0.775757
LJ         0.0695098        -4.01646         -2.5286
LJ          -1.32393         6.44172         2.59112
LJ          -6.31399        -2.17756        -5.69017
LJ          -4.89811         1.35143         4.43768
LJ           1.28789        -3.86062        -3.00883
LJ         -0.785929        -3.91759         3.83562
LJ          0.633626       -0.714434        0.573199
LJ           5.93208         5.44407        -6.11267
LJ           6.42936         2.38206         -3.6348
LJ           1.63862         6.00779        -2.53972
LJ          0.299382         1.83878         6.30741
LJ          -2.09426        -6.23297        -1.68732
LJ           6.22338        -2.50594        -2.73641
LJ          0.283798        -4.97738        -2.06322
LJ           3.09762        -6.30439       -0.311021
LJ         -0.135537         2.99177        -5.53045
LJ          -5.86094        -3.28334        -1.78703
LJ           2.45044        -4.03271        -4.75651
LJ         -0.668536       -0.774223        -5.83555
LJ           4.82238        -1.13134        -1.57485
LJ           1.71567        -3.49688         4.14731
LJ          -1.95236        -5.81941       -0.676983
LJ         -0.142724       -0.520991         1.24715
LJ          -5.41972       -0.627685        -3.11195
LJ           2.17471        0.307498         6.31034
LJ          -6.37074        -3.61853        -4.88823
LJ           3.81113        -3.64225        0.344544
LJ          -1.62718        -2.14947         2.46788
LJ         -0.601956        0.207283         4.28303
LJ          -3.57277        -4.23494         6.11856
LJ           3.36149        -6.40947        -4.47324
LJ          -2.63751        -1.11917         1.10437
LJ          -1.69972         4.71792        -2.00037
LJ          0.778271       -0.244131        -0.30378
LJ           3.02654          5.6304          6.3438
LJ          -2.73648        -3.76752        -2.84058
LJ           6.02089         4.76479        -2.77035
LJ         -0.539608          1.7472          5.4367
LJ          -2.33763         5.84526         1.31909
LJ          -1.21689        -6.02968        -3.48844
LJ          -1.05073        -5.80376        -5.65609
LJ          -2.35311         2.48594        -5.94064
LJ          0.964782        -2.82758         2.81979
LJ           2.34019         2.51768          5.9633
LJ          -1.92956        0.318837        -5.61743
