108
#Comment!
LJ          -4.00238        -4.06558         2.74792
LJ          -2.02232         5.70468        -4.70753
LJ         -0.285131        -4.73377        0.186777
LJ          -6.02131        -6.07022         5.50586
LJ          -5.60388        -2.90232        -2.16669
LJ          -2.32556         2.17528         4.42791
LJ           5.16123         -2.6921        -3.66177
LJ          -5.23019         4.21458        -3.58331
LJ           5.12904         3.78042         2.21841
LJ          -6.14243        0.597648        -3.88186
LJ           -5.6531          -2.092         2.70662
LJ          -1.86923        -5.17048         5.70561
LJ          0.593227         2.63513         4.39037
LJ             1.331        -3.17496        0.384467
LJ          -3.91101        -2.81671        0.137231
LJ            3.0736         3.77318         1.45407
LJ           4.94739         -1.7314         2.28632
LJ          -4.87417        -5.91594          5.0727
LJ          -2.44903         3.16442         2.15794
LJ          -2.92738         1.13263         1.59844
LJ           5.58388         2.53592        -1.55873
LJ          -1.62773         4.15192         5.56758
LJ           -5.4227         1.88406         5.53227
LJ          -6.11458         6.40942        -1.77165
LJ          0.418179          4.4748         6.17272
LJ           3.13655        -2.02029        -4.36772
LJ           5.25945         1.48882        -4.66814
LJ          -3.73002         3.26021        -2.05465
LJ          -2.48813        0.368376       -0.405037
LJ          -5.85548         2.30645        -1.50638
LJ          -4.16079        -5.62926         3.44782
LJ           5.60366        -5.07444       -0.700236
LJ          -2.90298       -0.624385        -4.42659
LJ           1.98077        -3.73414        -3.08338
LJ          -4.87716         6.05502         5.62761
LJ          -1.16888        -6.19707        0.780953
LJ           1.63903        -5.14421        -5.92077
LJ          -3.45646         3.15517      -0.0434626
LJ          0.913208        -3.40181         5.09029
LJ           2.08379         2.24524        -1.24165
LJ           1.68503         6.36153         5.36434
LJ           5.33008        -3.09781        0.502803
LJ          -5.47066       -0.228567        -3.98458
LJ           2.67512        -5.15569       -0.904215
LJ           5.96115         5.48624         4.93448
LJ          -3.45142        0.360075         0.89052
LJ          0.223217         4.61565         1.94013
LJ           2.88869        -4.81796        0.953411
LJ           2.02663          -4.739         5.60085
LJ          -5.25868        -5.81627         3.26245
LJ          -5.55763         5.60471        -3.89067
LJ           4.88432         5.76494       -0.127744
LJ         -0.413467        -4.92028       -0.993384
LJ           2.03517         5.51158       -0.705466
LJ          -5.18052        -2.29134        -6.35302
LJ           2.87452         4.71549         3.16106
LJ          -1.93213         4.76997        -3.85736
LJ            5.1101         6.44013        0.698465
LJ          -2.97856        -4.12743         5.85787
LJ          -5.37855         -3.5774         0.02057
LJ           1.95034         4.68751        -1.84837
LJ           3.25389        0.681083        -4.71115
LJ          -5.08708        -3.59548        -5.41321
LJ         -0.529038       -0.796419         6.26638
LJ          -4.87021         3.31421       0.0818583
LJ            2.7946         2.37455        -3.09011
LJ          -1.48054          5.7789         1.22682
LJ          -4.46206        -5.27172        -1.04926
LJ           3.85251          2.9441         5.55539
LJ          -4.31361         2.77347         -1.0313
LJ          -1.54302       -0.699394       -0.388362
LJ           3.57396        -1.09605         2.48308
LJ          0.379262        -3.95172        -3.92209
LJ          -1.30895        -3.44202        -1.22746
LJ          -6.33264         4.15958        -2.81889
LJ           4.65454         3.80317         1.09292
LJ           -2.7902        -3.78681         2.94681
LJ          -3.77196         5.24791        -6.14008
LJ           1.44832        -6.10789         -3.8126
LJ           3.64069        0.804787        -2.40638
LJ           1.57122        -5.39963        -2.24464
LJ          -3.47736        0.610291          5.0654
LJ           -3.9477        -1.87883        -2.83868
LJ          -3.56404         3.14124        -4.73446
LJ           3.44001         3.66435         4.52508
LJ           2.87667       -0.616154        -2.62685
LJ           5.58116         3.94691        -2.05789
LJ          -1.90404         4.28117        -6.40011
LJ            1.3029         1.84227         2.72258
LJ          -2.19438         6.26534         2.17769
LJ          0.282056        -4.31797         5.91932
LJ          -6.19527        -4.78624       -0.663266
LJ           3.98978        -5.97367         1.93456
LJ          0.694594         1.58505         1.95396
LJ          -3.48219        -3.11558        -5.14574
LJ           3.98746        -6.33561       -0.434214
LJ           2.62552        -5.68339        -4.89326
LJ          -2.30525        -4.68405         2.55909
LJ          0.784799         2.95109        -2.79621
LJ         -0.727872         2.84034         2.86806
LJ             2.955         6.15243       -0.400707
LJ           -2.7926          2.2609         5.84324
LJ           5.99503        -4.40981         5.41793
LJ          -6.04228         6.28262         3.57249
LJ           5.96643          2.1777         6.24821
LJ          -0.67938          2.7779        -1.19814
LJ           -4.7529        -1.77231         3.16712
LJ          0.979714        -6.34571        -2.83888
