108
#Comment!
LJ          -6.20544        -3.95287         4.37992
LJ          -3.11272         5.51197        -4.60444
LJ          -1.73812         3.46808         1.48494
LJ           4.59198        -3.77867         4.14574
LJ           3.70407        -2.05147        -5.44221
LJ          -1.53618         1.85602          4.3689
LJ          -5.93349        -2.68131        -5.10823
LJ          -5.91733          4.6563         1.41718
LJ          -4.51669         3.15789         2.74725
LJ           4.14808         2.04332        -5.25987
LJ          -5.70368        -0.49362         6.16576
LJ          -1.56872        -4.86437        -6.44529
LJ           1.88125         4.43676        -3.93238
LJ           6.20646        -2.92628         1.33625
LJ           4.72254        -0.79283         1.00861
LJ           5.09843         3.38994         2.69115
LJ           3.48205        0.899479         1.88424
LJ           -5.6044        -4.81564        -5.97517
LJ          -2.93244        0.973804         4.09299
LJ            5.9239         1.19633         1.65196
LJ           2.92235         4.16947        -1.16914
LJ        -0.0337243         3.22245         5.56087
LJ           6.23897        -2.09568         5.03809
LJ           4.09244        -3.74884       0.0271827
LJ           -1.8468         4.59201         5.47674
LJ            2.9504        -6.04848         4.49118
LJ           5.34908         2.30463         6.19613
LJ          -2.23776         5.89603        -1.42687
LJ          -3.43021         4.60253        -1.24049
LJ           3.49216         3.75091        -2.65471
LJ          -1.64988        -1.64365         1.98616
LJ          -6.16048        -5.98238        0.887132
LJ          -2.01972        -4.00935         3.66239
LJ         -0.640185        -4.44906        -4.11072
LJ          -2.42892        -5.29238         -5.6104
LJ          0.886983         6.42916         1.78172
LJ             1.679        -5.21489         6.33779
LJ          -2.36704         2.33708         1.09215
LJ          -2.32286        -4.13936        -5.69614
LJ           4.39999         0.10739        -4.16439
LJ            1.1009         3.04576        -4.83731
LJ           5.41408        -3.88175       0.0189724
LJ           5.81712        -5.26045        -4.66319
LJ            0.8454        -3.42059       -0.462409
LJ          -3.98593         3.64694         5.86183
LJ           5.60183        0.185422        0.803403
LJ           2.88712        -3.08459         6.20779
LJ          0.866175        -5.60304          3.1854
LJ           1.54499        -5.92873        -5.76502
LJ          -1.76603         5.50543        0.720201
LJ          -3.98768        -6.03652        -3.72882
LJ           5.16429        -4.29417        -1.33029
LJ          -2.83398        -3.80417        0.780791
LJ           1.63347         4.25098       -0.466444
LJ          -4.75981        -3.15535         5.51574
LJ           2.65906         6.36675         -1.7943
LJ          -3.75924         5.32507        -1.78853
LJ           3.43379        -5.34063        -2.21325
LJ          -4.23209        -5.29948         1.60222
LJ          -5.01967        -4.73304        -2.27884
LJ           6.16046         2.61197         -1.3192
LJ           2.67678        -0.57223        -4.50057
LJ           5.70333        -3.12998        -4.04222
LJ        -0.0451377       -0.616919         5.38576
LJ           6.26204         5.64748        -2.75514
LJ            4.1273         4.33147        -1.59374
LJ         -0.395159          5.9744       -0.410362
LJ          -6.11874        -4.83197        -4.86343
LJ           5.73066        0.880863         6.43228
LJ          -2.18761         3.54029        -2.12406
LJ         -0.648317        -1.01541         2.48986
LJ            1.1078       -0.482172         4.07029
LJ           5.56443        -6.44256        -3.43667
LJ          0.442719       -0.713411       0.0638538
LJ          -3.37337         1.96457        -4.34357
LJ           5.23245          4.4034         2.28042
LJ          -1.70525        -3.52497        0.319861
LJ           -4.4807         5.22957        -6.22611
LJ          0.972464         4.51344        -5.16996
LJ           4.64836        -2.67971        -3.54476
LJ          0.621305        -4.95269         -2.8935
LJ          -4.69177         1.37599         5.53127
LJ           4.18157         -2.1667       -0.175214
LJ          -3.97136        0.635503        -1.04564
LJ           3.63322         2.72314         1.44329
LJ          0.871983        0.947705         -2.4658
LJ            4.5129         6.24528        -5.23671
LJ          -4.13822         6.02001        -4.61358
LJ          -2.32436         1.73941         6.17277
LJ           1.91759         6.23172       -0.587859
LJ          0.238655        -4.20004         4.18921
LJ           4.52854        -5.01204       -0.166786
LJ           4.58791        -5.15548         4.10982
LJ           0.68936         -1.7007        -1.55716
LJ          -4.31356        -0.63811        -4.71762
LJ          -5.48998        -5.93301          2.7501
LJ          0.495851         4.77585         -3.3437
LJ          -3.94318        -3.69463         4.28651
LJ           5.72155        0.126066        -3.65366
LJ           1.71655         1.23107       -0.759432
LJ           4.43133         -3.6979         1.02654
LJ          -2.18036         1.51736         3.28865
LJ          -2.67996        -2.20235        -4.51392
LJ          -3.02613         3.12541        0.671692
LJ          -5.75965         1.06358         5.78667
LJ         0.0172839         3.90876        0.746184
LJ          -4.38373       -0.413351         4.38886
LJ           2.89154        -4.88213        -4.27674
