108
#Comment!
LJ          -4.65892        -3.66156         3.29857
LJ           -2.2115         5.83715         -4.6874
LJ         -0.751049         -6.0759          0.2472
LJ           6.13611        -5.44055         5.11197
LJ            6.2774        -1.76226        -3.23304
LJ          -2.84603            1.99         4.46792
LJ           5.25728        -2.37297        -4.29828
LJ           -5.0255         4.35665        -2.15651
LJ            6.1619         3.55651         2.48026
LJ           6.26054        0.477406         -4.7747
LJ          -6.41492        -1.47688         3.43533
LJ           -1.2196        -5.04795         5.81388
LJ           1.06495          3.0044         5.97544
LJ           2.71151        -3.02643         0.75249
LJ          -5.32895        -2.41993        0.388761
LJ           3.63958         3.45749         1.78246
LJ           5.65588        -1.15656         3.04295
LJ          -4.84367         -5.6482          5.6481
LJ          -2.73067         2.53095         2.58742
LJ          -4.08203         1.21531         1.70394
LJ             4.741          2.7819         -1.1389
LJ          -1.16565         4.06016         5.08221
LJ          -6.32752        0.742879         4.71658
LJ           5.78468        -5.49067         -1.7767
LJ          -0.23143         4.10155         6.28977
LJ           3.17135         -3.1868        -5.54706
LJ           5.13607         1.97593        -5.08906
LJ          -3.07958         4.15239        -1.83091
LJ          -2.72081         1.43664        -0.56241
LJ           5.93109         2.60093        -1.97125
LJ          -3.63963        -4.62826         2.95513
LJ           5.99641        -5.55478      -0.0223858
LJ          -2.56636        -1.56457         -5.8395
LJ           1.22341        -3.71073        -3.18038
LJ          -4.27812         6.26423         6.20358
LJ         -0.437601        -5.80643         1.50882
LJ           1.09837        -4.93494        -6.21148
LJ          -3.22156         2.91475        0.379812
LJ        0.00357837        -3.21202         5.76767
LJ           2.75184         1.55768        -1.74986
LJ           1.49848         5.49305         5.94712
LJ           5.41694        -3.29478        0.391648
LJ          -5.98741        -1.85385        -4.16691
LJ           2.12094        -4.34449       -0.822478
LJ          -6.13186         4.89351         5.17087
LJ          -4.64042        0.239362         0.77622
LJ          0.986746         6.17865         3.16583
LJ           2.69431        -5.19805         1.87524
LJ           2.26597        -5.31591         5.93342
LJ          -4.20268        -6.28217         2.55931
LJ          -5.05948         5.76152         -3.7271
LJ           4.66822         6.33129       -0.873257
LJ          -1.26548         -4.3367       -0.629292
LJ            1.6902         5.29482       -0.696998
LJ          -4.71185        -3.05957         5.94143
LJ           2.79449         5.24097         1.79447
LJ          -2.45246         4.92828        -3.27498
LJ           5.58322         6.32263       -0.252668
LJ          -3.67609        -4.12243         5.12763
LJ          -5.34217        -4.35493       -0.165123
LJ            3.2761         4.52332        -1.44772
LJ           3.04004        0.288315        -4.71251
LJ          -5.08477         -3.3896        -5.12692
LJ         -0.379203       -0.734208          6.0112
LJ          -5.77355         4.77026       -0.528898
LJ           3.13725         3.15391        -2.76454
LJ         -0.839366         5.45615        0.237967
LJ           -5.2311        -5.03112        -1.97229
LJ           4.48617         2.26754         5.67584
LJ          -4.20037         3.25667        -1.14125
LJ          -1.28372       -0.786082        0.476137
LJ           2.84088        -0.91287         2.94934
LJ           2.07048        -4.66443        -4.03752
LJ         -0.816227        -2.94344       -0.812716
LJ          -5.55522         3.41862        -3.41096
LJ           4.99271         4.20431         1.23913
LJ          -2.50683        -3.46665         2.02036
LJ          -3.78241         5.33906        -6.23223
LJ           0.90213         6.00394         -4.4511
LJ           3.83773       -0.350145        -2.69334
LJ           1.02185        -5.12033        -2.26083
LJ           -3.6752          1.0256         5.06594
LJ          -5.26778        -1.92893        -2.06076
LJ           -3.6483         2.34562        -3.66309
LJ           3.28184         3.34012         3.75452
LJ            2.2943        -0.10016        -2.34487
LJ           5.23468         4.63482        -3.02639
LJ          -2.91618          4.8262        -5.99221
LJ          0.323439         2.14926         3.97941
LJ          -0.84139         5.79478         1.54785
LJ         -0.166046        -4.73631           5.718
LJ          -6.32373        -4.69679       -0.736997
LJ           3.77837        -5.49669          2.3732
LJ          0.825636        0.347866        0.953113
LJ          -4.22177         -2.3506        -6.06509
LJ            4.9138        -5.99921         0.54899
LJ           2.45226         6.38293         -4.4938
LJ          -2.46824         -4.5237         3.36859
LJ             2.153         2.17482        -3.33127
LJ         -0.041598         2.29244         1.58909
LJ           3.25226        -5.92188        0.066742
LJ          -2.02793         1.85959         5.26598
LJ          -5.63526        -3.72341         6.25828
LJ          -5.08555         5.32047          2.3525
LJ           6.19458         1.27006         -6.0728
LJ         -0.477714         3.08299       -0.658891
LJ          -4.47492        -1.48346         4.35825
LJ           1.55347        -6.06403        -3.09973
