108
#Comment!
LJ           5.03776       0.0976206         5.95752
LJ         -0.621671         3.98476         4.18474
LJ          -5.83019         1.67658         3.80972
LJ         -0.430335          5.2448         2.80129
LJ           4.19009         4.94082        -3.50431
LJ           4.20228          3.1462        -2.74833
LJ           1.05562         3.12575          5.7875
LJ           2.65571         5.71632         3.50829
LJ           1.17873        -2.79142         3.14594
LJ         -0.757204         2.04394         1.69677
LJ           5.15194         1.52605        -2.56712
LJ         -0.969698         1.95209        -5.34756
LJ           -3.1718        -1.13484         5.11823
LJ          -6.24372         3.89735        -5.36035
LJ         0.0974944         2.74346         6.15808
LJ          -2.90036         1.34187        -0.25759
LJ          0.891535         -1.4716        -2.16012
LJ          -1.45789        -3.16485       -0.589291
LJ           6.21503        -1.79779         5.97524
LJ         -0.262959         3.90682        -2.48773
LJ           2.39326         2.82335         4.89814
LJ          0.141124          1.5423         1.48529
LJ           3.71222        -2.97628         2.21962
LJ          -6.13884        -4.41754        0.227505
LJ          -3.35053      -0.0780332         2.74556
LJ          -4.01461        -4.55582         5.71902
LJ           3.66784        -2.79328        -3.01188
LJ          -3.76596         5.85561        -1.07323
LJ          -5.33309        -4.48783       -0.780548
LJ           1.84966        -3.18036       -0.678867
LJ           2.72554        -6.07953       -0.643057
LJ           2.18032         2.31111        0.221585
LJ         -0.557239        -2.54633        -5.91226
LJ          -0.30988       -0.229195       -0.847821
LJ          -5.30744       -0.241345        -3.23586
LJ        -0.0986622         4.30599         1.15466
LJ          -3.19416        0.652528         4.52949
LJ          -3.05537         -4.0636         3.27053
LJ           1.11943        -5.92879         3.14002
LJ           1.69391         3.70168         4.58099
LJ           5.28165         1.14587        0.570279
LJ         0.0856635         4.83883         4.81689
LJ          -4.64834        0.494363         1.60731
LJ           3.03993          6.0496         0.15724
LJ           -3.8032         4.36285        -4.62207
LJ           3.78334        -4.69213        -2.14382
LJ           1.13735         1.06254         4.26567
LJ          -3.75024        -5.83716        -2.00759
LJ          -5.66237        0.373578        0.605782
LJ          -5.56836        0.759395        -2.39673
LJ           4.91599        0.790192         -1.9129
LJ           2.34769        -3.24552          4.5276
LJ          -6.12509         2.86229        -3.64505
LJ            5.6697         4.94643      -0.0813885
LJ          -3.89435         1.82244         5.28603
LJ           3.82118        0.434362        0.649632
LJ          -1.10789        0.238997         1.64856
LJ           4.52685         4.84694        -5.55963
LJ          -5.27037         2.10541         1.29543
LJ           2.06787       -0.534857         3.03456
LJ         0.0381455        -6.29174         -2.8418
LJ         -0.976308         2.61444       -0.709866
LJ           -0.6915         1.23164        -3.22096
LJ         -0.732314        -4.22832       0.0533435
LJ         -0.991849         -3.5145         2.47231
LJ          -5.86736         3.51449         6.06415
LJ          -4.44981         2.16294         2.49511
LJ           3.76629        -4.15433        -4.38901
LJ          0.231895         6.20716         4.46102
LJ           1.87642         0.13221       0.0599685
LJ          -4.69814         3.99976         4.36637
LJ           4.48378         1.97156        -3.53375
LJ           1.83231        -5.39566        -1.70767
LJ          0.952857        0.289775        -6.19579
LJ           3.23832         6.09592        -2.87081
LJ           5.29972         -1.8144         -2.2222
LJ         -0.320971        -5.00163        -0.61728
LJ          0.248134        -4.88465         4.34046
LJ           0.13261         2.52976        -3.48662
LJ           4.73297         5.39831        -2.77982
LJ           4.13084         -6.1532        -4.55988
LJ          0.860289        0.907589         5.76264
LJ           3.68696        -1.01042         1.48745
LJ            4.8486        -5.27265         3.90871
LJ          -2.26026        -5.59555        -2.02814
LJ          0.987228       -0.630948        0.954419
LJ          -3.18208        -1.79916        0.103934
LJ            1.6792        0.985945         6.34949
LJ           5.60559        -5.08843        -4.88847
LJ           1.55447        -4.08515         2.00157
LJ          -1.56224        -1.91872         4.12186
LJ         -0.435903        0.117263        -6.20259
LJ          -3.79539        -2.74003         5.45805
LJ           4.90202        -5.77381         -5.4271
LJ          -3.79209       -0.712391         1.92361
LJ          -2.37036         5.82395       -0.688931
LJ           2.92326          1.7719        0.887651
LJ           3.80134         5.77659        -5.88271
LJ          -3.03826        -5.23748        -3.87656
LJ          -6.06911         -3.7465       -0.743493
LJ           1.86699         1.92482        -4.66959
LJ          -3.23074          5.3952        -0.28373
LJ          -1.39927          4.9005        -2.00447
LJ          -2.60973        -3.89687        -5.02061
LJ          -3.45722        -6.02599         5.74849
LJ         -0.846888        -1.67116         3.09621
LJ           2.81976        0.355551         3.04026
LJ           -5.4204         1.57672         -3.2143
