108
#Comment!
LJ          -1.15875        0.842003        -2.47036
LJ          -2.32226       -0.827167          1.3703
LJ          -6.07547        -1.88129         4.60333
LJ          -5.30475        -6.22229         -5.2689
LJ           6.27246         5.70364        -2.34649
LJ          -1.96306        -4.29469         4.45016
LJ           -5.8116        -5.36917        -3.94794
LJ           4.16064        -6.39355       -0.884646
LJ           6.32605        -1.62224         3.30409
LJ           1.44707         3.27474        0.659417
LJ         -0.728194        -1.58377         1.34391
LJ           3.89228         1.91676         3.76509
LJ           3.10374         4.90416        0.834676
LJ           -1.0788        -2.69225         6.16292
LJ            5.3375         2.95588         5.25053
LJ           -6.0391        -2.04015        -4.72421
LJ          -2.11116         5.71445        0.218752
LJ           2.83339         1.06688         2.49342
LJ           3.32171        -4.96076         4.48492
LJ          -6.36221        -5.79035        -2.93777
LJ         -0.961361        0.090638        -5.51542
LJ           1.93163         1.14046        0.214258
LJ          0.399218         1.79233        -2.74165
LJ          -4.71232         1.08411         5.64822
LJ           1.14084       -0.748447        -4.64521
LJ            5.5378        -2.59368        0.509219
LJ           2.02931       -0.890679        0.175262
LJ          -6.15686         1.56902         1.32354
LJ           1.75355         5.93142       0.0156526
LJ           1.57037         1.16373        -5.60611
LJ           1.60633        -6.14354         2.76555
LJ          -2.00143        -5.22268        -3.18849
LJ          -5.06522        -4.16804        -4.03246
LJ           3.01288        -2.07315         4.03103
LJ          -3.68883         5.07799         6.23378
LJ           3.01749          5.0522        -6.33993
LJ           2.17649       -0.405187        -1.89607
LJ            3.1721        0.054741        0.188287
LJ          -5.51246         2.07316        -3.34952
LJ           2.83818         1.89182          4.1536
LJ          -1.40195          1.7473         3.69391
LJ           1.14193         4.10904        -1.90299
LJ          -4.10458        -4.18601         4.77719
LJ           3.63341         3.02661         3.50714
LJ           2.33119        0.782311        -2.76991
LJ           3.63101         6.04376         4.32414
LJ           1.26531        0.417185         3.05186
LJ         -0.143368         3.15377        -2.77542
LJ           1.50603         5.77439         2.74811
LJ            1.1096         5.96609        -6.02918
LJ           3.22739         1.90907        -4.86109
LJ          -2.10071        -4.88879         3.20559
LJ          -3.17824         6.12505         -3.9577
LJ          -3.07813        -2.66314           6.212
LJ          -2.23377         1.23695        -3.68313
LJ           1.16778         5.01505         6.45261
LJ          -1.16559         2.03876          5.9143
LJ           4.53797         0.36781         5.73945
LJ          -4.91389        -5.58346         5.08034
LJ           6.21453        -4.90924         4.79512
LJ           1.46653         2.42247       -0.667066
LJ           4.54369        0.423001        -3.43871
LJ          -6.07162        -3.13443         4.50215
LJ          -5.12942        0.242312         4.80428
LJ           -5.2175        0.997569         1.34252
LJ           -3.4252       0.0963995        0.164204
LJ           -1.8991        -2.27181          -4.853
LJ         0.0776627         1.55373        -1.23869
LJ          -4.87413        -1.51419       -0.540075
LJ           1.72056         4.67287       -0.100494
LJ           -4.4386         3.19334         5.04281
LJ           5.94444         1.55285        -3.68634
LJ           3.77761         6.10059         2.90496
LJ          -1.00548        -4.13086         6.08493
LJ          -2.91536         3.52109        -2.45529
LJ           2.63351         5.75264         2.65952
LJ          -4.86224         5.37987         6.18175
LJ         -0.272031        -5.15163        -1.62853
LJ           3.08354        -2.08912       -0.163617
LJ            1.6386          6.2469          1.3545
LJ           -1.1737         -4.8924        -4.78486
LJ           5.77307        -5.18468        -3.99879
LJ           -1.2658          2.4135        -2.47646
LJ           1.08856        0.373571        -5.14492
LJ           1.18146        -3.94195         4.84286
LJ           -2.9932         1.27865          2.8853
LJ          -4.19024         1.78417        -5.14885
LJ           1.50053         2.79531        -6.43854
LJ           2.26809        -1.97112        -2.16146
LJ          -5.31849        -3.15166        -5.59063
LJ           1.41984         1.15713         4.68233
LJ           3.75616        -4.27433         2.49998
LJ           1.27345        -2.99265        -2.80542
LJ          -3.32072      -0.0288992         -3.7795
LJ         -0.214317      -0.0307173        -1.69671
LJ           2.97887          1.5893         1.28262
LJ           -4.9355        -2.61592        -4.66257
LJ          -5.11948         3.27161        -3.75554
LJ          0.185895        -5.88034       -0.515851
LJ          -3.50596        -1.88562        -4.20541
LJ          -1.04992         1.86061        -5.95114
LJ          -4.79989         2.70779         3.12471
LJ           5.53718        0.507503         -6.1348
LJ           5.31804         1.49327         3.64706
LJ          -1.48326        0.609062         2.29294
LJ           0.18605        -6.15133        -2.04997
LJ           3.69229        -1.15096         1.04914
LJ           4.69914         4.97787        -2.63917
