108
#Comment!
LJ            5.9424        -4.14273         4.65265
LJ          -3.96179         5.59579        -4.59038
LJ          -2.13799         2.68178         1.98272
LJ             4.023        -2.83056         3.83653
LJ           3.17727        -1.77284        -3.90855
LJ          -1.15012         1.38759         3.61898
LJ          -5.10558        -3.54914        -5.25565
LJ           6.34609         4.89612         3.04311
LJ           -3.4889           2.967         2.82825
LJ           3.25118         3.51214        -5.55243
LJ           -5.6776        0.379557        -5.93058
LJ          -2.08842         -4.2056         -5.7942
LJ           2.17298         4.80722        -3.62379
LJ          -5.19809        -3.06317          1.2724
LJ           3.23779        -0.19812         1.20356
LJ            5.4826         3.21369         3.13762
LJ           2.32418         1.80661        0.866249
LJ          -5.29937        -4.16793        -6.28703
LJ           -2.1006        0.852935          4.4786
LJ           4.61136         1.34054          1.6338
LJ            2.6347         4.30877        -1.19219
LJ           0.15167          2.6944         6.09523
LJ           -6.1203        -3.43086         5.82706
LJ           3.67871        -3.47982         0.68273
LJ           -2.4069         5.49391         5.09542
LJ           2.69954         5.72102         3.13624
LJ           5.63486         1.70646         5.45988
LJ          -2.25819         6.38334        -1.31972
LJ          -2.93221         4.78199        -1.10695
LJ           2.23877         4.84822        -2.58906
LJ         -0.426651       -0.271449         1.66104
LJ          -5.96681        -6.19673         1.44527
LJ          -1.88098        -5.15743         2.14231
LJ          -1.44638        -4.74549        -4.60541
LJ          -1.36535         -5.8167        -4.83296
LJ           1.55473         6.13066         2.00207
LJ           2.27586        -5.66699        -6.44608
LJ          -1.79588        0.926672         1.22492
LJ           -3.2025        -4.17531        -5.56769
LJ           5.72594        -0.43794        -5.41876
LJ           1.09506          1.8471        -3.51108
LJ           4.86298        -4.12571        0.144152
LJ            5.9546        -6.43534        -4.81622
LJ          0.453977        -4.45663      0.00386675
LJ          -3.00017         3.18629         6.26419
LJ           4.47402       0.0271404        0.817204
LJ           3.14692         -2.7933         5.65257
LJ        -0.0184987        -5.82016         3.64403
LJ           1.11999        -5.79562        -5.47871
LJ         -0.475098          5.0482       -0.272475
LJ          -3.34043        -5.50045         -3.7431
LJ           5.24978        -3.29709       -0.895015
LJ          -2.87514        -3.25196         1.45015
LJ          0.938546         4.06244       -0.104242
LJ          -5.38899         -2.7134         6.35092
LJ           2.98826          -5.812        -3.69964
LJ           -4.7017        -5.99432         -2.0343
LJ           2.04983        -4.39904        -2.93766
LJ          -4.42015        -5.87722      -0.0648286
LJ          -4.32448        -3.82644        -3.25764
LJ          -5.68784         1.56007        -1.37725
LJ           2.62206       -0.821637        -4.38863
LJ           6.02108        -3.56705        -4.41906
LJ         -0.164602       -0.681469         5.48693
LJ           6.12192         4.01785        -3.47245
LJ           5.75026         4.55885        -1.90518
LJ         -0.849983         6.24607       -0.219875
LJ           5.34036        -4.89599        -5.21508
LJ           6.01318        0.809955        -6.09837
LJ          -0.85157         3.42876        -2.96057
LJ         -0.575605        -1.25078         3.22692
LJ          0.566089        -0.17785         4.15755
LJ          -6.31628        -6.21587        -3.93575
LJ           1.21286        0.191587        0.329772
LJ          -2.37962         1.29698         -4.7564
LJ           5.43825          4.5412         2.69262
LJ          -2.09517        -3.83382       -0.285486
LJ          -4.65672         5.08983        -6.22878
LJ           1.46359         3.84378        -4.73008
LJ           3.48345        -3.16897        -3.34845
LJ           0.44997        -4.96925        -3.23869
LJ          -3.67287          1.7232         5.40484
LJ           2.76021        -2.66426        0.866081
LJ          -4.12737      -0.0814052        0.125594
LJ           4.13171         2.44795         0.39011
LJ          0.186171         1.02422        -3.92888
LJ              4.26        -5.81524        -6.06189
LJ          -4.54676         6.42883        -3.99007
LJ          -3.60437        0.931523         6.43947
LJ            2.4671        -6.46006        -1.26296
LJ          0.328379        -4.04164         3.37228
LJ           3.54139        -4.56516       -0.216387
LJ            4.8049        -5.20891         4.79367
LJ           0.22444        -1.06073        -2.84488
LJ          -4.33084       -0.114556        -3.40329
LJ          -4.47808        -5.91867         3.59636
LJ         -0.919796         4.55691        -2.75125
LJ          -4.14282        -3.58662         4.03687
LJ          -6.29652        -0.94213        -3.91865
LJ           2.63131         1.23405        -0.39365
LJ           5.54402        -2.75572         1.14549
LJ          -2.86207         1.40128         3.73745
LJ          -1.41173        -1.49062        -3.65869
LJ          -2.55501         2.87576         1.03061
LJ           6.41926         0.42774         5.81503
LJ          0.179331         4.38343         1.34513
LJ          -4.51438        0.267112         3.76042
LJ           3.52633        -4.36837        -4.80302
