108
#Comment!
LJ           4.11778       -0.608635         3.58501
LJ           3.95463        -4.55031        0.093658
LJ          -4.70538          2.8945        0.559511
LJ          0.574556       -0.290478         3.15241
LJ           4.85761         5.76635        -2.64404
LJ          -2.49736        -1.35546         3.41064
LJ            3.5106         3.60881        -5.81263
LJ           4.88608        -3.65542         4.45496
LJ          -3.80426         3.95716         4.65308
LJ          -6.13564         6.19142        -3.70262
LJ          -4.06894       -0.924643         4.71056
LJ          0.356668        -3.29707         -3.2128
LJ           3.79603        -3.71076        -1.93761
LJ          -3.54444          4.1159         6.24764
LJ          -2.83297        -2.14024         4.04183
LJ          -3.73992         2.57567        -5.74336
LJ            2.5906         2.96512        -3.22299
LJ           3.74188        -2.06549        -3.56268
LJ          0.735004         6.05499         3.75978
LJ          -5.77726         2.36338        -1.60558
LJ           4.16096        -1.23509         0.34649
LJ          -3.71561        0.835832        -4.04481
LJ          -1.17231        -5.58104         5.05148
LJ          -4.92133          5.4882        -4.54352
LJ          0.495777         3.51692         2.82766
LJ            1.4935         2.03026        -4.77894
LJ           5.59961        -1.19201        -4.93112
LJ          -3.04198        0.817022      -0.0559701
LJ           1.63121        -1.96688        -2.32837
LJ           4.10466        0.375614         1.90902
LJ          -3.56103         4.72429        -5.54628
LJ          -2.07914        -4.07991        -5.55062
LJ          -3.58683        -4.47987         1.29349
LJ         -0.524138         1.54372            -3.7
LJ          0.877336        -2.24463         2.46767
LJ          -4.14745         3.07441         5.77371
LJ           1.98061         1.45418        -3.66413
LJ          0.187148        -6.07086        0.163029
LJ           1.02383         3.15684         3.93956
LJ          -4.67643        -4.74416         2.12574
LJ           3.27826        -5.41725        -2.51584
LJ           1.15644        -5.90197       -0.604512
LJ           4.12011         4.50654        -2.88921
LJ           4.14087         3.41705        -4.64418
LJ          -4.02657          2.1641         6.13299
LJ         -0.546914        -2.25766        -6.16833
LJ          -6.42751       -0.660177        -2.34306
LJ           3.49911        -5.40191         3.34055
LJ          -2.16181        0.832953        -1.68973
LJ           4.72644       -0.105748         5.15052
LJ          -5.80689         -1.4038        -6.32629
LJ           4.19895          1.6289        -5.74164
LJ          -2.99286        -5.92194        -5.53538
LJ           5.14592        0.829923        -2.97145
LJ           3.49999        -4.69437          2.1848
LJ          0.511766         2.34481         4.98894
LJ           3.49023         1.31798        0.839601
LJ          -1.38949        -5.83521        -1.76599
LJ           1.70626         4.68314         3.80884
LJ           -2.6045        -3.10974        -6.42278
LJ          -5.62719         3.54521         4.86213
LJ           1.90504          5.5333         4.79838
LJ          -4.79744        -5.87175         3.49933
LJ          -3.88325         0.97794        -2.42104
LJ           5.60645         5.00715         3.19864
LJ          0.356223         4.61381         4.91845
LJ           4.60502         5.52364         3.24531
LJ          0.883782        -5.77822        -2.07987
LJ           5.89367        -3.23029        -2.52205
LJ          -4.82806        -3.62944         1.18456
LJ         -0.472673          1.5613         2.21572
LJ          -4.74683       0.0599804         5.46464
LJ          -2.97917       -0.630538         5.51347
LJ          -4.43255         2.54503         4.44527
LJ          -4.80593         0.31645        0.553239
LJ          -4.83871          3.9392        -6.03932
LJ           6.21203         4.73855        -3.70022
LJ           5.05355         4.60851        -4.33421
LJ           -5.0364          2.0097         1.20094
LJ          -2.24067         5.95476        -2.34309
LJ          -3.94663        -3.15981         4.24665
LJ           -6.1413        -2.55822         -4.9184
LJ          -5.45299        -4.83201        0.341303
LJ         -0.807859        -6.23674        -1.07287
LJ           3.21236        -5.84777       -0.698638
LJ             4.265        -2.68289        -4.93432
LJ           1.13305        -5.46028         1.49791
LJ           5.04724        -2.17334        -2.81534
LJ           5.98564         3.35738        -2.05115
LJ          -1.06988        -4.18695        -3.50246
LJ         -0.413395        -6.04751         4.65002
LJ           0.81647       -0.744963         0.93225
LJ           2.91242         4.44931         4.11196
LJ          -3.98657        0.381023         1.21332
LJ          0.295929         3.04195        -6.27423
LJ          -4.88033        -4.10802         3.22235
LJ            5.8824        -0.98787        0.493676
LJ           -4.3267         5.25111         1.95415
LJ          -0.83954        -2.02256         5.53432
LJ           5.03438        -6.30178       -0.699156
LJ          -2.99647        -6.12387        -3.09075
LJ           1.24029         4.48223        -5.40074
LJ          -3.20688        -1.17563         4.11093
LJ          -1.89998         1.46956         1.44169
LJ          -4.85187       -0.557942          1.9577
LJ           1.78162        -4.40221       -0.156173
LJ          -4.05054        -6.03901        -1.70436
LJ          -2.54073        -5.22722         2.68004
