108
#Comment!
LJ           4.53861       -0.839102         3.98803
LJ           4.20623         -5.5676        -1.46463
LJ           -3.9827          2.1814        0.887682
LJ        -0.0968256        0.986633         3.33278
LJ           4.48254         5.97599        -4.01945
LJ          -2.30091        -1.03251         3.20844
LJ           2.27362         4.03934        -5.36101
LJ           4.17473          -4.794         5.81826
LJ          -2.77586          3.5763          5.7908
LJ           5.71677        -6.39549        -4.50874
LJ          -4.28059       -0.855983         5.25708
LJ          0.367883        -2.84945        -3.74835
LJ           3.80607        -5.37583        -3.28622
LJ          -2.02773         5.66056         5.61073
LJ          -2.85848        -2.26729         2.68109
LJ          -4.15632         3.38543        -6.25971
LJ           1.17503          3.2961        -3.57089
LJ           2.87009        -2.61124        -4.43182
LJ          0.140043        -5.62149         3.56926
LJ          -6.24362          2.5623        -3.33828
LJ           4.52312         -3.8269         1.41146
LJ          -2.81306         1.80173        -4.71976
LJ          -1.29745        -5.78818         5.72327
LJ           -3.5997         6.19827        -4.82366
LJ         -0.168344          4.1535         4.66637
LJ          0.455835         2.97504        -4.66703
LJ           5.30035         -2.3238        -5.96813
LJ          -2.41248         1.75647       -0.014114
LJ           2.95719        -2.82225        -2.20204
LJ            5.4299       -0.349649         1.11765
LJ          -3.38345         3.88601        -4.96696
LJ          -2.65304        -5.73748         6.11627
LJ          -3.36798        -5.32068        0.696795
LJ          -1.32215         3.28039        -3.97071
LJ          0.619023        -1.40094          1.0312
LJ           -5.4658         3.60745          4.8917
LJ           2.16917          2.3923        -4.26065
LJ          0.880027         -6.1083        0.630048
LJ          0.776638         2.31855         4.31168
LJ          -5.07731        -4.27229         3.04204
LJ           3.11492        -5.16725        -1.62477
LJ           1.15592        -5.68238       -0.441586
LJ           4.81369         4.80706        -2.99887
LJ           3.58109         4.15998        -6.07101
LJ          -4.27822         2.30522         6.11104
LJ         -0.871157        -1.54622          6.1669
LJ           4.82099        0.954979        -2.36434
LJ           3.03308        -5.63141         4.01167
LJ          -2.03367        0.404309        -2.59905
LJ            4.5924         1.18011         3.46517
LJ            6.3085        -1.49469        -6.05904
LJ           3.74302         1.38922         6.27034
LJ          -3.07104        -4.58158        -5.45123
LJ            6.4403         1.43042        -2.30674
LJ           4.06954        -5.07127         2.71968
LJ           3.03289          1.4636        -5.90107
LJ           3.85155        0.398094         2.59305
LJ          -1.86853        -5.64934        -2.36445
LJ          0.876382         4.09644         3.75713
LJ          -2.20842        -4.67139        -6.40561
LJ          -6.34363         3.95756         3.84368
LJ           1.27087         4.73163         5.60385
LJ          -3.97374        -5.82737         3.90857
LJ          -3.03485        0.452004        -2.84595
LJ           6.09448         6.00023         4.33577
LJ           0.96492         4.94244         4.38537
LJ           5.08455        -6.42587         4.24853
LJ           1.65103          5.6358       -0.675943
LJ           5.77502        -4.15062        -4.68895
LJ          -6.40501          -3.164         2.50974
LJ        -0.0397019        0.922771          2.0755
LJ          -3.01778        0.741394          4.4393
LJ          -3.59473         0.74994        -6.19372
LJ          -3.50457          2.0897         5.29265
LJ          -5.61836        0.530995          1.4265
LJ          -5.26413         4.15741        -6.16467
LJ          -6.40242         5.22764        -3.33735
LJ            5.7191         4.23079        -4.37645
LJ          -5.99238         2.21815        0.492034
LJ          -1.72936         6.23921        -2.54427
LJ          -3.24059        -1.55344         4.06673
LJ           5.66436        -1.87047        -4.33019
LJ          -4.50708        -4.82625        0.934884
LJ         -0.948268         5.30662        0.217448
LJ           2.67026         5.58502       -0.838514
LJ           4.76357        -2.15045        -5.00908
LJ           1.77262        -4.83005         2.16178
LJ            5.0089        -2.55171        -3.87688
LJ           5.87642          3.3894        -2.46751
LJ          0.181861        -4.84328        -3.76779
LJ           1.57711        -5.65615         4.28863
LJ           1.25912       -0.426619         1.30504
LJ           1.88532         5.20126         4.33479
LJ          -4.95237        0.218956         2.20792
LJ         -0.118378         2.00886        -5.91978
LJ          -4.69616        -3.51544         3.86541
LJ           6.34212        -1.96881       0.0775165
LJ          -4.02596          3.2119         2.74187
LJ          -1.94384        -2.79555         5.51054
LJ            4.4137         6.22565        -2.06183
LJ          -3.16102         5.88056        -1.83198
LJ           1.39149          3.9514        -4.48562
LJ          -2.67858       -0.223435         4.27911
LJ          -1.83264         2.01498         1.24199
LJ          -5.36725        -1.10379         2.82522
LJ          0.862523         -4.3785        0.369075
LJ          -3.94338         6.07071        -1.20564
LJ          -3.11216        -4.13508         1.38829
