108
#Comment!
LJ           3.80363         1.02498         5.04614
LJ          0.884617         5.71874          1.5911
LJ           4.11115         2.42835         2.29161
LJ          0.731246         6.30882         3.92856
LJ           3.21449        -6.14626        -6.08539
LJ           3.29538         4.36982         -4.3175
LJ          0.414647         1.53776         4.88091
LJ           3.32186         -4.7159        0.612619
LJ         -0.412146        -2.45046         3.95833
LJ          0.428557         1.34698         1.61415
LJ           4.71311        0.699854        -3.04724
LJ          -1.34234         2.58415         6.34245
LJ          -3.31368         -3.0721         1.87971
LJ          -4.38507         4.82525        -4.38012
LJ        -0.0566952         1.75703         6.27875
LJ          -1.05431        -1.15449        0.966639
LJ           2.10591        -2.92797        -1.43244
LJ         -0.739554        -1.59922       0.0728675
LJ           4.48466        -3.07481        -5.46177
LJ           1.50553          2.0085        -3.48556
LJ           3.07874        0.659022         4.38144
LJ          0.989749         1.08642       0.0586917
LJ           4.10904        -2.98531         1.58569
LJ          -6.28096        -4.20343       -0.719507
LJ           -2.1279       -0.153873         2.95638
LJ           5.98647        -5.11558         5.38286
LJ           3.66442        -1.91134        -2.65416
LJ          -2.90076         5.67152        -2.52024
LJ          -6.30922        -2.40069        0.309938
LJ           3.31271        -4.06983        -1.13898
LJ           2.72744          5.4537        0.403052
LJ           4.48648         2.84422        0.313055
LJ          0.296257        -2.73464         4.73284
LJ         -0.847231          2.7839        0.238467
LJ          -5.09369         1.12854        -4.38158
LJ           1.48213         4.65255         2.35096
LJ           -3.0635        -0.23658         3.67022
LJ          -5.87458        -5.07133         1.18038
LJ         -0.918824        -5.28296         4.57289
LJ           2.05588         1.54801         3.76052
LJ           5.53393         2.71603       -0.178822
LJ          -1.18404         2.05843         4.69325
LJ          -4.66138         1.32572         4.20932
LJ           2.26924         4.29301        0.305125
LJ          -5.07006         2.80336        -5.71103
LJ           2.80282         6.35743        -3.54343
LJ           -1.2679       -0.950268         3.41548
LJ          -3.53412        -6.26957        -2.33181
LJ          -4.08505         1.05476       -0.556403
LJ          -4.78861       -0.489638        -1.40825
LJ          -5.80922       -0.495262       -0.379378
LJ          -1.17637        -4.33086         5.21248
LJ           5.86621         6.36218        -5.82356
LJ           2.53181        -5.55104    -0.000166191
LJ          -2.69921         4.03675        -4.31691
LJ           4.24557         1.23786        0.358269
LJ          -1.81616        0.103735         1.45204
LJ           3.09499         5.43206        -3.22263
LJ          -6.07014         1.29956         2.68545
LJ           1.14933        -2.13992         2.03962
LJ          0.806187        -4.71664         -1.8004
LJ           1.68583         2.88753        -1.71814
LJ          0.746477         2.27758        -4.61667
LJ         -0.953111        -4.77098         1.80525
LJ          -1.40595        -3.66535         1.88995
LJ          -5.65092        -1.92889         5.50606
LJ          -6.30523         1.68208         1.14577
LJ          -5.86525        -2.82553        -6.39571
LJ          0.174481         4.91831         4.51763
LJ          0.706633         2.06752        0.608594
LJ          -3.13797         2.92456         2.69682
LJ           3.59476        0.941738        -3.57938
LJ           2.08649        -4.25076        -1.45549
LJ          0.863985        0.642151        -6.04683
LJ           5.92917         4.25721        -3.48677
LJ            4.5007        -1.00519        -1.86298
LJ          -1.07393        -4.51586        0.752188
LJ         -0.350983        -2.77743         5.99018
LJ          0.216267         2.14473        -2.43645
LJ           3.78296         1.60706        -2.53956
LJ           5.70703         5.82726        -3.87958
LJ           1.29212         1.39413         6.14469
LJ           2.84315        -0.85461         2.76665
LJ          -5.73722        -6.42638         3.61394
LJ           -2.5586        -4.61373        -2.75701
LJ           2.44772       -0.507477        0.789599
LJ          -1.53483        -2.60724         2.58018
LJ           1.01305          1.1863        -4.93985
LJ           5.15537        -6.02288        -4.14766
LJ           1.21645        -5.07715          3.0775
LJ          -1.13796       -0.142535         4.59984
LJ          0.494127        0.380888        -4.66591
LJ          -3.49484        -0.30662        -6.33239
LJ           4.29521         5.96064        -6.00638
LJ          -4.29739       -0.946439          3.0608
LJ          -3.40586        -6.28426       0.0967601
LJ           3.94357          3.0478         1.49296
LJ           4.61829         5.04607        -5.51507
LJ          -3.82437         -5.9007        -3.89221
LJ          -5.32411        -1.10919         1.81136
LJ            3.2752         3.22661        -3.19053
LJ           -4.8136         5.10467        -1.53579
LJ          -1.48706         3.24316       -0.802237
LJ          -3.36335        -2.25723        -5.42525
LJ          -4.78175        -2.91715         5.01475
LJ         -0.449807         1.40587         4.47159
LJ           3.53241       -0.914654         1.53729
LJ          -6.25214         1.64865        -3.11416
