108
#Comment!
LJ           3.74236       -0.621956         3.13266
LJ           3.85871        -3.62675        0.998962
LJ          -5.35245         3.16958        0.418315
LJ           1.04308        -1.22893         2.90368
LJ           5.07218         5.23847        -1.68875
LJ          -2.51168        -1.76659         3.49799
LJ           4.67039         3.18525        -5.73203
LJ           5.39952        -2.82976           3.442
LJ          -4.45287         4.16699         3.94954
LJ          -5.38202         5.50643        -3.26759
LJ          -4.28605       -0.298936         5.13038
LJ          0.256496         -3.6521        -2.83431
LJ           3.70932        -2.69063       -0.857092
LJ          -3.79893         4.33759        -5.22207
LJ          -2.39239        -2.60106         5.01708
LJ          -3.46019         1.96843        -5.64921
LJ           3.55135         2.82197        -3.08911
LJ           4.35182        -1.64706        -2.50843
LJ           1.50941         5.07666         4.35948
LJ          -5.45388         2.18469       -0.398173
LJ           3.99429        0.696577       -0.407941
LJ            -4.395        0.167407        -3.36898
LJ          -2.02209        -4.84537         5.02861
LJ          -5.93795         5.04239        -4.21598
LJ           1.12344         3.00174         1.70992
LJ           2.34762         1.05371        -4.62225
LJ           6.02045       -0.517776        -4.14532
LJ          -3.34573         0.16166       -0.459483
LJ          0.653937        -1.37258        -2.45097
LJ           3.32359         0.69169         2.52962
LJ          -3.26461            5.26        -6.04296
LJ          -1.96612        -2.57557        -4.82657
LJ          -3.43091        -3.75547          2.1061
LJ         0.0995055        0.273041          -3.515
LJ           1.09365        -2.68411         3.47506
LJ          -4.26076         2.15484         5.70823
LJ           1.72965        0.880358        -3.53704
LJ         0.0966624        -5.96295       0.0654605
LJ          0.815653         3.24235         3.86008
LJ          -4.84164        -4.53977        0.921169
LJ           3.44766        -5.40971        -3.14607
LJ          0.870034        -6.06403        -0.79564
LJ            3.9064         4.57782         -3.0147
LJ           4.31374         3.11822        -3.83439
LJ          -3.72745         1.40708         6.18422
LJ          -0.49349        -2.67447        -6.34109
LJ          -5.19799        -1.64441        -2.40122
LJ           3.73759        -5.39156         3.11783
LJ          -2.46658         1.14929         -1.0069
LJ           4.88178        -0.81193        -6.45949
LJ          -5.27009        -1.59539        -6.27268
LJ           4.50018         1.90426        -5.06098
LJ          -2.91983         6.14578         -5.5058
LJ           4.20941        0.228066        -3.40265
LJ           3.01953        -4.43024         1.72496
LJ          -1.16794         3.21057         3.38042
LJ           3.06324         2.11761        -0.42369
LJ          -1.74528        -5.47304         -2.5042
LJ           2.38421         5.08501         3.45153
LJ          -2.72948        -2.23474        -6.16964
LJ           -4.8045         3.22611         5.57397
LJ           2.25369        -6.43857         4.55845
LJ          -5.21776         -6.2989         3.55205
LJ           -4.3383         1.32957        -2.22519
LJ           5.22669         4.28274          2.3714
LJ          0.374906         4.44531         4.99188
LJ           4.23561         4.80484          2.5224
LJ          0.287983        -4.61128        -2.62655
LJ            5.7112        -2.22087        -1.03583
LJ           -3.8389        -4.27217        0.210495
LJ         -0.938387         1.96322         2.31232
LJ          -5.69282       -0.585837         5.94312
LJ          -2.77133        -1.43307         4.40175
LJ          -5.05668         3.08629         4.24023
LJ          -4.32456        0.181397       0.0534475
LJ          -5.36304         3.50717        -6.40753
LJ           6.13903          4.7126        -3.76051
LJ           4.17338         4.60674        -4.28558
LJ          -4.15958         1.87493         1.55624
LJ          -2.87296        -6.36876         -2.2838
LJ          -4.37116        -4.57621          4.0732
LJ          -5.55931        -2.91908        -5.49239
LJ          -5.91418        -4.71875       0.0992856
LJ          0.189916        -5.75564        -1.60319
LJ           3.61346        -4.54684       -0.620308
LJ            4.2775        -3.00335        -5.15616
LJ          0.773179        -5.92846         1.07096
LJ           5.10174        -2.22807        -2.01983
LJ           6.05178         3.36617        -1.69266
LJ          -1.88669        -3.62592        -3.29515
LJ         -0.612606         5.73981         4.02345
LJ          0.453997        -1.08842        0.737872
LJ           2.88389         4.14875          3.9306
LJ          -3.25987        0.448028         1.01147
LJ          0.733862         3.87102         6.40735
LJ          -4.85083        -4.51951         2.66752
LJ           5.44818       -0.265599        0.794576
LJ          -4.55545        -6.16712         1.38873
LJ         0.0647609        -1.59464         6.16184
LJ           5.44421        -6.17235        0.169992
LJ          -3.04132        -6.09354        -3.70213
LJ           1.26029         4.90669         -6.1052
LJ          -4.09033        -1.49946          3.8324
LJ          -1.83467         1.05628         1.61584
LJ          -4.48261       0.0876327         1.06138
LJ           2.50423        -4.71839       -0.582741
LJ           -3.9293        -5.46895        -2.23192
LJ          -2.27633        -6.04735         3.46763
