108
#Comment!
LJ           5.49019        -2.87883         4.81233
LJ           5.32843        -5.96175        -4.10588
LJ          -1.68836       -0.311604          1.8246
LJ          0.638156         0.76621          2.9617
LJ            3.6679         2.82656         5.34677
LJ         -0.589199        0.641039          2.3211
LJ          -1.23882         6.14699        -4.36188
LJ           4.37373         5.25711        -4.07447
LJ          -1.19917         3.42972         5.26957
LJ           2.10183         -5.5882         6.28601
LJ          -5.19297         1.81859        -5.49763
LJ          0.479657        -2.73249        -5.52433
LJ           2.24414         4.36218        -4.26306
LJ         -0.411549        -5.81278         2.86462
LJ          -2.03227         0.35187        0.619595
LJ          -5.71008         4.17501         4.95787
LJ          -1.31075         4.53716        -5.01667
LJ         -0.296978        -3.46351        -5.67594
LJ         -0.621681        -1.75776         4.25144
LJ           4.88689          3.3066         5.56576
LJ           3.94689         5.52565         1.66529
LJ          -1.57267         2.89646        -5.42127
LJ             3.341        -4.47346        -5.86547
LJ          0.298496        -5.23787         5.90558
LJ         -0.544038         5.40974          5.4892
LJ          0.186869         2.67753        -2.42013
LJ            6.2322        -3.47895          5.4686
LJ          -1.65586         4.45472       -0.614123
LJ          -5.99453        -5.72792        -1.81513
LJ          -3.30628        -3.10556       -0.938397
LJ          -1.41595         2.90767        -2.01045
LJ          -4.82194           5.662         4.25427
LJ          -2.79362        -5.83363        0.371936
LJ          -3.76261         -5.6019        -5.73464
LJ           1.48529         2.78429        -1.50037
LJ           3.65271          5.1726         3.16255
LJ            2.5038         5.09064        -5.23826
LJ           1.95525         -5.2217        0.645869
LJ           -1.0842        -1.20932         5.08323
LJ          -5.82445        -2.20531         4.39062
LJ           1.13236        -3.61545       -0.370601
LJ           1.11963        -5.05775         1.59878
LJ           6.16849         4.13822        -4.94339
LJ          0.162796         6.39325         3.19413
LJ          -2.54029         2.27773          6.3374
LJ           -2.3768        0.229072         2.87659
LJ           2.68268        -6.33323       -0.446715
LJ          -5.29101         6.23506         5.71269
LJ          0.363282         -1.3623        -4.57516
LJ           3.87965         4.28322        -1.44941
LJ          -5.00892        -2.75704         6.08339
LJ           4.07625      -0.0770875         2.84355
LJ           -2.9015        -2.06028         4.85529
LJ          -3.38253         3.25741       -0.533969
LJ           4.62345         -5.9444         6.32456
LJ           -3.9181       -0.721166        0.917272
LJ           4.89577       -0.244181        -4.92785
LJ          -1.25491        -4.35468        -3.49135
LJ          -2.55377         4.10196         5.87279
LJ          -3.11012         2.68121        -5.23836
LJ          -5.56713         1.45593         3.01769
LJ          0.264742         2.81769        -6.36602
LJ          -2.44857         5.90645        -5.93983
LJ          -2.26083       -0.789697        -4.73938
LJ           6.26135        -3.55858        -5.53302
LJ          -2.55797         5.23675         6.09038
LJ           4.74432           5.142          2.6466
LJ           1.18672         3.89506         4.39275
LJ           5.44765        -2.81648        -6.11952
LJ            3.3258        -1.09205         6.15054
LJ           0.46394       -0.491435         3.82642
LJ         -0.238452         1.61882         2.77148
LJ          -4.30448         5.35036        -4.98415
LJ            -5.643         1.99155         -3.7069
LJ           4.60301        0.505185         4.82859
LJ           6.12824         3.92746         5.09547
LJ          -4.67534        -6.11444         -2.3732
LJ          -5.49408         4.59281        -4.27742
LJ           4.80387         2.62482        -1.58707
LJ          -1.49311          -5.202        -2.76583
LJ          -1.97126        -1.44669        -6.13731
LJ           1.62196       -0.263246          -5.932
LJ         -0.680339        -4.09137         2.11963
LJ          -2.44166        -6.38136         2.32257
LJ           4.34913         1.64867         -2.0561
LJ           1.21792        -1.36244        -5.60696
LJ           3.05033        -4.24723         4.26611
LJ           5.03697         -5.3049        -3.21055
LJ           4.66879         4.25012        -4.14739
LJ           3.60539        -5.98507        -4.54421
LJ           1.87066        -3.96158         1.33185
LJ          0.414779       -0.771802         1.34645
LJ           5.47298        -4.04136         5.34586
LJ           4.52429       -0.608375         4.71444
LJ          -1.41155        0.264124        -4.37643
LJ          -4.74342        -2.09149         4.59053
LJ          -5.26025        -4.36901       -0.709093
LJ          -3.79255        -1.61663         3.55653
LJ          -4.24315        -3.98542        -5.61055
LJ           4.50681         2.16962         4.88372
LJ          -2.95558         1.48624        0.240853
LJ           0.85763         2.81726        -4.28696
LJ         -0.549016       -0.337209         1.74695
LJ          -1.58132         2.49978         1.62809
LJ           6.25316       -0.197313         4.57483
LJ          0.113991         6.31671         0.82961
LJ          -4.47193         3.89551         1.01313
LJ          -6.05794        -3.48981        -3.01134
