108
#Comment!
LJ          -5.93557         4.80206         1.01511
LJ          -0.87463         3.15117        -5.95055
LJ          -3.04091         6.38832         2.09367
LJ           6.38445        -5.32407         3.79226
LJ          -3.58181        -4.54546         1.09683
LJ          -1.36376        0.569116        -5.52342
LJ           3.42176        -3.93097        -2.37927
LJ            6.3782       -0.204139         5.95294
LJ           1.22644         4.73128         2.08169
LJ           5.98075         4.29816        -5.29976
LJ          -5.32585        -6.39891        -1.93447
LJ           -4.8245        -4.40233         5.96201
LJ          -1.12124         1.07203         3.08801
LJ          -1.52503           1.455        -2.81785
LJ            3.6302        -2.07776       -0.928556
LJ           3.29253         3.80992       0.0604064
LJ           3.45231        -5.42611        -1.67834
LJ            4.2372        -5.26915         5.77177
LJ          -1.20593        -5.44676         1.67962
LJ           1.91804         1.61408         1.05412
LJ          -3.79977         1.37953         1.43568
LJ          -3.78562        -4.41241         3.86166
LJ          -3.31709        -5.04813        -3.86555
LJ           6.21577         2.98982        -2.50448
LJ         -0.313472         6.42804         5.13404
LJ           2.82265        0.162189        -5.47579
LJ           6.29287         -0.5647        -2.27615
LJ           -5.5345        -1.52716         -3.2685
LJ          -2.04643        -3.81091        0.290392
LJ           5.89174        0.659583        -1.78822
LJ          -5.34228         -6.1447        -5.79599
LJ           6.29103        -4.01268        -1.46375
LJ           6.02417          1.8934       -0.809762
LJ            4.3356        -3.21103        -2.83273
LJ          -4.07863         2.18639         3.88932
LJ         -0.509643         5.25874        -2.08257
LJ           3.69997         6.23311        -5.87102
LJ           -2.7416         4.82647          3.2731
LJ           1.15951        -1.15198         3.70996
LJ          -1.41179         5.69544        -0.19899
LJ           3.01552         -4.1527         4.87682
LJ           5.52816        -2.92763         1.07668
LJ         0.0689098         1.75847        -2.16969
LJ           5.18948         5.25193        -1.86717
LJ           4.06939          4.2609         6.26695
LJ           1.05959         1.47625        0.472385
LJ          -1.26793       -0.553504         -3.9949
LJ           4.32285        -4.49548        -3.64261
LJ           1.79747        -4.00913         4.33459
LJ           5.13991        -4.69696         5.94911
LJ           4.11842        -5.33049        -4.81985
LJ           4.49158          3.4296         1.61347
LJ           1.46304         5.01778        0.201658
LJ          -1.91521         4.41378        -3.21288
LJ           5.37486       -0.411562        -3.70655
LJ          0.722942         3.96531          4.2281
LJ         -0.900261         6.01276        -4.21924
LJ           4.19204        -6.05212        -1.05524
LJ          0.178926        -5.47794        -4.67688
LJ           5.03573        -3.41976        -1.26014
LJ          -2.17677         3.00919        -3.31839
LJ           4.12254         2.32302        -3.92143
LJ          -6.18844        -4.63379         6.06083
LJ         -0.682406         -1.6941        -4.95694
LJ       -0.00895594        -3.29042         1.26396
LJ            2.5386         -1.5238        -4.24326
LJ          -4.20727        -6.13932         2.97873
LJ         -0.810756         6.08214         3.53885
LJ           2.27257         3.57137        -4.99615
LJ           -3.4014         2.21449         2.40829
LJ          -1.77488        -1.59654        -4.88286
LJ           5.30396       -0.410337        0.903803
LJ          -5.72491        0.654618        -1.86674
LJ          -2.88768        -4.32326        -3.22298
LJ           2.54258        -6.11343        0.899674
LJ           1.03735         4.11353        0.472153
LJ           1.45456        -5.64505          5.9875
LJ          -4.24084         5.38868        -5.24047
LJ           2.60902        -4.21389        -3.96365
LJ           2.49503         6.19346        -2.24068
LJ           3.34281          5.7334        -1.17043
LJ          -2.26994       -0.455796          5.1282
LJ           0.80421        -1.34059         6.35917
LJ          -4.15554         3.38162         4.60881
LJ           6.14836         5.85414        -3.83176
LJ           5.28789       -0.185836          2.8976
LJ          -3.24339         2.27358        0.264692
LJ           1.45792         1.23656        -5.71897
LJ          -4.80731         2.00212        0.364828
LJ          -4.78802        -5.33506         4.30978
LJ           2.92862        -1.70088         3.40422
LJ           3.25182        -3.46272      -0.0784638
LJ          0.866166         5.35653          3.6737
LJ          -1.62603         5.41602        -2.04475
LJ          0.442606        -5.68304        -1.94184
LJ           6.21382         5.75259         -2.5244
LJ            4.3807        -1.94054        -2.83946
LJ          -2.84675         -5.1567        0.253753
LJ          -2.97565         3.04055        -0.54982
LJ         -0.875799         3.60307         4.83668
LJ           4.61408         4.57836         1.72488
LJ          -4.27918         4.37936         5.14579
LJ           4.21324         4.87009         3.30416
LJ           3.93256        -1.21056        -6.43613
LJ           4.85773         6.15635         3.65433
LJ          -1.81607         4.30227        -4.62994
LJ          -3.50004        -1.46857      -0.0562638
LJ           3.53165        -5.32697        -4.04997
