108
#Comment!
LJ           1.37147         6.37212       -0.372831
LJ          -1.89227          -1.175        -1.30557
LJ          -2.17618          5.3908         4.22003
LJ           6.40921         -4.2348        -5.57512
LJ         -0.992816        -6.45588        -2.36128
LJ           -5.1075        0.254279         2.52688
LJ           5.69547        -2.69584        -4.37502
LJ           2.24546         2.83005       -0.425264
LJ          -2.75967        0.604726         3.30735
LJ          0.955286          2.3021        0.253862
LJ          0.246718        -3.94995        -5.25204
LJ          -5.72658         1.16891          3.3736
LJ          -4.34216         6.09503         3.00922
LJ          -5.41481        -1.07607        -6.03328
LJ          -3.09175        -6.40112         2.79674
LJ           5.40471        0.232703         6.34064
LJ          0.996786        -1.52814        0.413068
LJ           2.92311         1.98141        0.964507
LJ           4.25621          4.0423        -1.03418
LJ           6.30648        -3.48862        -4.88598
LJ          -2.66986         5.62537        -6.34107
LJ           1.37601        -1.89332        -1.87978
LJ             -3.83        -1.70217       -0.636215
LJ          -5.53076       -0.572155        -3.92381
LJ         -0.386931         1.26257         1.50244
LJ           6.25396         2.68592         3.59545
LJ           2.78162         1.23021       -0.118794
LJ          -2.16182        -3.09528        -6.00928
LJ          -1.76222        -2.75116        -4.80565
LJ           5.66849           4.511        -3.04954
LJ         -0.272518        -1.93445        0.683046
LJ          -3.63443         2.87813         3.16193
LJ           2.00325         6.00857         5.05337
LJ           -5.1671        -6.13564        -6.45945
LJ           3.04787         3.95853         4.27453
LJ           3.02308       -0.948893         5.04697
LJ          -1.66013       -0.178716         -4.0663
LJ          -4.01777        -2.63424          1.7853
LJ          -4.26182        -6.45749         -2.9345
LJ            2.5289         2.84464         2.63368
LJ          -5.31547         4.97452        -4.09236
LJ           2.92779        -4.40889        -5.63876
LJ          -3.13478          -0.594         -3.8723
LJ           2.11108         2.65115        0.912748
LJ           4.68825         2.02188        -2.28867
LJ           1.05611        -6.38653         5.39426
LJ           4.40718       -0.540756       -0.427715
LJ         -0.570291        -5.61055        -2.82572
LJ           1.89451         3.42943        -3.44489
LJ         -0.615855        -5.03239         3.85582
LJ           1.70916         5.83266        -5.65016
LJ         -0.167242        -4.49817         6.24101
LJ           5.15781        -4.29771       -0.183495
LJ          -3.60593        -1.03241        -4.87256
LJ          -0.92332        -2.71281         -3.6709
LJ          -2.41494         2.65546         3.70807
LJ          -1.39397         1.63674        -1.92471
LJ          -2.44058         3.23269         5.23705
LJ          -4.29949         1.70337         4.81048
LJ           -3.7392         5.87056        -4.51004
LJ          -4.44495        -5.77922         3.00136
LJ           4.80406        -5.44671        -4.05412
LJ           3.50165         4.27068        -4.30108
LJ          -2.88335        -1.29138          4.8703
LJ          -3.43347        -2.14052         4.39696
LJ          -2.31004       -0.819399        -2.52119
LJ           1.07762        -1.52144         2.35297
LJ          -4.71419        0.424297       -0.387651
LJ          -1.17905        -0.14944         1.45339
LJ          -3.06743        -4.45433         1.12288
LJ          -2.87732         4.27397         3.36508
LJ           4.75408         4.32855        -4.04506
LJ         0.0861905         3.67712         3.01949
LJ           2.43697         5.76049        -3.29269
LJ           2.61148        -3.12699         2.25151
LJ           1.34845         4.52126        -3.91977
LJ          -3.55576        -5.99014        -4.52076
LJ          -1.18596         4.71351        0.858809
LJ        0.00816995         4.96311         2.12124
LJ          0.916325         3.24649        -1.14396
LJ           3.93921        -3.67687        -2.16569
LJ          -2.64382        -2.89168        -2.86077
LJ          -3.18034        -5.19906        0.480163
LJ         -0.073776         1.29038        0.489782
LJ          -2.82823        -2.21191        -4.21628
LJ          -1.99678         3.83077         -4.1445
LJ          -2.51084          3.1041          6.4208
LJ           1.22099         3.65199        -6.09883
LJ           5.85762       -0.222592        -3.08228
LJ           4.26734         4.51288        -5.67939
LJ          -6.02279         1.33785         4.76394
LJ         0.0422747          -2.321        -1.55182
LJ          -4.79751         1.73734        -2.18446
LJ           6.36807         2.16964        -5.08967
LJ          -1.99364         5.03201         5.12947
LJ           4.62778        -2.33826         1.71088
LJ           5.85338        -5.11933        -4.01654
LJ          -1.33819        -6.27625        -3.64278
LJ          -4.73472        -4.92669        -2.51278
LJ          -3.54588        -4.24391        -1.74882
LJ          -2.55256        -6.27608        -3.20449
LJ           4.57586         3.58869        -6.13962
LJ           -3.6921         3.89646        -4.40877
LJ           5.33261         1.40258           5.204
LJ          -4.99605        -4.27947         1.24603
LJ         -0.812663        -5.53016         1.36942
LJ          -1.58637        -3.56043        -1.32641
LJ           3.97194         5.73113        -4.31945
