108
#Comment!
LJ           1.66813         3.40152        0.925312
LJ          0.046082        -3.55302        -1.83799
LJ          -1.18213         3.74522         2.29044
LJ           4.76174        -4.82579         6.37768
LJ          0.756557        -5.72963       -0.493259
LJ           6.00788         2.90041         4.74753
LJ           4.38397        -2.40667        -4.76231
LJ          0.302691          1.5753        -1.24863
LJ           -3.8344         1.40368         6.41011
LJ          0.109128         2.31593         1.88982
LJ          0.441853        -4.84676         -2.9699
LJ          -3.22117         2.80652         3.15485
LJ          -1.96348         5.63841         4.61648
LJ           3.88905         0.79734        -5.61846
LJ           5.91429         -3.5922         3.85693
LJ           3.66604        0.515728         5.95992
LJ          0.846602          1.0524       -0.605199
LJ           2.13812         2.62947         0.54288
LJ            2.7549        0.599425        -2.54674
LJ           5.11825        -1.40291        -5.31259
LJ          -4.88271        -5.16294         6.04897
LJ          0.233084        -4.01136        -3.75694
LJ          -4.97885        -3.60124        -1.66456
LJ          -5.69846        -1.38861         -3.3353
LJ         -0.953348         1.71133         2.98466
LJ          -4.68045         4.09151         4.83081
LJ             2.759       -0.140243       -0.944595
LJ           -2.2435        -4.45524         4.95584
LJ          -3.73427        -3.34054        -2.16457
LJ            5.4014          5.6482        -2.15269
LJ          0.462497       -0.648697         1.21008
LJ          -5.00977         2.20613         2.05218
LJ          0.229998         5.98334         3.66836
LJ          -4.15909        -6.40269         3.74627
LJ           5.68957         4.52173         5.46283
LJ           2.86536        -3.22817         4.60869
LJ          -1.56897      -0.0961901        -5.52809
LJ           -5.7773        -4.42979         4.30727
LJ          -5.93839        -6.32636        -4.34712
LJ           1.41791          2.3676         2.31696
LJ          -6.44726         5.15284        -2.37478
LJ            5.1204        -2.62204         6.17859
LJ           -4.6781        0.166847        -5.10613
LJ           1.36335         1.75046        0.421585
LJ           -5.6153         1.63714        -3.90034
LJ          0.293137         5.38017         5.84978
LJ           6.08869         3.23727        0.621137
LJ         -0.799664        -6.02459        -3.17173
LJ           0.77339         2.57745        -3.65957
LJ           -2.0577        -3.81158         2.09181
LJ          0.194999        -4.97846         5.63482
LJ           2.78638        -4.98661        -6.09647
LJ            3.5948         4.49505         1.34715
LJ          -4.20973       -0.265597        -4.07819
LJ          -2.05438        -6.06214        -3.13577
LJ          -4.59444          3.4389         2.32723
LJ          -1.30165        0.496863         0.03885
LJ         -0.140811         4.57592         3.81443
LJ          -5.41973        0.518276          4.8049
LJ         -0.928034        -4.89298        -3.32365
LJ           6.32568        -5.62942         3.12154
LJ          -6.30371         4.21759        -5.08003
LJ           2.31554         4.19375        -3.73602
LJ          -2.05107        -2.71782         4.13118
LJ          -3.12465        -2.94412          4.6638
LJ          -1.84675          1.7764       -0.483214
LJ           1.99848       -0.334235         1.62966
LJ           4.90562       -0.164969        -1.94148
LJ          0.343898         1.42332         2.66515
LJ          -2.01163        -1.35173         1.55491
LJ           -2.2005          2.2638         2.12799
LJ           5.77157        -6.09934        -4.35523
LJ          0.163721         5.07977          2.1627
LJ             2.456         4.59194        -2.69956
LJ         -0.528935         -1.4313         4.57567
LJ           1.78301         3.07864        -3.41128
LJ          -3.27028        -4.44096         6.40582
LJ         -0.470935         2.85035         2.36829
LJ           2.31319         5.09718        0.384312
LJ            1.2553      -0.0943775        -1.16335
LJ           5.39603        -4.57711        -2.95718
LJ         0.0746262        -0.55715        -2.80217
LJ          -1.36075        -3.81269         1.30245
LJ          0.746702         3.16755         2.04105
LJ          -3.34617        -3.60485        -4.53393
LJ          0.441615         3.83029         5.15612
LJ          -1.60244         4.68109         5.05003
LJ           1.44032         3.41384        -4.27825
LJ           5.67578         1.51369        -2.94861
LJ           2.36015         4.66664        -6.15162
LJ          -4.20766         1.75073         4.41631
LJ        -0.0739846        -2.22108        -3.07718
LJ          -3.89104        -2.33377        -3.01136
LJ           5.49883         3.05824        -5.72298
LJ            2.9851        -6.29999         4.90247
LJ           5.88377        -3.79063          1.6802
LJ           6.13188        -5.96328        -2.18068
LJ          0.367175         6.07137        -3.04474
LJ          -4.72578        -5.14738         -3.0824
LJ           -3.8351         6.22793        -5.03471
LJ          0.115016        -5.49511        -2.27336
LJ           4.42037         2.71763        -5.48549
LJ          -3.50981        -4.45342        -2.50982
LJ          -6.09083         0.34632         5.57049
LJ           3.91752         -1.9103         1.22632
LJ         -0.776129         -6.2072         3.75889
LJ          -2.73024        -3.86814       -0.773123
LJ           5.32865         3.93705        -4.72728
