108
#Comment!
LJ           1.07609        -4.07134        -1.11955
LJ          -2.81994       -0.373377        -1.27912
LJ          -3.53508        -5.52361         4.34375
LJ          -5.38727        -5.20882        -5.75251
LJ           -2.4552        -6.28611        -3.60157
LJ          -4.39421        -1.26031         3.33075
LJ          -5.99987         -2.9801        -4.08522
LJ             2.774         3.45544        0.408335
LJ          -1.10119       -0.193656         1.36194
LJ           2.35034         3.07972         1.22199
LJ         -0.843666        -3.29309         5.52427
LJ           5.37211       -0.515608         3.04403
LJ          -6.24673         5.64837          2.2963
LJ          -2.97515        -1.56197        -6.39341
LJ          -3.32045         4.78733         2.86682
LJ          -6.30166        -1.09274         6.28624
LJ          0.271171        -4.26827        0.453394
LJ           2.59046         2.09276         1.48428
LJ           4.12033        -5.09246         1.27466
LJ           6.33179        -4.74572        -3.66075
LJ          -1.28829         3.68058         -5.9122
LJ           1.28625       -0.748608     -0.00623282
LJ          -2.98768       0.0422097        0.301738
LJ          -4.95576       -0.248242        -4.93548
LJ          0.545094        0.396581       -0.544197
LJ           6.18826        0.830049         2.41556
LJ           2.68322         1.08912       -0.437786
LJ          -2.77414        -1.93391        -4.82268
LJ         -0.468778      -0.0948676         -3.7858
LJ           5.09919         3.70735        -5.25643
LJ          0.476186        -2.82496      -0.0823364
LJ          -2.36225         3.66697          5.0589
LJ           4.15273         5.33359         6.37659
LJ           4.63817        -5.10316         5.28407
LJ         -0.383312         3.90906         4.15537
LJ           3.18044        0.964632         5.40761
LJ          -0.96393       -0.343643        -2.84634
LJ          -4.37794        -0.55122         0.67532
LJ          -3.11943        -6.25723        -2.60076
LJ           2.64512         3.31044         2.24365
LJ          -3.99338         4.52614        -5.63448
LJ           1.33124        -6.06353        -4.50957
LJ          -3.81087        -2.25107        -5.54035
LJ            1.8068         2.42746          2.0456
LJ           3.83913         1.38521        -2.00142
LJ           1.46255         5.83886         5.19303
LJ           3.18297        -3.02613       -0.447961
LJ          -1.74882        -6.11355        -2.22071
LJ           1.63611         4.13273        -1.47923
LJ          0.371998        -5.98626         5.11095
LJ           2.60568         4.17509        -4.96633
LJ          -1.20082         -3.3744        -6.27578
LJ          -6.09497       -0.827838         -1.3794
LJ           -3.3475       -0.916006        -5.27977
LJ           -1.2224        0.545021        -5.33379
LJ          -1.41739          2.1156          5.3022
LJ          -1.55717         2.48336        -3.83148
LJ          -4.63856         2.06043         5.58654
LJ          -3.74554         3.61668          4.4363
LJ          -3.60881         5.45639       -0.865496
LJ          -2.36522        -3.14168         2.02648
LJ           3.49658        -2.99232        -3.09224
LJ           4.83887          6.1292        -6.22795
LJ          -3.77776       -0.586848         5.31287
LJ          -3.74934       -0.741357         4.21783
LJ          -2.02812        -1.16313        -1.49602
LJ         0.0708915         -1.8923         2.14075
LJ          -2.23692        0.790636        0.449258
LJ            -2.735        -1.21534         1.02886
LJ          -1.16297        -6.36038        0.921535
LJ          -4.63409         4.51235           4.301
LJ           4.28209         2.80417        -4.08468
LJ           1.87243         4.13894         2.44475
LJ           2.47342        -5.81464        -4.39824
LJ           5.32067        -5.17377         0.66372
LJ          0.964104         5.17478        -5.76614
LJ          -4.68045         6.23918        -4.75048
LJ         -0.967699         5.60966        -0.32268
LJ         -0.187764         2.99505         2.81312
LJ           1.68868         6.07826      -0.0298341
LJ           2.25301        -3.71284        -1.95507
LJ          -4.25596        -4.28045         -2.8459
LJ          -4.82328         5.27485        -1.29356
LJ          0.422216         1.00147        -1.63839
LJ         -0.800422        -1.80578         4.11949
LJ          -3.70075         2.43473        -1.48752
LJ          -2.89103         2.24876        -5.82639
LJ           1.67243         3.91256         5.99763
LJ           4.76813       -0.828716        -2.53347
LJ           6.34646         6.19368        -5.09927
LJ           4.91297        0.838276             5.2
LJ           1.43326        -2.31143        0.596723
LJ          -5.69384         5.03374        -1.65966
LJ          -5.51853         1.56793        -4.42793
LJ          -5.70142         3.51929        -5.21946
LJ           3.76243       -0.957325         1.30212
LJ           6.38316        -3.64741        -5.56533
LJ          -3.27069         5.47261        -3.93013
LJ          -3.45754        -5.35161        -2.25355
LJ          -3.91558         -2.8817         1.41517
LJ          -2.22645         4.44373         -3.8201
LJ           4.76122         4.21449         6.42656
LJ          -3.49442        0.206468        -5.89569
LJ           5.41773         2.01222         4.48427
LJ          -3.20743         6.07357         1.62356
LJ         -0.986781        -5.47783       -0.579391
LJ         -0.493768        -3.49255        0.389747
LJ           4.01008         5.59995        -3.52152
