108
#Comment!
LJ           1.01018         0.75745        -0.25882
LJ          -2.91819       -0.948696         2.69658
LJ           6.03722        -1.49489         4.24528
LJ          -4.30836         6.03953         5.67381
LJ           5.06689         5.57773       -0.427062
LJ         -0.631631         5.89331         2.93105
LJ           5.59873        -4.86484        -3.46038
LJ           4.87722        -4.78248        -1.45566
LJ          -1.30558        0.013194         4.53627
LJ         -0.624649         4.22737        0.309462
LJ           0.41433       -0.374357        -1.63128
LJ           4.08312         2.58249          5.0985
LJ         0.0275091         5.95358        0.232793
LJ         -0.898458        -3.92101         5.79837
LJ           3.62154         2.63766         6.03848
LJ          -5.91457        -2.98042        -2.79489
LJ          -3.72783         4.25764       0.0650547
LJ           4.79976         1.23474         3.97426
LJ           2.15485          5.7471         5.62055
LJ           6.27691        -5.11861        -2.54667
LJ          -1.10708        -1.38798        -5.02797
LJ           1.69953       -0.181005        -1.25664
LJ           2.11452        0.256103        -2.17507
LJ          -5.28293         1.01284         4.21377
LJ           0.80076        -2.16587        -5.75292
LJ           5.27133        -4.76111       -0.199977
LJ          -1.15025        -3.48268        0.794126
LJ           6.19657         3.32303         4.43263
LJ           2.01337        -5.21722         1.79255
LJ          0.290304         1.11983         5.73512
LJ           3.43924          -6.044         3.35925
LJ          -2.43771        -1.73555       -0.771063
LJ          -2.46546        -2.95161        -1.62147
LJ           4.36655        0.137332         5.00657
LJ          -3.36378          5.8383        -5.67258
LJ            1.9625        -5.43436        -5.52416
LJ           3.08432        -1.84248        -1.34348
LJ            3.0959        0.565454         1.36375
LJ          -5.33475         1.84793        -2.79776
LJ           3.27209         1.28018         4.12681
LJ         -0.154673        0.105656         1.63948
LJ           1.32546         4.30933         -2.7233
LJ          -5.10092        -4.93854         4.43047
LJ           5.07695         3.62653         4.79892
LJ           2.28585         1.08913        -4.40236
LJ           4.49967        -6.46083         2.20489
LJ           0.48937         4.34668         5.81467
LJ          0.911081         2.45603        -3.76184
LJ          0.237056         3.95102         3.93095
LJ           1.85482        -6.24112        -4.40699
LJ           2.48106         2.81748        -5.81674
LJ          -5.14837        -5.24304         2.81536
LJ          -1.73162        -2.95648         -6.1645
LJ           -4.1091        -2.45134         3.36287
LJ          -4.55912         1.29242        -6.10897
LJ           3.41819         5.26876         5.99604
LJ         -0.568296         1.10192         5.18896
LJ           3.10026       -0.764281         6.32393
LJ          -4.46854        -3.85578         5.94918
LJ           3.40216        -2.69564        -5.86874
LJ           3.26208         5.68235        -1.34729
LJ           6.37048        0.122681        -1.47506
LJ          -6.03124        -1.84804         5.01179
LJ          -6.09752        0.249777         3.28077
LJ          -6.05424         2.09356       -0.815159
LJ          -3.37216        0.144186        0.326078
LJ          -1.88546        -1.11328         5.00929
LJ           2.08018         2.29216         -3.4128
LJ          -5.90438        -1.81019        -1.64472
LJ           3.52523        -5.52744        0.981188
LJ            -4.908          2.6186         4.79914
LJ           6.13679       -0.232344        -3.54861
LJ           6.38969         4.30177         4.54462
LJ          -1.48402        -4.42099         4.93505
LJ         0.0989807        0.676595        -4.45023
LJ           2.83324         4.79239         1.10726
LJ           6.34927         5.90106         5.08232
LJ          0.751184         6.33756        -1.72662
LJ           5.43851        -3.37701         -1.7796
LJ           1.83587         4.44882        0.955394
LJ           -3.0479        -4.87364        -6.41123
LJ           5.32402        -5.94905        -3.60442
LJ          -0.40587        0.871022        -3.33376
LJ         -0.458056       -0.655758        -6.37789
LJ           2.25551        -6.20115         6.41599
LJ          -2.02609         2.12656          5.2929
LJ          -4.78291         2.98765        -2.97927
LJ           1.69017         3.66443        -6.14698
LJ          0.041437        -1.92512        -2.34531
LJ          -4.66635         -1.4386         -5.7825
LJ         -0.340844        0.628414         3.92058
LJ           5.91716        -2.62956         2.34389
LJ           -1.3009       -0.454665        -2.78802
LJ          -1.83844        -0.64579        -3.81256
LJ          -4.44067        -1.85925       -0.490212
LJ           1.68213         2.54886         2.09349
LJ          -4.96737        -2.87756        -3.22358
LJ           -5.6849        0.693336        -3.90237
LJ           2.02526        -4.13525        0.175706
LJ          -2.89223        -3.66348       -0.559918
LJ         -0.431238      -0.0753056         4.77046
LJ          -3.19786         2.45128         1.13195
LJ           2.40851        0.288908        -5.90782
LJ           3.89431         2.06637          3.4084
LJ         -0.419139        -2.02306         3.15251
LJ         0.0424523        -5.89831        -2.39095
LJ           4.55697       0.0212999        0.206168
LJ           3.62618          3.7903        -2.90104
