108
#Comment!
LJ          -6.14648        -3.93236         4.36397
LJ          -3.05871         5.51536         -4.6047
LJ          -1.70506         3.58621         1.45539
LJ           4.63821        -3.86418         4.17079
LJ           3.79976        -1.99076        -5.39762
LJ          -1.59714         1.88011         4.41084
LJ          -6.00097        -2.62205        -5.10138
LJ          -5.87795         4.63627         1.29467
LJ           -4.5938         3.17166         2.74008
LJ           4.21831         1.92973        -5.23842
LJ          -5.71771       -0.539501         6.08883
LJ          -1.53593        -4.89414         6.43423
LJ           1.84761         4.40333        -3.96061
LJ            6.0845        -2.91791         1.33906
LJ           4.81323       -0.855379        0.995217
LJ           5.06903         3.42433         2.64743
LJ           3.57631        0.833899         1.95781
LJ          -5.57276        -4.85173        -6.02718
LJ          -2.97988         1.01092         4.03342
LJ           6.02988         1.21303         1.66857
LJ           2.94842          4.1576        -1.14738
LJ        -0.0488198         3.26299         5.51979
LJ           6.20545        -1.99995         4.97817
LJ           4.09819        -3.75869      -0.0648482
LJ          -1.80445         4.52152         5.50666
LJ            2.9705        -5.95779          4.5951
LJ            5.3338         2.33125         6.26102
LJ          -2.24247         5.85071        -1.43291
LJ           -3.4108          4.4843        -1.17113
LJ           3.58918         3.67802        -2.67579
LJ          -1.73521        -1.74687         2.02104
LJ          -6.17185        -5.96536        0.846067
LJ          -2.03084        -3.92037         3.77937
LJ         -0.581308        -4.42676        -4.07631
LJ          -2.50777        -5.34386        -5.64406
LJ          0.834482         6.45495         1.76966
LJ           1.62272        -5.18876         6.34409
LJ          -2.38348         2.33019         1.08804
LJ          -2.24709        -4.06685        -5.72771
LJ            4.3132        0.148897        -4.06104
LJ            1.0997          3.1459        -4.93973
LJ           5.46912        -3.85528       0.0309171
LJ           5.81163        -5.16302        -4.64484
LJ          0.875134        -3.34039       -0.498791
LJ           -4.0622         3.68283         5.83142
LJ           5.70255        0.187496        0.784152
LJ           2.81771        -3.19811         6.09402
LJ          0.934285        -5.58237         3.14762
LJ            1.5894        -5.92985        -5.80321
LJ          -1.85391         5.55292        0.786267
LJ          -4.02728        -6.06168        -3.71321
LJ           5.15296        -4.36901        -1.35568
LJ          -2.80919         -3.8454        0.715685
LJ           1.69375         4.26714       -0.497395
LJ          -4.72065          -3.195         5.44607
LJ           2.63316         6.32834         -1.6395
LJ          -3.73262         5.31228        -1.85106
LJ            3.5358        -5.43415        -2.15784
LJ          -4.22158        -5.25595          1.7322
LJ          -5.07259        -4.80467        -2.20521
LJ            6.0773           2.693        -1.31462
LJ           2.67919       -0.545434        -4.51299
LJ           5.80631        -3.14171        -4.07426
LJ          -0.05774       -0.621015         5.40945
LJ           6.30419         5.69505        -2.65748
LJ           3.98369         4.30867        -1.57674
LJ         -0.371726         5.93782       -0.416104
LJ           -6.0667        -4.84506        -4.74865
LJ           5.72127        0.900584         6.39336
LJ          -2.29146         3.54436        -2.05965
LJ         -0.661404       -0.998677         2.42454
LJ           1.16944       -0.496866         4.03018
LJ           5.44811         -6.3734        -3.45605
LJ           0.38427       -0.782972       0.0419683
LJ          -3.45005         2.01549         -4.3134
LJ           5.22755         4.37331         2.25392
LJ          -1.69671        -3.50358        0.381194
LJ          -4.46381         5.23959        -6.22245
LJ          0.943916         4.55894        -5.18604
LJ           4.61302        -2.59944         -3.5055
LJ          0.633236        -4.95082        -2.86929
LJ          -4.77055         1.34284         5.54681
LJ           4.30044        -2.14886       -0.251269
LJ          -3.95932        0.690944        -1.13563
LJ           3.59363         2.73737         1.52755
LJ          0.927638        0.945326        -2.35321
LJ           4.53681         6.18222        -5.16949
LJ          -4.10871         5.96337        -4.67973
LJ            -2.232         1.80475         6.14447
LJ           1.88026         6.21249       -0.546122
LJ          0.232346        -4.21967         4.24926
LJ           4.59446        -5.03474       -0.168841
LJ           4.57074        -5.13861         4.05695
LJ            0.7251        -1.74941        -1.45646
LJ          -4.31252        -0.67857        -4.81941
LJ          -5.56733        -5.93314         2.68138
LJ          0.610596         4.79752        -3.39189
LJ          -3.93083        -3.70142         4.31027
LJ           5.63597        0.209315         -3.6435
LJ           1.64542         1.23036       -0.785906
LJ           4.36926        -3.77845          1.0334
LJ          -2.11771         1.51173         3.30216
LJ          -2.77793        -2.25737        -4.58006
LJ          -3.09196         3.20328        0.631398
LJ          -5.70182         1.09713         5.79932
LJ        0.00428712         3.87458        0.695443
LJ          -4.37208       -0.462287         4.43941
LJ           2.84294        -4.92245        -4.23453
