108
#Comment!
LJ          -6.04826         4.56732        0.914429
LJ         -0.833575         2.69028        -6.25033
LJ          -3.00548         6.11058         2.11076
LJ            6.1817        -5.24173         3.64435
LJ          -3.60902        -4.40344         1.07935
LJ          -1.32952        0.406855        -5.31084
LJ           3.26932        -4.02522        -2.49023
LJ           6.29672       -0.462645         5.76548
LJ           1.02739         4.80286         2.08349
LJ           5.94125         4.50088        -5.48626
LJ          -5.32556         6.26587         -2.2032
LJ          -5.05621        -4.38741         5.97509
LJ          -1.21518        0.982698          3.0736
LJ          -1.69349         1.85053        -3.10421
LJ           4.09709        -2.04305         -1.0057
LJ           3.36223         3.62462        0.156055
LJ           3.34445        -5.50145        -2.01521
LJ           3.96621        -5.20624           5.878
LJ          -1.13856        -5.08458         1.75021
LJ           2.25923         1.64492           1.069
LJ          -3.47942          1.3023         1.70293
LJ           -4.0229        -4.06141         3.71821
LJ          -3.46339        -5.05286        -4.06088
LJ           5.81638         2.82507        -2.61791
LJ          -0.59554        -6.33616         5.02839
LJ           2.76815        0.263912        -5.54146
LJ           6.30187       -0.616752        -2.08224
LJ           -5.5271        -1.85732        -3.35721
LJ          -1.92375        -3.94645        0.285694
LJ           5.84164        0.684837        -1.69456
LJ          -5.50225        -6.03438        -5.55514
LJ           6.25005        -3.96072        -1.41802
LJ           5.67569         1.88115       -0.780381
LJ           4.19343        -3.10211        -2.77862
LJ          -4.00031         1.94322         3.79788
LJ         -0.468508         5.21344        -1.88655
LJ            3.8223         6.30837        -5.77412
LJ          -2.72279         4.92852         3.50221
LJ           1.19609       -0.905966         3.67052
LJ          -1.65155         5.91288       -0.205853
LJ            2.9801        -4.07687         4.89281
LJ           5.50858        -2.93497         1.15719
LJ          0.316271          1.7639        -1.99827
LJ           5.38141         5.17401        -1.91492
LJ           4.25222         4.06718         6.25695
LJ           1.20693         1.56073        0.354517
LJ          -1.14438       -0.630902        -4.28904
LJ           4.61195        -4.40253        -3.70772
LJ           1.92659         -3.9792          4.2248
LJ           4.99052        -4.60604         5.85778
LJ           4.18198        -5.30669        -5.02703
LJ           4.44967         3.36896         1.68213
LJ           1.63445         4.94021        0.332405
LJ          -2.07816         4.49686        -3.51633
LJ           5.19662       -0.357649        -3.65631
LJ           0.80402         4.03648         4.17392
LJ          -0.86162         6.23078        -4.27773
LJ           4.20319        -6.20252        -1.12772
LJ            0.3501        -5.57869        -4.54446
LJ            4.9552         -3.4876        -1.47261
LJ          -2.19106         2.90882         -3.4133
LJ           4.16766         2.41308        -3.86216
LJ          -6.06699        -4.67316          5.9636
LJ          -0.61933        -1.79567        -4.76637
LJ          0.229232        -3.73626         1.42044
LJ            2.5826        -1.74829        -4.37736
LJ          -4.47823        -6.06108         3.15337
LJ          -1.14528         6.12662          3.7353
LJ           2.17643          3.4938        -4.78263
LJ          -3.41331         2.09941         2.84047
LJ          -1.78498         -1.7758        -5.27794
LJ           5.28362       -0.295633        0.857751
LJ          -6.11289         0.96012         -1.7065
LJ          -2.74405        -3.98163        -3.02292
LJ           2.27025        -5.95158         1.02135
LJ          0.754118         4.11772        0.443318
LJ           1.72153        -5.76874         6.14297
LJ          -4.21262         5.30442        -5.04275
LJ           2.81595        -4.21729        -3.98093
LJ             2.424        -6.39059        -2.24916
LJ           3.49505         5.87376        -1.19207
LJ          -2.19127       -0.509171          5.1384
LJ          0.955959        -1.23533         6.12528
LJ          -4.32837         3.29352         4.56713
LJ           6.31803         5.97038        -3.51886
LJ           5.54615       -0.214248         3.23354
LJ          -2.89783         2.18184        0.467914
LJ           1.67141         1.01694        -5.74172
LJ          -4.53013         2.08233        0.146676
LJ           -4.7195        -5.30127         4.40458
LJ           3.00101        -1.59119         3.19671
LJ           2.99583        -3.35384       -0.137262
LJ           1.12759         5.03128         3.85062
LJ          -1.53695         5.54444        -2.20658
LJ          0.642604        -5.85101        -1.75941
LJ            6.2506         5.64814        -2.57785
LJ           4.63854        -1.75262        -2.66193
LJ          -2.93766        -5.38293        0.246468
LJ          -3.00899         2.95803       -0.536579
LJ          -1.05294         3.58192         4.93478
LJ           4.68913         4.36416         1.88439
LJ          -4.23375         4.53853         4.96765
LJ           4.33777         4.71297         3.28479
LJ            3.7959       -0.884582         -6.2963
LJ           4.69623         6.35279         3.45529
LJ          -1.97358         4.54046        -4.76073
LJ          -3.48499        -1.42587       -0.205662
LJ           3.23603        -5.31107        -3.78284
