108
#Comment!
LJ          -3.91196        -3.93004          2.8262
LJ          -2.05142         5.75161        -4.72256
LJ         -0.359849        -4.93574        0.120822
LJ          -6.18232        -5.96647         5.44424
LJ          -5.78937        -2.71783        -2.33808
LJ          -2.41208         2.14971         4.38772
LJ           5.17536        -2.64021        -3.76933
LJ          -5.20583         4.40619        -3.42646
LJ           5.31839         3.73755         2.29013
LJ          -6.16184        0.484563        -4.03311
LJ          -5.80383        -1.99335          2.8147
LJ          -1.76628        -5.15869         5.72391
LJ          0.673741         2.69494         4.65742
LJ           1.56026        -3.14703        0.446561
LJ          -4.20178        -2.83363        0.160919
LJ           3.15318         3.70917         1.50714
LJ           5.06927        -1.63774         2.41336
LJ          -4.84988        -5.82393         5.14404
LJ           -2.4974         3.06359         2.22912
LJ          -3.10374         1.17116         1.64336
LJ            5.4919         2.56107        -1.50343
LJ          -1.54705         4.13408         5.46554
LJ          -5.56769         1.69199         5.38897
LJ          -6.28924         -6.3585        -1.79001
LJ          0.314963         4.41513         6.19901
LJ           3.14148        -2.21419        -4.56592
LJ           5.23236         1.57407        -4.73316
LJ          -3.60344         3.42354        -2.04315
LJ          -2.52651        0.551889       -0.438998
LJ          -6.09677         2.35756         -1.5629
LJ          -4.16437        -5.53153         3.35045
LJ           5.63367          -5.161       -0.579003
LJ          -2.84534       -0.779515        -4.66161
LJ           1.87112        -3.70252        -3.07298
LJ          -4.77748         6.05555         5.73646
LJ          -1.05091        -6.16922        0.935078
LJ           1.53583         -5.1103        -5.94297
LJ          -3.49598         3.09411      -0.0781846
LJ          0.772788        -3.33667          5.1882
LJ           2.19383         2.12725         -1.3155
LJ           1.65425         6.21226         5.45945
LJ           5.34263        -3.12834         0.48499
LJ          -5.61834       -0.405395        -4.01659
LJ           2.58448         -5.0114       -0.890091
LJ           6.09566         5.37969         4.97359
LJ          -3.67295        0.309766        0.849722
LJ          0.351797         4.87586         2.14586
LJ           2.87737        -4.88439         1.12228
LJ           2.08897        -4.83115         5.62908
LJ          -5.10318        -5.96636         3.18161
LJ          -5.44345         5.48258        -3.78992
LJ           4.83593         5.82213       -0.296212
LJ         -0.546779        -4.77397       -0.896272
LJ           2.18233         5.55591       -0.697993
LJ           -5.0931        -2.39162        -6.45887
LJ           2.85806         4.81149         2.93761
LJ          -2.01727         4.77658        -3.73733
LJ           5.24649         6.43049         0.59472
LJ          -3.09764        -4.12207         5.73546
LJ          -5.30344        -3.60464       0.0243106
LJ           2.13815         4.71418         -1.7187
LJ           3.21661        0.615182        -4.71464
LJ           -5.0298        -3.53526        -5.37268
LJ         -0.503819       -0.785693         6.22382
LJ          -5.04154         3.57175     -0.00529179
LJ           2.86755         2.51098        -3.04172
LJ          -1.37979         5.77887         1.08997
LJ          -4.66262        -5.20789        -1.15581
LJ           3.96166         2.82504         5.58535
LJ          -4.20955         2.84764       -0.927957
LJ          -1.49414       -0.720474       -0.243266
LJ            3.4456        -1.06342         2.56142
LJ           0.64393        -4.08367        -3.97216
LJ          -1.23046        -3.40665        -1.15268
LJ          -6.20687         4.01913        -2.92646
LJ            4.7118         3.87655         1.08543
LJ          -2.96805         -3.7378         2.78967
LJ           -3.7644          5.2485        -6.13849
LJ           1.33845        -6.26109        -3.94424
LJ            3.6399         0.59915        -2.44869
LJ           1.47386         -5.3632         -2.2468
LJ          -3.51823        0.667541          5.0667
LJ          -4.15585        -1.88422        -2.70653
LJ           -3.5778         3.00645        -4.55704
LJ           3.40955         3.61532         4.38926
LJ            2.8142       -0.521241        -2.58258
LJ           5.50281         4.07195        -2.21415
LJ           -2.0781         4.37174        -6.32134
LJ             1.149          1.8946         2.94417
LJ          -1.97057         6.14722         2.04378
LJ          0.195855        -4.41099         5.89387
LJ          -6.10429          -4.786        -0.74529
LJ           3.93166        -5.88711         2.00341
LJ          0.714586         1.37056         1.77324
LJ           -3.6694        -3.03785        -5.28773
LJ           4.01206         -6.2912       -0.284914
LJ           2.62025        -5.82625        -4.83145
LJ           -2.2982        -4.69091         2.70536
LJ          0.996106         2.82034        -2.89115
LJ         -0.617215         2.75249         2.65236
LJ           2.91158         6.17828       -0.376312
LJ          -2.65772         2.19606         5.79495
LJ           6.20373        -4.28903         5.55855
LJ          -5.77831         6.23374         3.34149
LJ           6.00254         2.02863         6.34882
LJ         -0.645806         2.82882        -1.10817
LJ          -4.68167        -1.71737         3.37835
LJ           1.07543        -6.29078        -2.84862
