108
#Comment!
LJ           1.60055         3.79085        0.700074
LJ         -0.201742        -3.21764        -1.72742
LJ          -1.42254         4.06081         2.45832
LJ           4.98813        -4.78614        -6.43351
LJ           0.48739        -5.88497       -0.844948
LJ           6.17128         2.52626         4.40411
LJ            4.5309        -2.40739        -4.68359
LJ          0.673977         2.01514        -1.47908
LJ          -3.63105         1.29528         6.03003
LJ          0.222412         1.91969         1.54168
LJ           0.47079        -4.79081        -3.30665
LJ          -3.47265         2.59791         3.24448
LJ           -1.9375           5.413         4.22284
LJ           4.32533        0.542776        -5.76223
LJ           6.29589        -3.90402         3.69145
LJ           3.95061        0.774986         6.22122
LJ          0.933687         1.10366       -0.154906
LJ           2.29486         2.41706        0.584783
LJ           3.03989        0.989746        -2.43178
LJ           5.30051        -1.68355        -5.25279
LJ          -4.59628        -5.44806         6.10404
LJ          0.380496        -3.65233        -3.52453
LJ           -4.7843        -3.40493        -1.78152
LJ           -5.6523        -1.23926        -3.45671
LJ          -1.01416         1.63881         2.96076
LJ          -5.23817         4.01198         4.74285
LJ           2.79906      0.00154553       -0.833308
LJ          -2.33291        -4.16639         5.12146
LJ          -3.35192        -3.23668        -2.51699
LJ           5.53991         5.41763        -2.21942
LJ          0.323983       -0.850435         1.13562
LJ          -4.86258         2.28922         2.11092
LJ          0.309982          6.1554         3.73761
LJ          -4.39407        -6.35435         4.01289
LJ           5.64119         4.38101         5.23937
LJ           2.88473        -2.93221           4.663
LJ          -1.61744       -0.110382           -5.34
LJ           -5.3219         -4.1649         3.93483
LJ          -5.66294         -6.3914         -4.1852
LJ           1.63021         2.46021         2.43345
LJ          -6.40196         5.13582        -2.55921
LJ           4.81822        -2.84542         6.29444
LJ          -4.34993        0.178419        -5.00875
LJ           1.43834         1.82723        0.321422
LJ          -6.02048         1.76099        -3.63012
LJ          0.314439         5.65513          5.8505
LJ           5.87424         2.75061        0.489296
LJ         -0.527287        -5.86443        -3.35438
LJ           1.13188         2.71514        -3.86456
LJ          -1.87073        -3.95254         2.38229
LJ          0.372198        -5.25377         5.95977
LJ           2.45667        -4.96404        -6.23894
LJ           3.39247         5.04806         1.04307
LJ          -4.35088       -0.460413        -4.11473
LJ          -1.96496        -5.94017         -3.0894
LJ          -4.33981         3.41563         2.47492
LJ          -1.25573        0.629365      -0.0903321
LJ         -0.572449         4.56698         3.90526
LJ          -5.22855        0.516401         4.83553
LJ          -1.38932        -5.11564        -3.83066
LJ          -6.15486        -5.81861         3.36837
LJ           6.23903         4.57392        -5.00901
LJ           2.37994         3.98691        -3.66497
LJ          -2.18948        -2.50894         4.23514
LJ          -3.03128        -2.97213         4.71067
LJ          -1.87731          1.2414       -0.950381
LJ           1.92979       -0.538074          1.7657
LJ           5.33242       -0.104706        -1.71778
LJ          0.248151         1.26745         2.36203
LJ          -2.21657        -1.69971         1.54835
LJ          -2.16563         2.48967         2.29565
LJ           5.59666        -6.38316        -4.22781
LJ       -0.00464558          4.8771         2.45157
LJ           2.40358         4.84174        -2.65804
LJ         -0.134973        -1.60181         4.25621
LJ           1.83079          3.2744        -3.21526
LJ           -3.3525         -4.3496        -5.86644
LJ         -0.712092         3.23237         2.21211
LJ           2.45817         5.12096        0.756099
LJ            1.1659        0.246189        -1.28633
LJ           5.18347        -4.43181        -2.85334
LJ         -0.286341       -0.682847        -2.69439
LJ          -1.59467        -4.01295         1.13538
LJ          0.634938          2.9453         1.95305
LJ          -3.42152        -3.63007         -4.4875
LJ          0.141004         3.80896         5.64126
LJ          -1.76669         4.43287         5.30584
LJ           1.27193         3.47765        -4.66272
LJ            5.7513          1.2558        -3.00681
LJ           2.44748         4.48424        -5.94004
LJ          -4.45627         1.81896         4.46544
LJ          -0.13847        -2.26264        -2.88719
LJ          -3.97299        -1.78046         -2.8512
LJ           5.51871         2.90171        -5.68621
LJ           2.40932         6.32955         4.93568
LJ           5.68925        -3.67133         1.76799
LJ           6.11591        -5.83045        -2.37896
LJ          0.106715         6.13839         -2.9207
LJ          -4.71014        -5.09398        -2.95338
LJ           -3.7717         -6.3421        -4.72442
LJ         -0.375101        -5.28996        -2.09464
LJ           4.49285         2.55162        -5.68227
LJ          -3.64932         -5.0647        -2.73635
LJ          -6.35476        0.455774         5.57023
LJ            4.4613        -2.14608         1.13551
LJ         -0.609382        -6.22148         3.44892
LJ          -2.52098         -3.9378       -0.990633
LJ           5.29465         4.25209        -4.77435
