108
#Comment!
LJ          -1.98527         4.34359         2.81933
LJ           4.79819         2.82701        -1.86572
LJ           3.61076         2.49388         3.67699
LJ          -1.82154        -2.93164         1.40097
LJ           1.34024        -2.40216        -5.79967
LJ           6.21881         -2.3622       -0.566175
LJ          -1.46175       -0.911355        -4.24267
LJ           -1.7321         3.45073       -0.401573
LJ          -6.36654         5.50239       -0.526562
LJ          -1.45671         2.29682       -0.233969
LJ          -2.66254        -4.19925        -5.87521
LJ          -2.64588         4.83589         3.51424
LJ            1.1326         4.53055        -5.57097
LJ          0.125142        -3.41855        -5.60401
LJ            4.5407        -5.87382       -0.803214
LJ         -0.885432        -5.54532         5.22599
LJ          -1.72756        -5.48777        -1.91687
LJ           3.72936       0.0454684         6.06895
LJ          -2.11423        -4.35577        -2.12911
LJ          -5.29583        -3.28689        -5.58036
LJ          -5.02332        -2.98595         2.02683
LJ           -6.2188         2.57302        -1.40576
LJ           2.13206         -3.2111        -3.68553
LJ           0.92813          4.4885        -2.79116
LJ          -2.86413         3.22633        -5.86401
LJ          -1.00218        -1.24784         3.75033
LJ          -5.50726         6.09244         2.90649
LJ           4.35502           2.733        -4.14656
LJ           1.27771         4.84386          4.2678
LJ          0.165598        -1.70498         2.46116
LJ          -4.24632        -1.64387       -0.113337
LJ          -1.39463        -0.67192         2.55409
LJ          0.643944        -1.45826        -5.89854
LJ           2.36957       -0.829799         2.11257
LJ           1.29727        -3.21979        -1.60253
LJ          -5.80721        -3.65018        -4.55533
LJ          -1.73543        0.844525         1.33206
LJ          -2.75226         4.95388         5.19577
LJ          -1.80644         4.09469         1.69955
LJ          -1.41026         5.72871        -3.58415
LJ           4.84287        -6.18479         3.58959
LJ           1.84251        -4.74419        -3.13667
LJ           4.47061         2.15456          4.0232
LJ            -1.906         1.49111         -2.5075
LJ           1.00123         1.82475          2.7803
LJ            4.2962       -0.950273         2.94007
LJ           1.51491        -2.03262         2.09943
LJ           6.01225         -6.2554        0.256893
LJ           3.78648         3.98963         4.35585
LJ            4.0453         5.11355         3.85172
LJ         -0.965949        -5.88967         -2.9688
LJ          -1.03011         4.04364         0.50739
LJ          -5.33528        -3.43087        -2.81948
LJ           1.33902        -3.61236         5.00246
LJ           0.45549        -4.41378        -4.94796
LJ          0.288872         4.06562         2.15242
LJ           1.26465         3.03124        -2.31447
LJ          -4.22227        -4.93407         4.88451
LJ           1.72658         3.15473          3.9704
LJ           2.67767         5.92175       -0.474012
LJ          -2.82116           3.781         3.03866
LJ           4.18594         2.09932         1.21414
LJ          -1.10962        -3.40703         3.29377
LJ          -4.87022        -5.44934      -0.0214323
LJ            3.2294        -5.35045          4.9927
LJ           3.35017         4.40162        -5.09546
LJ         -0.784858        -1.22708        -6.14336
LJ          -3.19178        -2.39855         5.29407
LJ           4.85857         3.58226         -0.5072
LJ          -1.13202         5.51287        -5.11223
LJ          -4.79436         2.11842          3.9133
LJ          -5.84716        -2.04278         2.85614
LJ          -4.13771        -0.65088         6.40807
LJ           2.51699        -5.24074        -3.81004
LJ           -1.3712         1.13346        -3.58609
LJ          -3.04574         2.22483       -0.883711
LJ          -6.15764         6.12144        -2.90971
LJ          -4.45154         2.07841         4.96367
LJ           -2.5165         1.83343        -4.80474
LJ         -0.934101        -2.07878        -1.50886
LJ          -5.57131        -5.35153       -0.717037
LJ         -0.820276         2.79732         3.25121
LJ          -2.24696        0.715839         -1.0566
LJ          -1.56423         1.85505        -6.36177
LJ         -0.609374         2.26384        -2.26794
LJ           5.11872        -2.25589           5.897
LJ          -6.14259        -5.28621         1.84897
LJ           3.78477         4.13462         6.19455
LJ           5.29764        -6.34988        -2.58371
LJ           3.34732         1.24718         2.73973
LJ          -1.95859        -5.58655         5.00507
LJ          -3.41457        -4.18852       -0.542337
LJ           0.40074         3.33587         3.59844
LJ           -2.6987         1.96726        -6.02331
LJ           3.37885         2.64728         2.56874
LJ            5.4982         3.14911        -6.46321
LJ           2.23734         6.22485        -4.17402
LJ         -0.670595        -3.39402         1.07607
LJ           5.89718        -2.91892        -6.34437
LJ           5.92574         6.39458        -5.43867
LJ          -2.39402         2.51535         2.16659
LJ           2.96935        0.769593       -0.668016
LJ            5.8943        -4.92863         -1.0964
LJ           2.33115        0.608955         4.81576
LJ          -3.54644       -0.803057        -2.77788
LJ          -1.92205        -6.23355        -4.25472
LJ          -4.33729         1.30746       -0.599412
LJ          0.603779         3.93502        -6.26974
