108
#Comment!
LJ           4.47132       -0.757473         3.94529
LJ           4.13402        -5.55269        -1.29086
LJ          -4.09371         2.34126        0.817925
LJ         0.0467253        0.711083         3.34751
LJ           4.53645         5.98071        -3.75835
LJ          -2.26322        -1.06316         3.17517
LJ            2.4852          3.9592        -5.47194
LJ           4.31824        -4.56442         5.54828
LJ          -2.98195         3.64328         5.55872
LJ           5.94911        -6.42777        -4.36642
LJ          -4.19321        -1.04587         5.05865
LJ          0.371891         -2.9233        -3.64052
LJ           3.83228        -4.99954        -3.06724
LJ          -2.31006         5.37506         5.74092
LJ           -2.8841        -2.33434          2.9342
LJ          -4.11453         3.35996        -6.08367
LJ           1.49546         3.15519        -3.47035
LJ           3.06897        -2.51815         -4.3194
LJ          0.224749        -5.89603         3.53576
LJ           -6.1811         2.59123        -2.98591
LJ           4.44686        -3.30954         1.19774
LJ          -2.99222         1.60958        -4.59116
LJ          -1.51181        -5.69135         5.73214
LJ          -3.86633         6.06408        -4.76268
LJ        -0.0265014         4.11609         4.35972
LJ          0.743348         3.00807        -4.71567
LJ           5.24343        -2.10754        -5.70658
LJ          -2.54561         1.55989      -0.0486544
LJ           2.69067        -2.64878        -2.22186
LJ           5.14533       -0.181316          1.2581
LJ          -3.52019         3.99527        -5.12876
LJ          -2.30335        -5.47471         6.22869
LJ          -3.38918        -5.19398        0.759217
LJ          -1.16751         2.93378        -3.91249
LJ          0.648615        -1.62619         1.32974
LJ           -5.1744         3.50842         5.02102
LJ           2.14575         2.24574        -4.08498
LJ           0.73948        -6.10099        0.529826
LJ           0.86965         2.56629         4.20364
LJ           -4.9809         -4.4837          2.9506
LJ           3.23218        -5.28493        -1.73475
LJ           1.14006        -5.71968       -0.426928
LJ           4.64762         4.70143        -2.94324
LJ           3.75732         4.00943        -5.79008
LJ          -4.26536         2.19392         6.15582
LJ         -0.777942        -1.66815         6.32381
LJ           5.12059        0.566849        -2.34357
LJ            3.1238        -5.56638         3.85016
LJ          -2.00641        0.485117        -2.40245
LJ           4.60755        0.888294         3.77636
LJ          -6.41854        -1.45745        -6.13698
LJ           3.84143         1.43302         6.46326
LJ          -3.06619        -4.84958        -5.44232
LJ           6.20223         1.33997        -2.44796
LJ           3.96058        -5.01192         2.63807
LJ           2.52773         1.63331        -6.32257
LJ            3.7903         0.56052         2.24922
LJ           -1.9211        -5.72634        -2.27381
LJ           1.05988         4.06291         3.70443
LJ          -2.27119        -4.34645        -6.43587
LJ          -6.23207         3.88131         4.02259
LJ           1.33724         4.90556         5.43171
LJ          -4.16477        -5.74475          3.7452
LJ          -3.25746        0.556654        -2.76796
LJ           5.99972         5.80364         4.10798
LJ          0.749646         4.82121         4.57015
LJ           4.98865         6.30396         4.04831
LJ           1.54113         5.88614        -1.02227
LJ           5.81376        -3.99587        -4.25294
LJ           -6.1028        -3.24028         2.23589
LJ         -0.127516         1.06874         2.05898
LJ           -3.3877        0.624425         4.62904
LJ          -3.45199        0.464932         -6.4009
LJ          -3.67063          2.1862         5.06021
LJ          -5.50896        0.484514         1.19356
LJ          -5.03966         4.09509        -6.07343
LJ           6.46096         5.11537        -3.40957
LJ           5.61975         4.29272        -4.38037
LJ          -5.84514         2.18389        0.634174
LJ          -1.76608         6.10445        -2.53298
LJ          -3.47705        -1.74977         4.22371
LJ           5.97165        -2.01299        -4.40092
LJ          -4.74674        -4.82423        0.803992
LJ         -0.927521         5.57327      -0.0381639
LJ           2.73605         5.86417       -0.790009
LJ           4.68643        -2.28034        -4.83626
LJ           1.64863        -4.95315         2.04079
LJ           4.95522        -2.40768        -3.84698
LJ           5.94922          3.3383        -2.38899
LJ        -0.0752678        -4.72673        -3.71739
LJ           1.20105        -5.69638         4.43426
LJ           1.19481       -0.437198         1.21598
LJ           2.17748         5.06686         4.25711
LJ           -4.6864        0.269885         2.04869
LJ         -0.054423         2.20909        -6.00793
LJ          -4.72472        -3.62734         3.74922
LJ            6.2539         -1.7735        0.156924
LJ          -4.08502         3.62259         2.58503
LJ          -1.74334        -2.65662         5.47643
LJ           4.46459        -6.38638        -1.67026
LJ          -3.01147         6.18662        -2.06236
LJ           1.21391         3.87339        -4.68452
LJ          -2.76543       -0.337808         4.28199
LJ          -1.84062         1.91628         1.30163
LJ          -5.28342        -1.02873         2.67247
LJ           1.04837        -4.33223        0.270516
LJ          -4.00492         6.23135          -1.275
LJ          -2.95999        -4.32258         1.70001
