108
#Comment!
LJ          -4.81176         3.21135        -3.83392
LJ         -0.524344        -5.98965         2.29343
LJ          -3.37331         2.07924         2.89398
LJ           1.28679        -2.86531         1.07063
LJ          -3.97443        -2.26364       -0.315865
LJ          -2.31686        0.529895        -3.45932
LJ           3.26939        -5.62604        -4.53203
LJ          -5.43607        -2.07925          1.8067
LJ           -3.7819         6.43287         1.06558
LJ           5.46232         4.54506         5.69668
LJ          -5.72348        -4.94238         1.18969
LJ            5.3812        -3.08843        -5.19889
LJ           6.04677        -1.61894         4.22872
LJ         -0.282101        0.834182         5.55438
LJ           0.79358        0.164749        -4.03537
LJ           5.67188         3.77212        0.330827
LJ           5.27356          5.1112        -4.12113
LJ           5.18058         5.80967         1.01686
LJ          -1.43714        0.607698       0.0605894
LJ          -5.31858         1.66651        -1.23996
LJ          -1.51305         3.44749         5.02473
LJ           1.95971         1.64819          2.4803
LJ           5.98528        -4.29535        -3.18488
LJ          0.117066        -1.83162         2.31015
LJ           -5.2153        -3.93013         2.97623
LJ          -1.38477        -5.88414        -1.39851
LJ          -6.22006         3.71223      -0.0249996
LJ          -4.11497         5.68363        -5.59894
LJ          0.501121         4.54978        0.806548
LJ           2.58807       -0.793556        0.215121
LJ          -5.96431        -1.99442        -2.48029
LJ           3.45055       -0.536077        -1.62019
LJ           5.09996      -0.0334932        -2.13133
LJ           3.14469        -4.95588        -3.33515
LJ           5.96288       -0.512584         4.96007
LJ          -1.57103         5.50023       -0.111636
LJ          -5.07661         6.33025         5.93183
LJ           6.15278         2.70822         6.03513
LJ           2.51279         3.24809         3.44939
LJ          -2.14746        -3.85202        -2.83898
LJ           2.82151        -2.44948          2.7852
LJ           3.18471        -4.61142         1.16755
LJ           1.68242         1.70316            5.56
LJ           5.04471        0.835688         2.99207
LJ          -4.57745       -0.427558         5.14718
LJ           4.42549         4.51932         1.08695
LJ          -2.71142         5.53924         3.64976
LJ          -5.66574        -5.50143         -2.3412
LJ           3.09243        -2.82441          4.1568
LJ           4.27285         5.66845         -5.2215
LJ           3.75728        -4.00235         6.07444
LJ            3.3655         1.08105         1.82696
LJ           6.35039         3.60471         2.39135
LJ          -6.11948        -4.32158         2.18598
LJ           1.88688       0.0187395        -2.56834
LJ           2.98217        0.167603         3.72254
LJ           1.60445       -0.924812        -2.46737
LJ           4.38412        -4.74366        0.278085
LJ           3.76725        -5.77354        -1.22958
LJ           2.33788        -5.57014        -5.23191
LJ          -4.22264        0.332515        -5.62181
LJ            2.2148         6.31099         5.58134
LJ          0.828167        -5.24735         2.49829
LJ         -0.732322        -4.19157        -2.73609
LJ          -2.46743         4.43761        -1.34693
LJ           3.97138        -3.46238        -5.37785
LJ           5.51011        0.359829        -6.32836
LJ           5.85589        -2.29159        -5.93413
LJ         -0.051295         1.46894         0.57855
LJ         -0.386608        0.712451         3.24824
LJ          0.970549        -3.96421        0.713775
LJ           5.77664        0.242272         -1.3592
LJ           2.54541         4.78931         4.70965
LJ         -0.024361         3.63732         1.09156
LJ           4.31383          5.1676        -1.51331
LJ          -4.60251         2.65952       -0.319298
LJ          -5.24535        -5.79583        -4.71162
LJ          -3.47328         4.75805        0.162805
LJ          -3.48973       -0.836874        -3.68172
LJ          -2.76917        -1.72856         0.21155
LJ            3.7144         2.86785        -4.29395
LJ          -1.72621        -1.67327        -6.33236
LJ           2.95619          3.7151      -0.0673846
LJ          -4.44698         3.17937         2.99982
LJ          -1.50752        -5.73666       -0.435143
LJ          -4.77191          -3.619         1.33973
LJ           2.18234         1.30848         4.19409
LJ           1.35925        -0.19688         -6.3828
LJ          -4.74598       0.0538525        -4.26589
LJ          -4.59458        -5.29411         4.00941
LJ            1.4402       -0.735006        0.658044
LJ          -1.13184        -1.18375         0.25574
LJ          -5.15086         5.74955        -5.77046
LJ          0.501125         6.29295         -3.3973
LJ           6.25759         3.10856         1.13222
LJ          -5.51614         4.83579        -1.15144
LJ          -5.12532         -1.0806        -2.25682
LJ           4.48072          5.8718         3.32647
LJ           4.56349         5.20615           1.955
LJ          -5.43593         3.24664        -5.75763
LJ           2.70511        0.520968         2.81653
LJ          -1.36349         5.65734         3.47442
LJ           4.90109       -0.276083         5.81817
LJ          -3.80486        -2.74261         5.57738
LJ          0.469613        -2.26128        -1.46698
LJ          -6.15417        -4.45204         3.62205
LJ          -1.50303        -3.15565        -3.17505
LJ          -5.22381        -3.66296        -5.72913
