108
#Comment!
LJ           1.19262        -4.94868       -0.881853
LJ          -2.58513       -0.584682        -1.10886
LJ          -3.05396        -6.18415          4.3334
LJ          -5.63781        -4.87968        -5.77937
LJ          -1.92346         6.38612        -3.06306
LJ          -4.21759       -0.723475          2.3165
LJ           -6.4316        -2.71409        -4.19233
LJ           2.73133         3.13976       0.0464168
LJ          -2.45373        0.167644         1.53531
LJ           1.64242         2.87882         0.66692
LJ         -0.268362        -3.54293         6.22663
LJ           6.00149        0.202848         3.10041
LJ          -5.61204         5.79201         2.54019
LJ          -3.26327        -1.91037        -6.03315
LJ          -2.43818         4.99685         2.75267
LJ           6.19916       -0.659113         6.32274
LJ          0.646211        -3.54416        0.622057
LJ           2.79796         2.16037         1.60368
LJ           4.15665        -6.44095        0.466836
LJ           6.45544        -4.33932        -3.82991
LJ           -1.7193         4.38814        -6.02506
LJ           1.34705        -1.04347        -0.70989
LJ          -3.32879       -0.420551         1.11705
LJ          -4.83174       -0.602459        -4.53754
LJ          0.203212        0.722431        0.160503
LJ           6.21994         1.33634          2.8109
LJ           2.68511         1.31064       -0.305557
LJ          -2.51812         -2.5085        -5.72039
LJ         -0.849234        -1.43329        -4.25184
LJ           5.41974           4.012        -4.49748
LJ        -0.0360773        -2.32042        0.216968
LJ          -2.93066          3.3245         4.31111
LJ           3.47346         5.43275         5.83855
LJ           5.70897        -5.47836         5.65768
LJ           0.69815         3.83655         3.86432
LJ           3.11554         0.29885         5.28442
LJ          -1.32423       -0.369812        -3.07326
LJ          -4.11141        -1.33592        0.980842
LJ          -3.38888        -6.08522        -2.55393
LJ           2.84378         3.01231         2.24654
LJ          -4.40261         5.11351        -4.96892
LJ           1.78811        -5.43114        -4.96888
LJ          -3.98898        -1.47036        -4.61691
LJ           1.71915         2.71421         1.91854
LJ           4.13818         1.60583        -2.10381
LJ           1.09276         6.29258          5.2018
LJ           3.43981        -2.62775        -1.03127
LJ          -1.48949        -5.75564         -2.3935
LJ           1.72971          3.8706        -2.16749
LJ           0.22851        -5.84489         4.72883
LJ           2.41013         4.75891        -5.23554
LJ          -1.62638        -3.24849        -6.05698
LJ            6.2616        -2.03258       -0.960925
LJ           -3.2476       -0.963665        -5.27879
LJ          -1.10345       -0.217445        -4.77054
LJ          -1.64296            2.23         4.76211
LJ          -1.49192         2.19186        -3.17019
LJ           -3.8996         2.37702         5.64624
LJ          -3.89743         2.93619         4.38157
LJ          -3.47333         4.99576        -2.07957
LJ          -3.09586        -4.06116         2.28356
LJ           3.70618        -3.85088        -3.10463
LJ            4.3703         5.16903         -5.7167
LJ          -3.45736       -0.742527         5.24908
LJ          -3.64432        -1.29382         4.19038
LJ          -2.03783        -1.00536        -2.32481
LJ             0.426        -1.75095         2.25419
LJ          -2.87076        0.656387        0.411484
LJ          -2.20468       -0.984969         1.09918
LJ           -1.9295        -5.54987        0.852937
LJ          -4.12212          4.5931         3.95661
LJ           4.33376         3.21977        -3.97725
LJ           1.33379         3.65049         2.65053
LJ            2.6641        -6.33111        -3.96475
LJ           4.39397        -4.43765         1.22663
LJ          0.919651         4.95375        -5.06736
LJ          -4.25534         6.06553        -4.69643
LJ          -1.04548         5.27885        0.067968
LJ         -0.828384         4.16124         2.81823
LJ           1.40988         5.13393       -0.422249
LJ           3.22587        -3.22501        -1.75527
LJ          -3.63423        -3.87957        -2.80368
LJ          -4.34411         6.12049       -0.670293
LJ          0.233678         1.08762        -0.90201
LJ          -1.54009        -1.73806         5.60739
LJ           -3.2936         3.30392        -2.36276
LJ          -2.79616         2.44727        -5.89181
LJ           1.50369         3.77965         6.25037
LJ           5.14223       -0.618013        -2.72615
LJ           5.81333         5.72421        -5.32098
LJ           5.67939        0.944093          5.1073
LJ           1.14385         -2.3532       -0.301847
LJ          -5.39483         3.88134        -1.83537
LJ          -5.88345         1.77671        -4.65343
LJ          -4.49499          4.0038        -6.17942
LJ           4.06692        -1.42784         1.44974
LJ           5.96826        -4.25649        -5.18095
LJ          -2.45955         6.21506          -4.127
LJ          -3.91247        -5.20537        -2.41125
LJ          -3.80486        -3.35077        0.306889
LJ          -2.50627          4.9779        -3.78326
LJ           4.53862         4.33754        -6.28506
LJ          -3.46353         1.56332        -5.46207
LJ            5.2966         1.89989         4.72699
LJ          -3.56834        -5.92379         1.55083
LJ          -1.04685        -5.09738        0.159314
LJ         -0.964334        -4.10064      -0.0603115
LJ           3.88046         5.73219        -3.69719
