108
#Comment!
LJ           5.35087        -3.17417         4.91358
LJ           5.51569        -5.71947        -4.74173
LJ          -1.29151        -0.48445         1.92388
LJ           1.31509       -0.222521          3.3974
LJ           3.20811        0.907382         3.94091
LJ          -1.28555        0.337684         2.67869
LJ          -2.52562        -6.15663        -4.22966
LJ           4.46845         5.87337        -3.91104
LJ          -1.63592         3.36282         4.70514
LJ           1.49101        -5.63924         6.32114
LJ           -5.5587         2.46888        -5.27638
LJ       -0.00183747        -3.15027        -5.75582
LJ           2.25463         4.49416        -4.83314
LJ         -0.659934        -4.38969         1.53026
LJ          -1.22845         1.20588         1.07447
LJ          -6.02786         3.87769         4.61221
LJ         -0.694791         3.71234        -3.99062
LJ          -1.39987        -3.55168        -5.96869
LJ         -0.806619       -0.726168         4.02023
LJ            4.3076         2.92425         4.28512
LJ           3.46704         5.53274         1.53214
LJ         -0.604149         2.92933        -5.40482
LJ           4.89602        -4.33123        -5.45643
LJ          0.757653        -4.55765         4.56473
LJ          -1.05473         5.51013         5.34629
LJ              0.85         2.90476        -1.26655
LJ          -5.22767        -3.48236         6.17553
LJ          -1.68541         5.13911       -0.801967
LJ          -4.84116         6.22213        -1.60247
LJ          -2.10032        -4.07035        -1.60269
LJ         -0.529701         2.74489        -1.01881
LJ            -5.057         5.89974         3.62915
LJ          -2.59024        -5.89775        0.392524
LJ          -4.50884        -4.37711        -6.37248
LJ           1.44199         3.90438        -2.24454
LJ           3.31885         5.55202         2.51547
LJ           2.67953         5.61872        -4.83802
LJ           1.11208        -4.84848        0.797062
LJ          -2.07639        -2.19424         5.59006
LJ          -5.61097        -1.88386          4.1089
LJ          0.506663        -3.27285        0.181663
LJ           1.80873         -4.7154         1.92308
LJ          -6.28041         3.61065        -5.02201
LJ         -0.236757         6.15612         2.51405
LJ          -2.30321         2.34726          6.4182
LJ          -1.96986        0.447419         1.25172
LJ           3.00655        -4.86883        0.601916
LJ             -3.64          6.0342         5.69386
LJ          0.899616         -2.5985        -4.69757
LJ           3.73452         5.08996         -3.0686
LJ          -4.01787        -3.17804        -5.76965
LJ           4.42309       -0.705264         1.99879
LJ          -3.20061        -1.61681         3.68884
LJ          -2.45456         3.85284       0.0466313
LJ           4.74805        -5.72273        -5.58747
LJ          -1.94827        -1.26063          2.9899
LJ           5.10531       -0.286779        -3.37339
LJ          -1.08264         -4.0796        -3.80477
LJ          -3.48266         4.30162        -5.84088
LJ          -3.48299         1.15361        -5.04688
LJ          -4.63525       -0.490302         3.31801
LJ          0.598758         2.21074        -5.72538
LJ          -3.46647        -6.07326        -6.08401
LJ          -1.84404       -0.750282        -5.24704
LJ           6.25301        -2.45814        -4.78818
LJ          -3.21063         5.57811        -6.11348
LJ           3.00643         4.30006         1.44635
LJ           1.96108         4.56493         5.87189
LJ           5.44491        -1.74946         -6.1528
LJ           2.75459       -0.102071         -5.9227
LJ          0.399933        -0.68458         4.26002
LJ          -0.11096         1.35044         2.66818
LJ          -4.41889        -6.38722        -4.75308
LJ           5.89785         2.21099        -2.34057
LJ           2.95142        0.673109         5.84798
LJ           5.76033         4.03503          4.6052
LJ          -4.02704        -5.46193        -2.09251
LJ          -5.31573         4.87109        -4.88008
LJ           4.06916         2.84796        -2.22537
LJ          -1.42034        -4.67403        -2.91933
LJ         -0.986262        -2.14747        -5.01067
LJ          0.659283        0.632299          6.3038
LJ          0.487059        -4.19489         2.34245
LJ          -3.18516        -4.56266         2.47766
LJ           4.79407        0.544288        -2.53294
LJ          0.498907        -1.00142        -6.23748
LJ           3.33422         -4.3039         4.88715
LJ           5.36658        -6.25615        -3.27839
LJ           5.12334          3.1222        -4.83814
LJ           4.25988        -6.14765        -4.39833
LJ           1.44259         -3.4941        0.818762
LJ           1.04512         -1.4173        0.978474
LJ           5.45763        -4.33565         5.46192
LJ            3.6741       -0.425593         5.36303
LJ          -2.16951       0.0723689        -3.91901
LJ          -4.57822        -1.51917          4.0354
LJ          -4.87738        -5.08063        -1.02454
LJ          -4.11836        -2.75659         3.54409
LJ           -4.7192        -4.24736        -5.12131
LJ           4.47311          2.0754         3.69129
LJ          -3.29406        0.365383        0.805133
LJ          -0.47377         1.66693        -4.88152
LJ         -0.402052       -0.369996        0.420503
LJ          -1.47295         2.20906         1.73698
LJ           6.05811       -0.124578         5.15029
LJ            0.3797         5.89475         0.98608
LJ          -4.51458         3.15241         1.58097
LJ            5.9889        -3.50442        -4.26776
