108
#Comment!
LJ          -3.94285         4.12393        -4.91503
LJ         -0.470672         5.97511         1.26623
LJ           -3.8516         1.98209         3.08161
LJ          0.310143        -2.07218        0.781607
LJ          -4.30067        -1.56661       -0.446741
LJ          -3.17345         1.06926        -5.04893
LJ           2.69642         -6.0572         -4.7054
LJ          -4.76784        -1.12889        0.736071
LJ          -4.93472        -6.44655         1.52482
LJ           5.73736         3.78883         5.72375
LJ          -5.97268        -3.45416       0.0774006
LJ           4.60891        -3.03211        -4.61627
LJ          -4.99237        -1.24807         5.00676
LJ          0.112812        0.545686         4.68118
LJ           2.05081         1.20532        -4.91946
LJ           5.99964          4.0647        0.987536
LJ           6.04675         4.01314        -3.94637
LJ          -6.31994         6.21648       0.0910244
LJ          -1.29293          1.2593        0.712583
LJ          -4.38728          2.4378        -1.68803
LJ          -1.33318         3.83251         5.58715
LJ           1.25983         2.31277         2.59576
LJ            5.4649        -4.22074        -1.79486
LJ         -0.746469        -2.52699          3.6184
LJ          -6.04624        -3.70615         2.79631
LJ          -1.96429         -4.5475        -2.30409
LJ           6.27228         4.86973       -0.437612
LJ           -3.0594         5.25558        -6.28163
LJ           1.89301         4.68767         0.43669
LJ           1.43309        -1.83256        0.269877
LJ           6.19341        -2.27956        -2.68994
LJ           3.22103       -0.169637         -1.3204
LJ           6.01554       0.0548694          -2.685
LJ           3.15979        -5.09844        -3.64034
LJ           6.15174       -0.564676          3.8759
LJ          -1.84777         5.56559       -0.449663
LJ          -4.47007         5.55227         5.34157
LJ           5.37516         2.99952          6.3346
LJ           2.49379         3.70915         3.40088
LJ          -2.01383        -4.56124        -3.33615
LJ           3.10414        -1.60876         2.63638
LJ           1.53245        -4.85921         1.77185
LJ           2.36602        0.668522        -5.71217
LJ           4.87601        0.355219         4.61285
LJ          -4.19773        -1.59882         4.24796
LJ           4.39245            3.27        0.842825
LJ          -3.49039         3.98609         2.60125
LJ          -5.48934        -5.75435        -1.84026
LJ           2.74386        -2.52271         3.50689
LJ           4.63155         4.99439        -4.67484
LJ           3.54834        -4.14199         6.23762
LJ           2.15407      0.00248282          2.5733
LJ          -5.60346          2.8282         2.13867
LJ          -5.94682        -5.31907         1.22528
LJ           1.25355         1.41974        -2.85209
LJ           4.01645        0.071223         3.59559
LJ           1.64347       -0.764978        -1.60212
LJ           4.67413        -4.88271        0.297702
LJ           4.48513        -5.60599        -0.37538
LJ           2.33933        -6.19376        -6.02319
LJ          -3.52227       -0.324843        -5.88876
LJ           1.92003        -5.75175         4.82584
LJ         -0.841441        -5.79614         1.70839
LJ         -0.670994        -4.72443        -2.71436
LJ          -2.20362          3.8346       -0.364206
LJ           4.08126        -3.02111        -5.71041
LJ           5.27148         1.36584        -6.30507
LJ           4.60919        -2.07021        -5.01591
LJ         -0.895884         1.06882         1.69597
LJ         -0.164955        0.387321         2.94333
LJ           1.58057        -4.53499       -0.396165
LJ           6.20769       0.0203015        -1.61471
LJ           2.00941         4.68998         6.12191
LJ         -0.195068         3.84878         2.22247
LJ           4.93372         4.92482        -1.73776
LJ          -5.65634         2.09338       -0.892476
LJ          -3.84073        -4.98039        -4.01317
LJ          -4.31886         4.89936         2.56418
LJ          -2.19295        0.488141        -3.62488
LJ          -3.80481        -1.30529        0.725786
LJ           4.14897         1.66753        -5.21371
LJ          -1.79604        -1.91291        -5.94287
LJ            2.9552         5.08289        -1.32904
LJ          -3.50734         3.03648         2.53604
LJ         -0.526258        -5.20898        0.931621
LJ          -4.50189        -3.89247         2.28715
LJ           2.91582         1.18154         4.96086
LJ           1.28835       -0.240012         6.40926
LJ          -4.89577       -0.567008        -4.67862
LJ           -4.7191        -4.77033         2.80828
LJ           1.19374       -0.737916         1.00407
LJ         -0.792387       -0.502156         1.16631
LJ          -4.73121          6.1026        -5.85562
LJ          0.560609         6.24559        -3.39842
LJ          -5.61396         2.07763         1.03367
LJ          -5.21584          4.6559       -0.863646
LJ          -4.02659       -0.884866        -2.09957
LJ           3.83056        -5.74696         4.93803
LJ           6.20486         5.39824        0.700097
LJ           6.41191         3.07673        -5.40428
LJ           1.15252         1.07089         2.76837
LJ          -1.50063         5.95061          4.1315
LJ           3.68188       -0.992414        -6.05445
LJ          -2.78746        -3.78327         5.94226
LJ         -0.320096        -1.36908        -2.40524
LJ            4.6026         -4.4742         3.72663
LJ          0.239797         -4.0046        -3.54886
LJ           6.11745        -3.38647        -6.45305
