108
#Comment!
LJ          -4.93966         3.08119        -3.68561
LJ         -0.504717         -5.8339         2.44471
LJ          -3.33178         2.12359         2.86856
LJ           1.43155         -2.9928         1.10047
LJ          -3.90847        -2.35108        -0.29219
LJ          -2.20918        0.412177         -3.2194
LJ           3.37031        -5.53907        -4.45493
LJ          -5.52765        -2.22668         1.95229
LJ           -3.6164         6.41611        0.998387
LJ           5.42477         4.64046         5.69884
LJ          -5.69426        -5.13946         1.41983
LJ           5.55517        -3.03557         -5.2966
LJ           5.75462        -1.60755          4.1428
LJ         -0.332738        0.874447         5.67646
LJ          0.621453       0.0139754        -3.90109
LJ           5.63315         3.73221        0.255867
LJ           5.24196         5.21796        -4.08493
LJ           4.93414         5.69059         1.20396
LJ          -1.42364        0.516644     -0.00833011
LJ          -5.45281         1.58756        -1.12191
LJ          -1.53902         3.39324         4.94326
LJ           2.09734         1.52155         2.47968
LJ           6.06352        -4.30804        -3.38245
LJ          0.244031        -1.73255         2.11782
LJ          -5.08882         -3.9625            3.04
LJ          -1.25073        -6.09281        -1.47898
LJ          -6.19862         3.52678       0.0885272
LJ          -4.13835         5.73933        -5.48844
LJ          0.425876         4.70432        0.782524
LJ           2.72775       -0.642424        0.217859
LJ          -5.83876        -1.93868         -2.4461
LJ           3.47665       -0.587815        -1.66687
LJ           4.94628      -0.0588396         -2.0523
LJ           3.14193        -4.96524        -3.33876
LJ           5.93783       -0.553738         5.11018
LJ          -1.53843         5.49071      -0.0714515
LJ          -5.16031         6.42487         6.07185
LJ           6.28394          2.7749         5.97871
LJ           2.51221         3.17525         3.45635
LJ          -2.33409        -3.87185        -2.71417
LJ            2.7892        -2.56453         2.82225
LJ           3.42867        -4.57493         1.06612
LJ           1.58355         1.83177         5.30415
LJ            5.0856        0.904061         2.77927
LJ          -4.63685       -0.265733         5.27214
LJ           4.48355         4.72242         1.11414
LJ          -2.56209         5.75364         3.79906
LJ          -5.69499        -5.46217        -2.41562
LJ           3.13306        -2.87036         4.23284
LJ           4.14113         5.81667        -5.36127
LJ           3.77402        -4.00976         6.02896
LJ            3.4712         1.23224         1.79189
LJ           6.20927         3.69183          2.3676
LJ          -6.06785        -4.13425         2.34381
LJ           2.02891      -0.0154471        -2.55421
LJ           2.81566        0.168008         3.81735
LJ           1.54637        -1.11817        -2.56966
LJ           4.32355        -4.73772        0.268688
LJ            3.6729        -5.78681        -1.33508
LJ           2.32387        -5.47877        -5.12889
LJ          -4.26191        0.444331        -5.66645
LJ           2.26094         6.17831         5.68952
LJ           1.03428        -5.18709         2.60014
LJ         -0.712959        -4.07018        -2.74353
LJ          -2.50119         4.53821        -1.47463
LJ           3.94134        -3.49933        -5.33028
LJ           5.51848        0.104299        -6.32564
LJ           5.99892        -2.38435        -6.03059
LJ         0.0400974         1.50979        0.401544
LJ         -0.413235        0.761541         3.29128
LJ          0.888918        -3.85612        0.890229
LJ           5.73414        0.283291        -1.32119
LJ           2.62118         4.81097         4.50754
LJ         -0.122994         3.43161         1.00568
LJ           4.22354         5.20381        -1.47644
LJ          -4.46045         2.71619       -0.284867
LJ           -5.4455        -5.92113         -4.8184
LJ          -3.36115         4.75636       -0.184893
LJ          -3.67869       -0.983178        -3.71147
LJ          -2.63554        -1.79729        0.139013
LJ           3.65375          3.0394        -4.16445
LJ           -1.7179        -1.63932        -6.38837
LJ           2.96262         3.52246        0.116369
LJ           -4.5565         3.17634         3.06243
LJ          -1.68226        -5.79155       -0.439112
LJ          -4.67324        -3.55082        0.976771
LJ           2.08625          1.3053         4.07216
LJ           1.37343       -0.174374        -6.36499
LJ          -4.77029        0.119747        -4.11311
LJ          -4.59744        -5.36103         4.17329
LJ           1.49131          -0.747        0.600714
LJ          -1.18624        -1.27159        0.124878
LJ          -5.34398         5.72909        -5.81901
LJ           0.49281         6.30131        -3.39701
LJ           6.09374         3.32911          1.1487
LJ          -5.54136         4.85591        -1.19322
LJ          -5.29729        -1.12268        -2.28337
LJ           4.57294         5.67844         3.08325
LJ           4.35674         5.19263         2.07482
LJ          -5.28983           3.269        -5.81194
LJ           2.94282        0.513158         2.68266
LJ          -1.37327         5.61237         3.37757
LJ           5.10831       -0.161344         5.66402
LJ          -3.95087        -2.59245         5.52628
LJ          0.589088        -2.38388        -1.33472
LJ          -6.04034        -4.53899         3.71036
LJ          -1.62547        -2.97773        -3.14118
LJ          -5.00061        -3.70091        -5.62499
