108
#Comment!
LJ          -4.69483         1.98528        -6.25717
LJ        -0.0830554          3.4087            -2.4
LJ          -4.67823         2.19218         3.06854
LJ          -1.62774         1.78204         1.01089
LJ          -6.01154         1.26832       -0.686673
LJ          -6.01024         1.44834         2.72039
LJ           1.77854         5.28018        -5.58909
LJ           4.94101          1.9608        -4.03078
LJ           4.59001        -4.93047         1.80083
LJ          -4.27743          3.7097         3.43364
LJ           5.78147         1.57685        -2.80701
LJ           1.88336       -0.199217        -4.31201
LJ          -1.91021         1.01115         6.35049
LJ            3.2188          1.6462         5.09492
LJ          0.829616         4.70256        -6.37556
LJ          -4.82293         4.76323        0.293735
LJ          -2.91131        0.772809        -2.95185
LJ          -3.28517        -6.11638         -1.6324
LJ          -3.07316        0.870946         3.23227
LJ          -3.07962         4.97422         -1.4897
LJ          0.354454         5.52929        -5.23886
LJ         -0.973464         3.56915         3.97785
LJ           3.31118        -4.14793         1.77913
LJ          -3.37325        -4.79867        -4.47682
LJ          -6.01565        -2.28466         2.20707
LJ          -1.52048         1.79337        -5.06946
LJ           3.25561        -5.81141        -3.84708
LJ          -2.45342         5.32025         3.94729
LJ           5.98862         5.95168       -0.596663
LJ          -1.77292         -1.8066        0.183635
LJ           3.52117        -3.74017        -2.29205
LJ           1.94267        0.890724       -0.352708
LJ          -3.97726         -1.3341         -3.3089
LJ            1.3723         -6.3598        -5.01138
LJ           6.25982       -0.802465        0.342529
LJ          -2.10723         4.70598       -0.265829
LJ          -2.19448         3.51452         4.83009
LJ           2.88394        -5.86616        -4.72313
LJ           2.16644         5.04781          3.1491
LJ          -1.23371         6.24498         6.40224
LJ           4.03412      -0.0938158         2.68763
LJ          0.459396        -5.95507          3.7349
LJ           4.49469       -0.378467        -2.74831
LJ           4.35221         -2.2895        -2.16387
LJ          -2.40118        -4.81349       -0.715513
LJ           5.29746       -0.693771       0.0247568
LJ           6.17667         3.01371         1.72072
LJ          -5.17047        -5.82226        -1.84766
LJ           3.59138        0.381552         1.75295
LJ           5.37882         3.26556        -2.28831
LJ           1.48757        0.904671        -3.93342
LJ          -3.96492         -2.1222           4.317
LJ          -2.79525          1.0584        0.368999
LJ           -5.0441         3.72351        0.279089
LJ         -0.518972        -5.47991        -1.04498
LJ            4.2365       -0.919691         1.89033
LJ           1.31216      0.00220469         1.21359
LJ           5.85853        -5.36012         3.37393
LJ          -5.71306          5.5774        0.615639
LJ           2.35776         4.55067        -6.37072
LJ          0.858223        -3.55838        -4.59753
LJ          -2.33609        -2.31225        -4.55773
LJ          -2.74147         2.61256        0.364577
LJ           -1.0385        -4.44408        -3.01984
LJ          -1.32771         4.57496         2.05463
LJ           5.55885        -2.44503        -4.14778
LJ          -5.82229          1.2461         5.16217
LJ            2.2744        -3.17899        -3.35429
LJ          -1.52235        -1.99439         3.46863
LJ         -0.860566      -0.0751809        0.821417
LJ           4.57378          6.2921        -4.79133
LJ          -5.96115         1.33715        -3.10968
LJ            1.3969         5.44523        -3.19593
LJ          -0.37068          3.0902         5.03168
LJ          -4.74737          5.6189        -1.38425
LJ           6.10636        -1.43134        -3.32127
LJ          0.104652        -4.51604        -2.44733
LJ           4.86062         6.05496        -3.00456
LJ          0.619201         3.87459        -5.38215
LJ          -3.84919        -2.29348       -0.439381
LJ           1.71017        -3.13215         -4.7996
LJ          -1.35558        -1.49024        -5.57148
LJ             4.848        -2.74408        -3.20646
LJ          0.118048        -2.36735          3.4848
LJ            -1.273        -5.25581        0.361786
LJ          -1.63606       -0.938878         2.24586
LJ           6.14307     -0.00652608        -4.70272
LJ           1.89912        0.212716         6.30906
LJ          -5.82181        -2.76721         -4.9769
LJ            5.5121         -4.5458        0.824637
LJ         -0.961449        -1.98347         1.51466
LJ         -0.548298        0.640204         3.35127
LJ          -3.44163        -5.05066        -6.44426
LJ           2.12518        -6.46179         -4.0064
LJ          -2.25794        -1.11581        0.702714
LJ          -2.93786         3.94767        -1.85037
LJ         -0.525032       -0.422941        -1.11251
LJ           2.71414         5.62672         6.01448
LJ          -3.29316         -5.0058        -1.44512
LJ           5.56527          2.8573        -3.74785
LJ         -0.385422         1.42349         4.10666
LJ          -2.03453         5.61806         2.77767
LJ         -0.225428        -4.93205        -4.28538
LJ         0.0603614         5.99784        -6.18455
LJ          -2.52873         1.26496         -5.3947
LJ           1.86403        -3.15371         3.47377
LJ            1.6425         4.03399        -5.85661
LJ           0.29058        -1.02896         6.19488
