108
#Comment!
LJ          -0.73751       -0.184753        -1.85849
LJ          -2.37465       -0.768918        0.109787
LJ          -5.33401        -2.89791         4.44048
LJ           -5.7573        -6.17035        -4.68992
LJ          -5.18819        -6.21318        -3.14293
LJ          -2.91577        -3.02621         4.95242
LJ          -5.12096        -5.21022        -3.65627
LJ           3.80845         5.64112       -0.559881
LJ           3.79491        -1.32644         2.51667
LJ           2.48164          2.7137         2.02089
LJ          -1.28867        -2.17466         2.93473
LJ             3.532         1.28899         2.98775
LJ           4.22665         5.10287          1.3174
LJ          -1.55527        -2.21819         6.31406
LJ           6.37372         3.88892         4.25265
LJ          -5.71859        -1.83442        -5.94433
LJ          -1.19877        -6.39606        0.226796
LJ           2.25025           1.762         1.52858
LJ           3.87378        -3.84842         3.76637
LJ          -6.35439        -6.09726        -3.79814
LJ         -0.801681         1.06903        -5.70178
LJ           1.75115         2.10018        0.542929
LJ         -0.703956         1.49731        -2.06368
LJ          -4.59254        0.684256         6.21641
LJ           1.34762       -0.661462        -3.70381
LJ           5.76283        -1.61854         1.10468
LJ           2.47193      -0.0960332       -0.295514
LJ          -5.23738        0.584986       -0.616709
LJ           1.03611         4.32853        -1.16998
LJ           3.01977         1.69436        -5.49095
LJ           1.40615        -4.99814         2.02082
LJ          -1.90693         5.97768          -4.454
LJ           6.20621        -5.10728        -5.18498
LJ           2.25297        -3.47894         3.71618
LJ          -3.26381         4.47199          5.4859
LJ           3.27252         3.88818         6.16518
LJ           1.16316       -0.205766        -2.02007
LJ           4.97846        0.110158        0.079426
LJ          -4.83757          3.3707        -4.12489
LJ           2.65826         2.54013         4.03058
LJ          -2.24953         2.43556         4.74896
LJ           1.23565         4.93409        -2.78787
LJ          -3.58048        -3.99988         5.16838
LJ           3.05005         2.07802         2.73714
LJ           2.84127        0.674398        -2.19328
LJ           3.29278         5.73016         4.85346
LJ           1.73693         -1.8555         2.04025
LJ         -0.703738         4.29078        -2.55248
LJ           1.49724         5.17482          1.4747
LJ          0.819379         6.37686         6.38956
LJ            3.4266         1.66217        -4.44785
LJ         -0.379691        -4.47309          3.9694
LJ          -3.83416         3.97961        -3.08013
LJ          -3.72413        -2.45112        -5.96198
LJ          -1.92092         1.54651        -4.20291
LJ          0.142014         3.93229         6.16461
LJ          -1.32477         2.38653        -6.18219
LJ           5.49936         0.92579         5.43894
LJ          -4.71758        -6.38531          4.6651
LJ           -5.4353         -5.8451         3.31199
LJ          0.521622        0.618457        0.370398
LJ           3.74612        0.379614        -4.05562
LJ           6.22523        -4.22392         5.11189
LJ            -4.735       0.0267627         5.49056
LJ          -4.84039        0.506776         2.50281
LJ          -3.32903       -0.118875        0.186072
LJ          -1.39008        -2.35128        -2.45415
LJ         -0.764414         1.00764        -1.11229
LJ          -4.27156        -1.30463        0.056798
LJ            1.4694         2.99031        0.450125
LJ          -4.16748         3.89073         5.18784
LJ            5.1178         1.98187        -4.07451
LJ           2.72157        -6.09085         2.26688
LJ         0.0814901        -4.56246        -6.09419
LJ          -4.33256         4.81508        -1.40074
LJ           1.88635         5.59849         3.93746
LJ          -4.51024         5.63913        -5.76801
LJ         -0.560001        -5.33826         -1.4517
LJ            1.6778       -0.939325        0.787789
LJ           2.14349        -5.82372         1.49022
LJ         -0.422024        -4.81701        -3.54885
LJ           6.45333        -4.69059        -3.76529
LJ          -2.19727         3.35774        -2.07412
LJ          0.873974        0.564928        -4.18001
LJ          0.755435        -2.90165         3.96068
LJ           -3.4124        0.908536         1.55128
LJ          -3.82088         1.50936        -5.87584
LJ           1.62152         3.22272         6.23574
LJ            3.1059        -1.69713        -2.16541
LJ          -5.77299        -4.04624        -5.08405
LJ           2.57512         1.20271         4.74663
LJ           2.49345        -4.33989         2.73948
LJ           3.03607        -4.47285        -2.44718
LJ          -4.01295        0.457094        -3.89448
LJ           2.02956         1.41078        -2.43804
LJ           3.24528        0.733892          1.0594
LJ           -4.7931        -2.50486        -5.33113
LJ          -5.03838          3.9983        -3.16006
LJ          -1.56132         -6.0424        -1.22387
LJ          -3.79858        -1.31001          6.2825
LJ          -1.50685         2.63337        -5.10053
LJ          -5.66086         2.82775         4.27389
LJ          -6.07884      -0.0782463        -5.99716
LJ            5.5157         1.52985         4.08783
LJ          -1.89791         2.28101         2.07712
LJ          0.468253        -5.83301        -1.56336
LJ           2.79061        -1.50906        0.984175
LJ           4.47854         5.14056         -2.9218
