108
#Comment!
LJ           4.42691       -0.694923         3.91516
LJ           4.12698         -5.3905        -1.04412
LJ          -4.17001         2.44589        0.771188
LJ          0.140197        0.533874         3.33335
LJ           4.58354         5.97623        -3.57898
LJ          -2.25832        -1.09185            3.17
LJ           2.63496         3.90373        -5.54161
LJ           4.41363        -4.41195         5.36744
LJ          -3.12799         3.68266         5.40802
LJ           6.09632         -6.4572        -4.26465
LJ          -4.11925        -1.17678         4.91188
LJ          0.374146        -2.97595        -3.56874
LJ           3.84612        -4.75442        -2.90531
LJ          -2.49881         5.18574         5.82815
LJ          -2.89886        -2.35851         3.11718
LJ          -4.08838         3.34391        -5.96668
LJ            1.7107         3.05243        -3.44755
LJ           3.20987        -2.45539        -4.24444
LJ          0.298743        -6.07619         3.52836
LJ          -6.16097         2.61288        -2.73271
LJ            4.3963        -2.96529         1.05605
LJ          -3.11196         1.48136        -4.50565
LJ            -1.456        -5.67933         5.61441
LJ          -4.04346         5.97383        -4.72272
LJ         0.0594548         4.04857         4.12127
LJ          0.862064          2.8644        -4.74023
LJ           5.26895        -1.94108         -5.5863
LJ          -2.63132         1.43243      -0.0599226
LJ           2.51342        -2.53367         -2.2367
LJ            4.9542      -0.0680316         1.35369
LJ          -3.62622         4.05725        -5.25774
LJ          -2.27569        -5.22818         6.44206
LJ          -3.41675        -5.08769        0.818098
LJ          -1.06274         2.70223        -3.87516
LJ          0.680102        -1.75187          1.5277
LJ          -4.98568         3.44393         5.10253
LJ           2.11132         2.17109        -3.96079
LJ          0.643282        -6.09595         0.46885
LJ          0.930039         2.74445         4.12871
LJ          -4.90923        -4.60752         2.90757
LJ           3.20056        -5.32818        -1.86597
LJ           1.13781        -5.74378       -0.424941
LJ           4.54314         4.64089        -2.91665
LJ           3.85033         3.90768        -5.59564
LJ          -4.23862         2.14167         6.17269
LJ         -0.721213        -1.75476         6.42384
LJ           5.33872        0.321368        -2.33161
LJ           3.18745        -5.52022         3.73569
LJ          -2.00889        0.540568        -2.27745
LJ           4.61341        0.684064         3.97846
LJ          -6.30122        -1.44189        -6.18133
LJ           3.90667         1.46305        -6.34301
LJ          -3.04371         -5.0261        -5.46207
LJ           6.03056           1.282        -2.54655
LJ           3.88233        -4.97565         2.59132
LJ           2.19058         1.74727         6.33246
LJ           3.75625        0.668657         2.02474
LJ          -1.96702        -5.77954        -2.21055
LJ            1.1598         4.04377         3.69961
LJ          -2.32606        -4.15452        -6.44671
LJ          -6.14751         3.82846         4.15213
LJ           1.42599         5.02808         5.34971
LJ          -4.29532        -5.68361         3.63314
LJ          -3.38519        0.626116        -2.71112
LJ           5.93291         5.67305         3.95577
LJ          0.618128         4.76999         4.65447
LJ           4.92747         6.17189         3.91477
LJ           1.42151         6.06815         -1.2422
LJ            5.8367        -3.88664        -3.96205
LJ          -5.89741        -3.29381         2.05563
LJ         -0.184111         1.16027         2.07126
LJ          -3.63929        0.561145         4.76183
LJ          -3.35792        0.278619         6.38318
LJ          -3.79284         2.25101         4.93099
LJ          -5.42276         0.45283         1.05253
LJ          -4.87118         4.04089        -6.01394
LJ           6.40579         5.03592        -3.46727
LJ           5.55707         4.34336        -4.36966
LJ          -5.74121         2.15743        0.730879
LJ          -1.81094         6.00876        -2.51825
LJ          -3.63045        -1.86347         4.32595
LJ           6.15125        -2.10905        -4.47108
LJ          -4.88408        -4.82784        0.717981
LJ         -0.912507         5.75223        -0.20883
LJ           2.82336         6.05266       -0.763236
LJ           4.55581        -2.34122        -4.84519
LJ           1.56488        -5.03617         1.95816
LJ           4.96969        -2.35751        -3.63186
LJ           6.01207         3.29094         -2.3516
LJ         -0.246269        -4.64588        -3.68335
LJ          0.937152        -5.72797         4.51505
LJ           1.13926       -0.467558          1.1586
LJ           2.34763         4.96886         4.21816
LJ          -4.52735        0.298041         1.93252
LJ       -0.00832798         2.34635        -6.06119
LJ          -4.74955         -3.7206         3.65218
LJ           6.19456        -1.64261        0.211077
LJ          -4.12477         3.89539         2.48005
LJ          -1.60601        -2.55986         5.45824
LJ           4.56828        -6.36413        -1.49952
LJ          -2.89274         6.39813        -2.21622
LJ           1.19656         3.97187         -4.8056
LJ          -2.82343       -0.446977         4.26967
LJ          -1.85078         1.84707         1.33144
LJ          -5.22281       -0.968783         2.56547
LJ            1.1734         -4.3169        0.202228
LJ          -4.03316         6.33909        -1.33075
LJ          -2.86878        -4.46366         1.89179
