108
#Comment!
LJ           1.64527         3.35906         1.01822
LJ          0.108278        -3.63777        -1.87058
LJ          -1.11813         3.66283         2.24924
LJ           4.70453        -4.83511         6.34892
LJ          0.822838         -5.6903       -0.407738
LJ           5.96714         2.99549         4.83441
LJ           4.35487        -2.39754        -4.78824
LJ          0.174701         1.49607        -1.22845
LJ          -3.88624         1.43036        -6.42226
LJ          0.188614         2.30329           1.882
LJ          0.438018        -4.82774        -2.92177
LJ          -3.15866         2.85796          3.1272
LJ          -1.96685         5.69176         4.71718
LJ           3.77877        0.860401        -5.59165
LJ           5.82518        -3.51814         3.89946
LJ           3.59681         0.45266         5.90405
LJ          0.867318         1.00129       -0.678444
LJ           2.14309         2.63253        0.506323
LJ           2.68319        0.500735        -2.57291
LJ            5.0652        -1.34273         -5.3234
LJ          -4.95255         -5.0906         6.03531
LJ          0.192808        -4.10525        -3.80865
LJ          -5.01734        -3.64955        -1.64054
LJ          -5.70779        -1.42547        -3.30546
LJ         -0.926792          1.7379         2.97871
LJ          -4.54121         4.11089         4.85245
LJ           2.74312       -0.173953       -0.975264
LJ          -2.22374        -4.52331         4.91449
LJ          -3.83872         -3.3689        -2.08018
LJ           5.34837         5.71809         -2.1302
LJ          0.500626       -0.596704         1.22945
LJ          -5.04148         2.19753         2.04113
LJ           0.23663         5.91416         3.65555
LJ          -4.10056        -6.41458         3.67988
LJ           5.70223         4.55494         5.51853
LJ           2.86067        -3.30226         4.59529
LJ          -1.55702      -0.0926391        -5.57508
LJ          -5.89779        -4.49435         4.39801
LJ          -6.01777         -6.3083        -4.38685
LJ           1.37719         2.31634         2.29321
LJ          -6.43793         5.15203        -2.33548
LJ           5.19571         -2.5657         6.15162
LJ          -4.75723         0.16201        -5.12431
LJ           1.33029         1.72219        0.439807
LJ          -5.51629         1.60515        -3.96692
LJ          0.287488         5.30875         5.84738
LJ           6.14242         3.35891        0.654245
LJ         -0.862822        -6.06491        -3.11393
LJ          0.677799         2.54311        -3.62052
LJ          -2.12486         -3.7757         2.04588
LJ          0.150634        -4.91015         5.55332
LJ           2.86943        -4.99237        -6.06139
LJ            3.6412         4.35795         1.42038
LJ           -4.1787       -0.215428        -4.07457
LJ          -2.05899        -6.08629           -3.15
LJ          -4.65906         3.43075         2.28991
LJ          -1.31632        0.471751        0.066558
LJ        -0.0319688         4.58364         3.79074
LJ          -5.44644        0.526758         4.77419
LJ         -0.805852        -4.84032        -3.19164
LJ           6.21504        -5.58016         3.06099
LJ          -6.21913         4.12484        -5.09595
LJ            2.2895         4.23725        -3.75367
LJ          -2.02404        -2.77285         4.10962
LJ          -3.13809        -2.93872         4.64894
LJ          -1.83428         1.90225       -0.361548
LJ           2.01176        -0.28357         1.59418
LJ           4.79875       -0.179199        -1.99797
LJ          0.361549         1.46882         2.74651
LJ          -1.96008          -1.265         1.55655
LJ          -2.20562         2.20996         2.09269
LJ           5.82666        -6.02988        -4.38566
LJ          0.203719         5.12792         2.09573
LJ            2.4675         4.52382        -2.71667
LJ         -0.628195        -1.38921         4.65533
LJ           1.80882         3.01947        -3.39412
LJ          -3.25058        -4.46417          6.2411
LJ         -0.512483         2.85197         2.49943
LJ           2.27931         5.08714        0.294509
LJ           1.27906       -0.168419        -1.12597
LJ           5.45075        -4.61625        -2.98252
LJ          0.165276       -0.529129        -2.82889
LJ          -1.28207        -3.76265         1.31776
LJ          0.748691         3.25942         2.05261
LJ          -3.32761        -3.59913        -4.54509
LJ          0.514937         3.84019         5.03302
LJ          -1.55979         4.74685         4.98128
LJ           1.46237         3.42212        -4.22979
LJ           5.65907         1.57795        -2.93516
LJ           2.33788         4.71201        -6.20409
LJ          -4.14663         1.73236         4.40444
LJ        -0.0572242        -2.21109        -3.12265
LJ          -3.86968        -2.48154        -3.04573
LJ           5.49644         3.10691        -5.72432
LJ           3.12885        -6.22554          4.8946
LJ           5.93241        -3.82049         1.65916
LJ           6.13279        -6.00102        -2.13343
LJ          0.423037         6.06684        -3.07557
LJ          -4.72173        -5.15689        -3.11137
LJ           -3.8516         6.13936        -5.11198
LJ            0.2164        -5.58548        -2.29722
LJ           4.40095         2.75913        -5.43552
LJ          -3.48399        -4.29433        -2.45388
LJ          -6.04351        0.313958         5.59326
LJ           3.78157        -1.85137         1.24907
LJ         -0.847653        -6.18712         3.83229
LJ          -2.78408        -3.85029       -0.721271
LJ           5.34696         3.85186        -4.72632
