108
#Comment!
LJ           4.33696       -0.552802         3.84469
LJ           4.06359        -5.02736       -0.565508
LJ          -4.34881         2.64384        0.679613
LJ          0.318487        0.196531         3.27244
LJ           4.69206         5.93379        -3.20833
LJ          -2.29806        -1.16994         3.20661
LJ           2.96766         3.79008        -5.67181
LJ           4.60352        -4.10826         5.00397
LJ          -3.44451         3.75323         5.11826
LJ           6.38119         6.38702        -4.04702
LJ            -4.111        -1.13859         4.81029
LJ          0.374959        -3.09254        -3.42565
LJ           3.84738        -4.29742        -2.53546
LJ          -2.88614         4.78911         5.99793
LJ          -2.93297        -2.35079         3.52021
LJ          -3.92886         3.06055        -5.81269
LJ           2.08436         3.00019        -3.35873
LJ           3.53237        -2.32744          -4.102
LJ          0.477088        -6.41735         3.56787
LJ          -6.01021          2.5255        -2.26713
LJ           4.29685        -2.27614        0.772585
LJ          -3.35206         1.22384        -4.33116
LJ          -1.33053        -5.65214         5.37788
LJ          -4.39618         5.78834        -4.64562
LJ          0.212239          3.7988         3.58936
LJ           1.09396         2.52439        -4.77467
LJ           5.38799        -1.60681         -5.3511
LJ          -2.79781         1.18363      -0.0665163
LJ           2.16019        -2.30483        -2.27031
LJ             4.544        0.176792         1.55797
LJ          -3.81166         4.27121        -5.46948
LJ          -2.22028        -4.80155        -6.05358
LJ          -3.48119         -4.8483        0.977813
LJ         -0.849859         2.23876        -3.80335
LJ          0.756111        -1.96479         1.91177
LJ          -4.58813         3.29873         5.26221
LJ           2.06424         1.88568         -3.8036
LJ           0.42793        -6.09993        0.390484
LJ           1.02391         3.13837         3.97387
LJ          -4.76015        -4.81556         2.82236
LJ           3.20021         -5.3962         -2.1319
LJ           1.17234        -5.78865       -0.491191
LJ           4.35087         4.55136        -2.88768
LJ           3.98506         3.70422        -5.20268
LJ          -4.16234         2.08814         6.16749
LJ         -0.627078        -1.94415        -6.32523
LJ           5.80571       -0.114058        -2.32158
LJ           3.33809        -5.41044         3.46794
LJ          -2.05096        0.654968        -2.03859
LJ           4.62496        0.259385         4.38829
LJ          -6.09067        -1.42135        -6.25282
LJ           4.02523         1.52641        -6.10316
LJ          -2.99586        -5.38297        -5.51961
LJ           5.66963         1.13744        -2.73211
LJ           3.70267        -4.92301         2.53791
LJ           1.52474         1.97693         5.79275
LJ           3.71928        0.864224         1.56659
LJ          -1.83327        -5.80775        -2.04198
LJ           1.32142         4.05102         3.76277
LJ          -2.45024        -3.70332        -6.45676
LJ          -5.95826         3.71977         4.42704
LJ           1.64167         5.26697         5.17637
LJ          -4.55942        -5.56438         3.41848
LJ          -3.60333         0.76551        -2.59097
LJ           5.80219         5.40777         3.65195
LJ          0.455306         4.72154         4.79544
LJ           4.80066         5.91105         3.64713
LJ           1.20211        -6.45396        -1.63514
LJ           5.87439        -3.64846        -3.38219
LJ          -5.47788        -3.40893         1.70164
LJ         -0.293742         1.32753         2.12454
LJ          -4.11401        0.400211          5.0347
LJ          -3.17888      -0.0873447         6.07262
LJ          -4.06365         2.40039          4.7413
LJ          -5.20204        0.392106         0.82035
LJ          -4.66735         4.05916        -5.90971
LJ           6.25018         4.86742        -3.62111
LJ            5.4545         4.47474        -4.30406
LJ          -5.50043         2.09843        0.925667
LJ          -1.94853         5.89352        -2.45989
LJ          -3.73421        -2.35939         4.28792
LJ           6.43966        -2.30549        -4.63359
LJ          -5.12687        -4.83768         0.55411
LJ         -0.876958         6.11522       -0.550587
LJ            2.9752         6.44506       -0.726502
LJ           4.27874        -2.46843        -4.76578
LJ           1.39482        -5.20389         1.78517
LJ           5.00557        -2.26294        -3.27441
LJ           6.01112          3.3076         -2.2396
LJ         -0.584382        -4.47362        -3.61367
LJ          0.381763        -5.81571         4.62265
LJ           1.01384       -0.564764         1.05766
LJ           2.63288         4.76182         4.16488
LJ          -4.27066         0.34356         1.66132
LJ         0.0971401         2.62641        -6.15226
LJ          -4.80235        -3.93217         3.43358
LJ           6.07429        -1.38013          0.3221
LJ          -4.20503         4.43885         2.26965
LJ          -1.31728        -2.35354         5.44477
LJ           4.77618        -6.35798        -1.18339
LJ          -2.86289        -6.26173        -2.56971
LJ           1.20962         4.19963        -5.04363
LJ          -2.97462       -0.687689         4.23134
LJ          -1.87483         1.70163         1.37878
LJ          -5.08907        -0.82755         2.33932
LJ            1.4216         -4.3214       0.0617159
LJ          -4.05761        -6.36948        -1.46572
LJ          -2.71434        -4.76718         2.23357
