108
#Comment!
LJ           1.58608         3.88307        0.646721
LJ         -0.263352        -3.13201        -1.70591
LJ          -1.47956         4.13953         2.50234
LJ           5.04442        -4.77519        -6.40465
LJ          0.418151        -5.92266       -0.936397
LJ           6.21269         2.43361         4.31899
LJ            4.5764        -2.39895        -4.67115
LJ          0.769063         2.12012        -1.53074
LJ          -3.58156          1.2681         5.93357
LJ          0.254998         1.85553          1.4181
LJ          0.466644        -4.78141        -3.38593
LJ          -3.53889         2.54789         3.26039
LJ          -1.92545         5.34808         4.12995
LJ           4.44367        0.473807        -5.77743
LJ           6.40108         -3.9857         3.65125
LJ           4.01328        0.846574         6.26624
LJ          0.927933         1.07184      -0.0794715
LJ           2.35985         2.39274         0.60528
LJ            3.1106         1.08644        -2.40112
LJ           5.33723        -1.76343        -5.23287
LJ          -4.52325        -5.51844         6.11825
LJ          0.414944        -3.56404         -3.4628
LJ          -4.72932        -3.35579        -1.81463
LJ          -5.63699        -1.20083        -3.48795
LJ          -1.02227          1.6255          2.9453
LJ          -5.37818         3.99142         4.72053
LJ           2.80499       0.0387868       -0.807687
LJ          -2.35893        -4.08728         5.16101
LJ          -3.26312        -3.21109        -2.60535
LJ           5.52192         5.38145        -2.22055
LJ          0.292032       -0.899463         1.11776
LJ          -4.81927         2.32235         2.13047
LJ          0.387079          6.1561         3.76461
LJ          -4.45364        -6.34173         4.07967
LJ           5.62983         4.34457         5.18346
LJ           2.88973         -2.8583         4.67678
LJ          -1.62975        -0.11393        -5.29292
LJ          -5.21823        -4.09742         3.83919
LJ          -5.59926        -6.40703        -4.14388
LJ           1.68307         2.47348         2.46064
LJ          -6.33706         5.11508        -2.62234
LJ           4.74276        -2.90104         6.32564
LJ          -4.26794         0.18495        -4.98935
LJ           1.45304         1.86546        0.316664
LJ          -6.12776         1.78945        -3.55956
LJ          0.319487         5.72233         5.84912
LJ           5.82071         2.62894        0.456424
LJ         -0.457372        -5.82221        -3.38665
LJ           1.20513         2.73913        -3.92707
LJ          -1.82542        -3.98766         2.45211
LJ          0.416774         -5.3235         6.04084
LJ           2.37423         -4.9586        -6.27502
LJ           3.41471         5.18254        0.986767
LJ          -4.38834       -0.514909        -4.11709
LJ          -1.92625        -5.89962        -3.08488
LJ          -4.27607         3.39343         2.51279
LJ           -1.2498        0.670969       -0.131043
LJ         -0.681835         4.56878         3.92464
LJ          -5.18596        0.519807         4.84785
LJ          -1.50276        -5.18203        -3.94662
LJ          -6.04207        -5.86388         3.43118
LJ           6.17377         4.67354        -4.99927
LJ           2.42306         3.98222        -3.66788
LJ          -2.21423        -2.45256         4.25614
LJ          -3.01406        -2.99054         4.72959
LJ          -1.87787         1.09931        -1.05844
LJ           1.90954       -0.589116          1.7984
LJ           5.43918      -0.0886113        -1.66278
LJ          0.221501          1.2039         2.32557
LJ           -2.2675        -1.78713         1.54678
LJ           -2.1523         2.54828         2.34323
LJ           5.55945        -6.45485        -4.19442
LJ        -0.0511988         4.82289         2.52945
LJ            2.3888         4.89395        -2.65954
LJ        -0.0370943        -1.64476         4.17621
LJ           1.82666          3.2953        -3.13362
LJ          -3.37411         -4.3261        -5.70084
LJ         -0.765621         3.32365          2.1749
LJ            2.4187         5.12627        0.829378
LJ            1.1445        0.339858        -1.30931
LJ           5.13198        -4.39809        -2.82683
LJ          -0.37594       -0.718539        -2.66747
LJ            -1.652        -4.06245         1.09656
LJ          0.589766         2.89392         1.92638
LJ          -3.44035         -3.6384        -4.47765
LJ         0.0646306         3.80685         5.76146
LJ          -1.80721          4.3786         5.36137
LJ           1.23736         3.49561        -4.74821
LJ           5.77579         1.19263        -3.02397
LJ            2.4687         4.43815        -5.88632
LJ           -4.5195         1.83329         4.47838
LJ         -0.153927        -2.27551        -2.83629
LJ          -3.99322        -1.64763        -2.80985
LJ            5.5409         2.87408        -5.67391
LJ           2.26486          6.2554         4.94437
LJ           5.64053        -3.64122         1.79081
LJ           6.10998        -5.79959        -2.43084
LJ         0.0323135         6.16898        -2.89234
LJ           -4.7093        -5.07844        -2.92093
LJ           -3.7568        -6.25211        -4.64631
LJ         -0.495994        -5.24305         -2.0659
LJ           4.49411         2.50407        -5.73033
LJ          -3.68044        -5.21465        -2.79286
LJ          -6.41255        0.484023         5.56472
LJ           4.59755        -2.20541         1.11298
LJ         -0.627136        -6.18924         3.36191
LJ          -2.46964        -3.95473        -1.04695
LJ           5.25481         4.31432        -4.78233
