108
#Comment!
LJ          -1.82482         4.22556         2.93302
LJ           4.85365         3.10715        -1.03637
LJ           2.90676         3.21583          3.5112
LJ          -1.64301        -4.05476         1.77832
LJ           1.18604        -2.82559          -5.098
LJ          -6.17032        -2.40268       -0.738641
LJ          -1.34322        -1.48164        -4.28748
LJ          -1.87445         3.14732      -0.0632053
LJ          -6.11413         5.75638       -0.710874
LJ          -1.02749           2.191        0.262003
LJ          -2.61159        -4.48768        -6.03387
LJ          -2.99406         5.28559         3.11385
LJ           1.60765         4.04487        -5.44437
LJ            0.5645        -3.31732        -5.97995
LJ           4.66845        -5.84415        -1.04617
LJ         -0.611124        -5.54132         4.86245
LJ          -2.49741        -6.05626        -2.10113
LJ           3.34892     -0.00513336         6.33962
LJ          -1.73186        -4.72472        -1.54857
LJ          -5.53447        -3.89954         -5.3271
LJ           -4.3267        -3.14646          1.0382
LJ           5.73937         2.89219        -1.40344
LJ           1.65149        -3.37016        -3.09327
LJ           1.37116         4.67707        -2.69064
LJ          -2.13915          3.4374        -6.13824
LJ          -1.31314        -1.28138         3.17799
LJ          -5.39946        -6.19572         3.28477
LJ           3.82111         2.76336        -4.00663
LJ          0.864577         5.27016         4.21252
LJ         -0.839583        -1.59369         2.37723
LJ          -4.04572        -2.11593       -0.411047
LJ          -1.22848        0.309617         2.95925
LJ          0.488547        -1.67076        -5.88851
LJ           2.46735      -0.0686255         2.56228
LJ           1.23015         -3.2975        -1.14874
LJ          -5.84474        -4.00476        -4.25426
LJ          -2.07956       -0.106934         1.55023
LJ          -2.98899         4.78997         4.45733
LJ          -1.94446         4.29908         1.79674
LJ          -1.17721         5.62302        -3.08989
LJ           4.84505        -6.13276         3.39847
LJ           1.83059        -4.37133        -2.87288
LJ           4.11045         2.03769         4.00742
LJ          -1.36235         1.75356        -2.47068
LJ           1.75205         1.53516         2.45837
LJ           4.41492       -0.784365         2.72333
LJ           1.72375        -1.77629         1.86249
LJ          -6.07463         6.02843        0.841934
LJ            3.2722          3.9853         4.02001
LJ           3.96629         4.98498         3.93271
LJ         -0.999452        -5.70532        -1.97073
LJ         -0.441433         4.08417        0.481958
LJ          -5.48459        -2.85172        -3.25947
LJ           1.18374        -3.41621          5.2163
LJ         0.0411352        -4.27107        -3.93223
LJ         -0.465535         3.94366         1.45353
LJ          0.793513         2.61509         -2.3205
LJ          -4.49516         -5.0249         4.62226
LJ           1.90771         2.76914          4.5241
LJ           3.18675         6.31179       -0.206276
LJ          -3.32897         3.40707          2.6912
LJ           4.25688         2.55976         1.15655
LJ          -1.63988        -3.89471         3.59376
LJ          -4.46375        -5.28155        0.220296
LJ           3.42054         -4.7214           5.031
LJ           3.05763         4.31891          -4.281
LJ          -1.64126        -1.55164         6.39438
LJ          -3.06834          -2.286         5.19225
LJ           4.92416         3.95429       0.0791353
LJ         -0.806741         5.02432        -5.49629
LJ          -5.35356         1.97406         3.75103
LJ          -5.60296        -1.82935         2.85094
LJ          -4.13831       -0.641456         -6.2025
LJ           2.42263        -5.30374        -3.90262
LJ          -1.63807        0.803992        -3.28261
LJ          -2.58369         2.54364        -1.39419
LJ          -6.17747          6.1991        -3.07854
LJ          -4.05682         1.86368          5.1207
LJ          -2.49783         1.60903        -5.61942
LJ         -0.794138        -1.40945        -1.50956
LJ            -5.622        -5.27174       -0.980917
LJ         -0.186784         2.77795         3.03689
LJ          -2.38816         1.48323        -1.52389
LJ          -1.56661         1.13745         6.24289
LJ         -0.480943          2.2588        -2.65719
LJ           5.13301        -1.90985         5.83915
LJ          -5.74103         -5.1823         1.38836
LJ           3.09846         4.63881        -6.38787
LJ           5.49342        -5.92003        -2.50778
LJ           3.79161         1.08177         2.40615
LJ          -1.78735        -5.93557         4.96372
LJ          -3.63465        -4.31006       -0.610624
LJ           0.02663         3.17972         4.13473
LJ          -2.62379         2.30868        -6.46122
LJ           3.62339         2.25107          1.9414
LJ           5.01978          2.7435        -5.89665
LJ           2.18949        -6.33367        -3.59325
LJ         -0.498082        -3.50694         1.42822
LJ           6.23441        -3.02982         6.23771
LJ           5.58255         6.15471        -5.12435
LJ          -2.02579         2.65118         1.49796
LJ           3.06887         1.31121         -1.1351
LJ           5.82719        -4.63274        -1.61666
LJ           2.32354          0.7721         4.82287
LJ          -3.07854        -1.17215        -3.14356
LJ          -1.34477         6.34925        -4.15084
LJ          -4.73626         1.61025       -0.476468
LJ          0.526254         4.36209         6.28841
