108
#Comment!
LJ           5.30922        -3.43149           5.042
LJ           5.95577        -5.53486        -4.91185
LJ          -1.22625       -0.288949         1.89163
LJ           1.88426       -0.513729         3.36692
LJ           3.12194       -0.140253          3.2171
LJ          -1.67689        0.300867         2.91321
LJ           -3.2692        -5.81735        -4.19299
LJ           4.56344          5.5349        -4.55143
LJ          -1.87938         3.32817         4.42948
LJ           1.46092        -5.80494        -6.38657
LJ          -5.57586         2.51465        -5.22427
LJ         -0.437182        -3.24756        -5.70847
LJ           2.33001         4.73439        -5.15122
LJ         -0.593493        -3.55133        0.888705
LJ         -0.535567         1.30364         1.37557
LJ          -6.03825         3.72004         4.41815
LJ         -0.332833         3.44605         -3.3219
LJ           -1.7866        -3.47068        -6.07062
LJ         -0.953478       -0.115625         3.93271
LJ           3.81684         2.82709         3.76649
LJ            3.2244         5.18768         1.01559
LJ        -0.0842845         2.58611        -5.50936
LJ           5.77805        -4.63045        -5.27072
LJ          0.714619        -4.05263         3.62205
LJ          -1.34298         5.55314          5.2714
LJ           1.12933         3.15088       -0.674231
LJ          -5.39516        -2.90299         6.02215
LJ          -1.73487         5.45395       -0.867403
LJ           -4.2618         5.82564        -1.44659
LJ          -1.43787        -4.62992        -1.92823
LJ          0.182767         2.69102       -0.522827
LJ          -5.18393          6.0204         3.31695
LJ          -2.47792         -5.9319        0.407174
LJ          -4.32657          -4.255        -6.11367
LJ           1.25367          4.3595        -2.57758
LJ           3.10576         5.66448         2.55403
LJ           2.77857         5.74639        -4.59108
LJ          0.606181        -4.22678         1.32871
LJ          -2.61216         -2.7154         5.88278
LJ           -5.4409         -1.7252         3.95788
LJ        -0.0801008        -3.06966         0.26833
LJ           1.97556        -4.41286         1.71092
LJ          -6.21549         3.71612        -4.94266
LJ         -0.413537         6.04082         2.05348
LJ          -2.16573         2.40856        -6.42774
LJ          -1.05011         0.26154         0.86977
LJ           3.25653        -4.15979         1.12345
LJ          -3.16135         6.31051         5.30064
LJ          0.999506        -3.34941        -4.82611
LJ           3.20911         5.28806        -3.58495
LJ          -3.20537         -3.5035        -4.94385
LJ           4.60836        -1.04133         1.55164
LJ          -3.43451        -1.43678         3.15621
LJ           -1.9162         4.21877        0.333291
LJ           5.00087        -5.29099        -5.52273
LJ          -0.85205        -1.56714         4.02654
LJ           5.45857       -0.909491        -3.00374
LJ         -0.983827        -3.90091        -4.01193
LJ          -3.94024         4.61734        -5.24111
LJ          -3.65067         0.33398        -4.96604
LJ           -4.1807        -0.76963         2.82878
LJ          0.652043         1.77403        -5.23525
LJ          -4.07961        -5.87043        -6.22705
LJ          -1.66729       -0.837146        -5.53412
LJ            6.2248         -1.6304        -4.68754
LJ          -3.21882         5.50966        -5.10578
LJ           2.08039         4.29408        0.857006
LJ           2.37893         4.92542        -6.21946
LJ           5.50616        -1.23969        -6.11649
LJ           2.48414        0.505413        -5.57633
LJ          0.168433       -0.867175         4.66227
LJ         -0.184357          1.1207          2.5774
LJ          -4.42218        -5.77145        -4.70692
LJ           5.11063         2.32313        -1.61587
LJ            2.1508        0.492546         6.28929
LJ           5.52247          4.1567         4.30511
LJ          -3.72038         -5.1122        -1.83733
LJ          -5.25494         4.95966        -5.25176
LJ           3.69457         2.93142        -2.58707
LJ          -1.41034         -4.3774        -3.03696
LJ         -0.355583        -2.70704         -4.6275
LJ          0.134171         1.02513         5.98725
LJ           1.11414        -4.42168         2.26651
LJ          -3.58911        -3.56882         2.56535
LJ           4.80795        0.610072        -2.31453
LJ          0.167927       -0.717298         6.23935
LJ           3.50463        -4.33271         5.23052
LJ           5.94983        -6.08752         -3.1961
LJ           5.49124          2.5671          -5.223
LJ            4.0196        -6.08972        -3.85085
LJ           1.42855        -3.64425        0.895933
LJ           1.37316        -1.77625        0.743535
LJ           5.41905        -4.39373         5.50605
LJ           3.06637      -0.0496597         5.83949
LJ          -2.54563        0.130905        -3.56314
LJ          -4.24632         -2.1018         4.25527
LJ          -4.57204        -5.58891        -1.34749
LJ          -4.37112        -3.16888         3.54853
LJ          -4.88906        -4.37936        -5.18551
LJ           4.34686         1.78235          2.9753
LJ          -3.93269       -0.121622        0.740589
LJ          -1.12014         1.29545         -5.4017
LJ         -0.459508       -0.531265       -0.282439
LJ          -1.53435         2.15175         1.93695
LJ           5.94093        -0.10282         5.46058
LJ          0.490326         5.70234         1.15674
LJ            -4.529         2.75124         1.88158
LJ            5.4667        -3.65597        -4.71197
