108
#Comment!
LJ           6.37182         3.54491        0.483219
LJ         -0.666964        0.712278         5.35206
LJ          -2.85308         4.89989         2.26484
LJ           5.27526        -4.93123         3.01412
LJ          -3.58374        -3.94236         0.87558
LJ          -1.26176      -0.0859187        -4.40929
LJ           2.97316        -4.38854        -2.97076
LJ           5.95573        -1.50946         4.86412
LJ          0.186294         5.08638         2.03428
LJ           5.73634         5.37455        -6.30619
LJ          -5.13442         5.24824        -3.72925
LJ          -4.99148        -4.04107         6.01026
LJ          -1.33176        0.406761          3.1898
LJ          -1.54521         1.90118        -3.92444
LJ           6.21417        -2.11301        -1.39435
LJ           3.69884         2.76827        0.722495
LJ           3.86729        -5.60662        -3.04498
LJ           3.18443        -4.74919          6.3266
LJ         -0.801679        -3.48683         1.97126
LJ           3.46026         1.84095        0.899851
LJ          -2.28989         1.23103         2.61137
LJ          -5.10638        -2.66011         3.14813
LJ          -4.07096        -5.02549        -4.85546
LJ            4.3356         1.91847        -2.62592
LJ           -1.7822        -5.58836         4.50874
LJ           2.58135         1.05897        -4.99624
LJ           6.17495       -0.551956        -1.12944
LJ          -5.51722        -3.27902        -3.72548
LJ          -1.44554        -4.62185        0.351675
LJ            4.8154        0.560828        -1.18208
LJ          -6.19182        -5.55609        -4.50381
LJ           5.62439        -3.59095        -1.35019
LJ           4.39283         1.51475       -0.935894
LJ           3.68151        -2.97493         -2.3134
LJ          -4.56602        0.674266         4.62854
LJ         -0.619328         5.20575        -1.26034
LJ           4.34238        -6.31286         -5.3078
LJ          -2.79912         5.13879         4.42393
LJ           1.38307        0.142054         3.51109
LJ          -2.50049        -6.09226       -0.398276
LJ           2.87596        -3.83626         5.07709
LJ           5.41909        -2.96339         1.49542
LJ           1.39353         1.79079        -1.22674
LJ           5.50656          4.5056        -1.66049
LJ           5.07314          3.2567         6.23825
LJ           2.15695         1.95134       0.0299161
LJ         -0.470607        -1.58124        -5.64893
LJ           5.60382        -4.02235        -3.96016
LJ           2.53541        -3.86273         3.73923
LJ            3.9052        -4.45972          5.5823
LJ           4.33632        -5.02722        -5.99029
LJ           4.19601         2.83993          1.8641
LJ           2.33006         4.66721        0.906171
LJ            -2.733         5.21453         -4.5895
LJ           4.44155       -0.198422        -3.32347
LJ           0.64797         3.30698         4.22806
LJ         -0.513733        -5.69618        -4.50567
LJ           4.84618        -5.91534        -1.58028
LJ          0.907437        -6.10178        -3.95777
LJ            4.7026        -3.63895        -2.51729
LJ          -3.22501         3.78712        -4.16591
LJ            4.1184         2.96475        -4.03682
LJ           6.29693        -5.20075         5.49112
LJ         -0.689897        -1.92433        -4.05994
LJ          0.611315        -5.29701         2.59566
LJ           2.78995        -2.72609        -4.95748
LJ          -5.60185        -5.51908         4.21153
LJ          -2.58664        -6.43749         4.68079
LJ            1.7706         3.15005        -3.85673
LJ          -2.64827         1.95739          3.4878
LJ          -1.53744        -2.43302         6.14769
LJ           5.19493        0.206054        0.639792
LJ           5.81271         2.50114       -0.965289
LJ          -2.15958        -2.55934         -2.2121
LJ           1.64209        -5.66411         1.05095
LJ         -0.411707         4.10271        0.418888
LJ           2.98246        -6.23227        -6.11913
LJ          -4.03564         4.94314        -4.16302
LJ           3.94787        -4.45294        -3.89592
LJ           1.58924        -5.21912        -2.02923
LJ           3.34777         5.74254        -1.43843
LJ          -1.84297       -0.738381          5.1907
LJ           1.61968       -0.761505         5.10883
LJ          -4.98815         3.12077         4.39795
LJ          -5.69589        -6.33939        -2.89905
LJ          -6.27898       -0.412367         4.77204
LJ           -1.6272         1.92988         1.13515
LJ            1.6139         0.60702        -5.99522
LJ          -4.04265         1.99243       -0.681397
LJ          -4.45864        -5.21213         4.53071
LJ           3.28645        -1.10663         2.30867
LJ           1.91614        -2.87028       -0.422435
LJ           2.72913         4.66315         4.27022
LJ         -0.833944         5.90916        -2.71616
LJ           1.65511         6.37763         -1.0846
LJ          -6.19827         5.32631        -2.21793
LJ           5.62934       -0.975289        -2.03131
LJ          -3.54719        -6.13963        0.483949
LJ          -2.25432         2.80982       -0.240829
LJ          -1.79757         3.48069         5.37116
LJ            5.1351          3.6154         2.12977
LJ          -3.97657         4.93358         4.07404
LJ           4.75572         4.19825         3.61365
LJ           4.12439       -0.392733         -6.3575
LJ             4.036        -5.75504         2.59809
LJ          -2.64109         5.65184        -5.59838
LJ          -3.41984        -1.24299       -0.853211
LJ           1.56056        -4.87835        -3.20273
