108
#Comment!
LJ           4.58296       -0.889898          4.0144
LJ           4.29142        -5.59671        -1.57258
LJ          -3.90739         2.07374        0.933933
LJ         -0.190476         1.17202         3.29559
LJ            4.4636         5.97324        -4.18891
LJ          -2.35202        -1.02093         3.25371
LJ           2.12719         4.08935        -5.27536
LJ           4.07893        -4.94766         5.99731
LJ          -2.64932         3.52523         5.94939
LJ           5.54763          -6.383        -4.59516
LJ          -4.33061        -0.73057         5.38198
LJ           0.36535        -2.80261        -3.82031
LJ           3.78996         -5.6319        -3.42331
LJ          -1.83835         5.86116         5.52618
LJ          -2.83806        -2.20401         2.52702
LJ          -4.19454          3.3976         -6.3842
LJ          0.956943         3.37989        -3.67382
LJ           2.74126        -2.67298        -4.50603
LJ         0.0942495         -5.4386         3.59724
LJ          -6.29961         2.54591        -3.55475
LJ            4.5736        -4.17394         1.55667
LJ          -2.69444          1.9302        -4.80691
LJ          -1.16151         -5.8566         5.71655
LJ          -3.42128         6.28774         -4.8651
LJ         -0.223784         4.19005         4.85507
LJ           0.28489         2.96077        -4.61718
LJ            5.3653        -2.45099        -6.14598
LJ          -2.31874         1.89187       0.0278763
LJ           3.13516        -2.93862        -2.19009
LJ           5.62105       -0.461815          1.0247
LJ          -3.29858         3.80797        -4.87066
LJ          -2.87745        -5.88755         6.05636
LJ          -3.37447        -5.37735        0.670917
LJ          -1.42335         3.51045         -4.0114
LJ          0.613271        -1.22807         0.83734
LJ          -5.66966          3.6777          4.7953
LJ           2.16969         2.50705        -4.37496
LJ          0.980282        -6.10159        0.675095
LJ           0.71247         2.15743         4.38116
LJ          -5.13551        -4.11435         3.11817
LJ           3.00042        -5.07881        -1.57181
LJ            1.1629        -5.66336       -0.427727
LJ           4.93044         4.88686        -3.04429
LJ           3.44857         4.25886        -6.25082
LJ           -4.2712             2.4         6.08133
LJ         -0.936959        -1.46867         6.05988
LJ           4.63025         1.21756        -2.37832
LJ           2.96277        -5.67349         4.11754
LJ          -1.94456        0.345918        -2.70503
LJ           4.57215         1.36162         3.24625
LJ            6.1526        -1.53703        -6.00049
LJ           3.73891          1.3531         6.09093
LJ          -3.05452        -4.40713        -5.48131
LJ          -6.33423         1.49876        -2.22036
LJ           4.13919        -5.11101         2.77676
LJ           3.30717         1.35904        -5.56787
LJ           3.90409        0.298679           2.835
LJ          -1.84325        -5.54605        -2.41429
LJ          0.738271         4.07023         3.77446
LJ          -2.18964        -4.91667        -6.37855
LJ          -6.40579         4.00484         3.73912
LJ           1.22613         4.62092         5.68513
LJ           -3.8474        -5.88019         4.01685
LJ          -2.99377        0.387748        -2.92391
LJ           6.15343         6.13227         4.48702
LJ           0.82644         4.98073         4.33212
LJ            5.1515        -6.29578         4.38204
LJ           1.56911         5.48429       -0.431441
LJ           5.74695        -4.24994          -4.979
LJ           6.32409        -3.11549         2.69394
LJ         0.0184366        0.824997         2.11442
LJ          -2.80995        0.914097         4.33485
LJ          -3.69048        0.946137        -6.05878
LJ          -3.40085         2.02655         5.46149
LJ          -5.71535        0.575156         1.55353
LJ          -5.39174         4.18249        -6.22905
LJ           -6.3716         5.29738        -3.29528
LJ           5.78661         4.19682        -4.36215
LJ          -6.08772         2.23832        0.398943
LJ          -1.70727         6.27283        -2.55702
LJ          -3.06616        -1.40097         3.95012
LJ           5.49168        -1.73778        -4.33476
LJ          -4.31535        -4.83384         1.02077
LJ         -0.961411         5.12957        0.387635
LJ           2.77897         5.39527        -0.88205
LJ           4.80792        -2.04743        -5.17344
LJ           1.85434        -4.74928         2.24163
LJ           5.01291         -2.7072        -3.79896
LJ            5.8375         3.41498        -2.53413
LJ          0.353224        -4.91882        -3.80108
LJ           1.83224        -5.63148         4.18267
LJ           1.28663       -0.440607         1.36043
LJ           1.95031         5.36194         4.38568
LJ          -5.11047        0.161691         2.34701
LJ         -0.158377          1.8799        -5.85548
LJ          -4.68446        -3.45614         3.92489
LJ           6.40034        -2.09802         0.02581
LJ          -3.98687         2.93709         2.84574
LJ          -2.07521        -2.88518         5.53541
LJ           4.37867         6.02103        -2.32536
LJ          -3.16242         5.65791        -1.75281
LJ           1.52392         3.98897        -4.36362
LJ          -2.58789       -0.266126          4.2422
LJ           -1.8357         2.07671         1.18539
LJ          -5.41904        -1.14225         2.92118
LJ          0.741506         -4.4248        0.431381
LJ          -3.98801         5.98694        -1.09022
LJ          -3.22569        -4.03093         1.16794
