108
#Comment!
LJ          -3.69674          4.3925        -5.23726
LJ         -0.476921          5.7693        0.977665
LJ          -3.98726         1.98601         3.11807
LJ         0.0771392        -1.77465        0.684659
LJ          -4.45242        -1.34215        -0.42922
LJ          -3.42527         1.12854         -5.4682
LJ           2.52017        -6.13009        -4.80292
LJ          -5.03674       -0.808255         0.37161
LJ          -5.29818         -6.4154          1.6464
LJ           5.95064          3.7293         5.55836
LJ           -6.0496        -3.05217       -0.178465
LJ            4.4097         -3.1231        -4.49688
LJ          -4.56475        -1.08668         5.27318
LJ          0.232563        0.459638         4.40603
LJ           2.34849         1.63776        -4.99974
LJ           6.10717         4.26083         1.12012
LJ           6.36485         3.63211         -3.8292
LJ          -5.92523          6.3089       -0.165196
LJ          -1.22107         1.44577        0.897408
LJ          -4.19456         2.67475        -1.70971
LJ          -1.28384         3.94578         5.74643
LJ           1.05993         2.50827         2.62782
LJ           5.31993        -4.20124        -1.39214
LJ         -0.990728        -2.72376         3.98769
LJ          -6.12508        -3.64484         2.73202
LJ          -2.00814        -4.11571        -2.48225
LJ           6.03067         5.16018       -0.521742
LJ          -2.80228          5.1459         6.45153
LJ           2.30822         4.75305        0.319136
LJ           1.04347        -2.04977        0.373039
LJ           5.97592        -2.35507        -2.74724
LJ           3.12138      -0.0764294        -1.24201
LJ           6.30524       0.0891216        -2.83368
LJ           3.14277        -5.20146        -3.80712
LJ           6.20462        -0.59608         3.57432
LJ          -1.93483         5.55419       -0.546838
LJ          -4.28843         5.32784         5.23482
LJ           5.11096         3.32833        -6.36485
LJ           2.47933         3.82814         3.38284
LJ          -2.04211        -4.76933        -3.62815
LJ           3.17201        -1.34142         2.55977
LJ            1.0473        -4.92664         1.92523
LJ           2.60416        0.187569         -5.4326
LJ           4.98651        0.246226         5.13573
LJ          -4.01655        -1.94758          3.9458
LJ           4.45331         2.94192        0.771665
LJ          -3.59657          4.0016         2.42075
LJ          -5.44512        -5.82588         -1.6939
LJ           2.65146        -2.44427         3.35528
LJ           4.63944          4.8587        -4.60326
LJ            3.4397        -4.29235          6.1412
LJ           1.69941       -0.251215         2.85444
LJ          -5.31751         2.53729          1.9402
LJ          -5.82511        -5.58245        0.955892
LJ            1.0767         1.80231        -2.94334
LJ           4.14576       0.0079095         3.49517
LJ           1.67072       -0.703217        -1.34751
LJ           4.80521        -4.72489        0.475959
LJ           4.65346        -5.76043       -0.306794
LJ           2.37756        -6.36083        -6.13652
LJ          -3.26662       -0.471816        -6.02872
LJ           1.85323        -5.51181         4.62027
LJ           -1.3544        -6.10182         1.59742
LJ         -0.631233        -4.80593        -2.73092
LJ          -2.11744         3.70086      -0.0739924
LJ           4.21192        -2.73443        -5.54753
LJ           5.11097         1.25461        -6.19113
LJ           4.17566        -1.94237        -4.84928
LJ          -1.13183        0.881758         2.05235
LJ        -0.0582318        0.341965         2.82912
LJ           1.75835        -4.69025       -0.691189
LJ           6.30601      -0.0579322        -1.69696
LJ           1.85748         4.67219         -6.4023
LJ         -0.253203         3.88152         2.55161
LJ           5.11168          4.8565        -1.78348
LJ          -5.89602         1.92293        -1.13705
LJ          -3.42835        -4.75011        -3.81189
LJ          -4.67567         5.03551          3.1647
LJ          -1.83944        0.930302        -3.66635
LJ          -3.58124        -1.25646        0.857429
LJ           4.29868         1.31549        -5.51185
LJ          -1.82151        -1.98183        -5.83307
LJ           2.96645         5.47515        -1.68334
LJ          -3.25958         2.43499         2.37219
LJ         -0.185071        -4.98852         1.19143
LJ          -4.29309        -3.57617         2.13105
LJ           3.13541         1.12444         5.16848
LJ             1.305       -0.200024          6.3863
LJ          -4.97211       -0.759836         -4.7072
LJ          -4.86733          -4.966         2.68804
LJ           1.12554       -0.878355         1.03508
LJ         -0.683188       -0.261187         1.43728
LJ          -4.57758         6.18545        -5.93268
LJ          0.578102         6.23775        -3.39884
LJ          -5.31825         1.88727         1.09081
LJ          -5.11609          4.6352       -0.800209
LJ          -3.72064         -0.8394        -2.03919
LJ           3.63307        -5.35839         5.39859
LJ          -6.19648         5.33445        0.395982
LJ           6.05944          3.0326        -5.33087
LJ           0.77601          1.1261         2.72668
LJ          -1.54697         6.03016         4.31409
LJ           3.35357        -1.20685         -5.7346
LJ           -2.4959        -4.07612         6.04829
LJ         -0.531903        -1.10861        -2.67249
LJ            3.7556        -4.58799         3.90413
LJ          0.653977        -4.36789        -3.55551
LJ           5.65228        -3.30279         6.27249
