108
#Comment!
LJ         -0.442385       -0.892654        -1.72158
LJ           -2.4406        -0.71136       -0.453416
LJ          -5.05655        -3.36802         4.39677
LJ          -5.57595        -6.11783        -5.05194
LJ           -4.6981        -6.17461        -3.43615
LJ          -3.42845        -2.62763         5.19942
LJ          -4.94591        -4.73957        -3.69215
LJ             3.667         5.27392       -0.412736
LJ           2.75282        -1.21655         2.15576
LJ           2.38829         2.95498         1.84662
LJ           -1.5136        -2.40973         3.57163
LJ           3.78475        0.326086         2.93753
LJ           4.65526         5.19452         1.49474
LJ          -1.77332        -2.04886         6.36677
LJ          -6.05053         4.13519         3.86436
LJ          -5.44634        -1.81994        -6.36323
LJ         -0.820286        -6.02172       0.0941897
LJ           2.39689         1.77427         1.55325
LJ           4.00069        -3.39688         3.42227
LJ           6.40805        -5.91292        -3.61473
LJ          -0.79309         1.60415        -5.76848
LJ           1.85619         1.35856        0.415062
LJ          -1.19042         1.31464        -1.88167
LJ          -4.68392        0.642647        -6.39875
LJ           1.37424       -0.504911        -3.30566
LJ           5.84143        -1.21466         1.34376
LJ           2.48013        0.165696       -0.406325
LJ           -4.8398        0.171208        -1.35782
LJ          0.752895         3.64425        -1.66392
LJ           3.41629         1.96337        -5.68032
LJ           1.45074        -4.50018         1.85134
LJ          -1.85468           5.299        -4.96494
LJ           5.73064        -5.59995        -5.44034
LJ           1.88109        -3.91371           3.982
LJ           -2.7511         4.46513         5.33032
LJ           3.32925         3.40776          5.9891
LJ          0.693751       -0.098054        -2.06575
LJ           5.82658        0.212676       0.0892538
LJ          -4.54489         4.12832        -4.20941
LJ           2.68044         2.77152         3.90968
LJ          -2.59153         2.71551         5.18105
LJ           1.24502         5.24941        -3.08259
LJ          -3.24973        -3.80209         5.29485
LJ           2.87541         2.06639         2.65653
LJ           2.96686        0.717968        -2.01761
LJ           3.08992         5.59448          5.0124
LJ           2.01078        -2.69181         1.51903
LJ         -0.834781         4.77673         -2.4733
LJ           1.48628         5.01024        0.959302
LJ          0.697091         -6.4127         6.17703
LJ           3.46929         2.14045        -4.35889
LJ          0.317329        -4.27424         4.28941
LJ          -4.21231         3.07349        -2.73347
LJ           -3.8088        -2.10685         -5.7496
LJ          -1.91259         1.82103        -4.71883
LJ         -0.199596         3.47601         6.06634
LJ          -1.36146         2.43484        -5.81194
LJ           5.91245         1.18847          5.2439
LJ          -4.44175         6.13439         4.63512
LJ          -5.11683        -6.11089         2.59764
LJ          0.277067       -0.107602        0.832716
LJ           3.69628       -0.220559        -3.96666
LJ           6.01275        -4.61428         5.34169
LJ          -4.65077       -0.477009         5.39229
LJ          -4.65332        0.331191         2.92248
LJ          -3.34701       -0.285004        0.296491
LJ          -1.18574        -2.37396        -1.49572
LJ         -0.905967         1.02432       -0.637749
LJ          -3.93953        -1.11272         0.30592
LJ           1.00103         3.60148        0.546555
LJ          -4.38225         3.90912         5.09903
LJ           4.71405         2.12816        -4.24311
LJ           2.57445         6.37136         2.31843
LJ          0.512992        -4.73305        -5.79735
LJ          -4.89555         5.32389        -1.03922
LJ           1.60437         5.53162         4.44379
LJ          -4.42699         5.76366        -5.37553
LJ         -0.747204        -5.71026        -1.27662
LJ            1.1765       -0.517175         1.18012
LJ           2.15785        -5.43021         1.19648
LJ         -0.136721        -4.80729        -3.03432
LJ          -6.26751        -4.63414        -3.79804
LJ           -2.6327         3.67542        -1.91087
LJ          0.834796         0.53232        -3.73617
LJ          0.647067        -2.51863         3.58609
LJ          -3.57383        0.717207        0.983532
LJ          -3.47306         1.62092        -5.81229
LJ           1.64815         3.44427         6.12998
LJ           3.41925        -1.56422         -2.1641
LJ           -6.0075          -4.441        -4.80216
LJ           2.92466         1.09288          4.8522
LJ           1.91943        -3.90065         2.47201
LJ            3.7443        -5.05292         -2.2992
LJ          -4.27761        0.661877        -3.95612
LJ            2.9899         1.88335        -2.72084
LJ           3.13641        0.478017         1.00372
LJ          -5.06174        -2.48031        -5.64604
LJ          -4.89749         4.10864        -3.08884
LJ          -2.08265        -5.91993        -1.42234
LJ          -3.96178        -1.29166         5.33235
LJ          -1.69824         2.84405        -4.71772
LJ          -6.08167         2.99402         4.73975
LJ          -5.51296       -0.322327         -5.9954
LJ           5.56302          1.5174         4.35334
LJ          -2.11459         2.93379         1.99651
LJ          0.470139        -5.65106        -1.44298
LJ           2.32149        -1.58932         1.00942
LJ           4.39336         5.21062        -3.02966
