108
#Comment!
LJ          -1.87206         4.27692         2.87285
LJ           4.84236         3.01738        -1.29119
LJ           3.12447         3.04516         3.58245
LJ          -1.72202        -3.73679          1.6752
LJ            1.2599        -2.70406        -5.28268
LJ          -6.32487        -2.39053       -0.689297
LJ          -1.37681        -1.31935        -4.27377
LJ          -1.85085         3.25693       -0.169107
LJ          -6.18342         5.67357       -0.671551
LJ          -1.13314         2.19573        0.125736
LJ          -2.62632        -4.40519        -5.98803
LJ          -2.88195         5.16221         3.20765
LJ           1.48068         4.18339        -5.46787
LJ          0.419289         -3.3608        -5.88695
LJ           4.62652        -5.85434       -0.972238
LJ         -0.663863        -5.53706         4.96697
LJ          -2.29014        -5.90565        -2.05064
LJ           3.45897      0.00858059         6.26428
LJ          -1.66476        -4.83632        -1.81878
LJ          -5.45503        -3.72067        -5.42096
LJ          -4.52491        -3.10172         1.32122
LJ           6.01215         2.80185        -1.39983
LJ           1.79832        -3.38958         -3.2461
LJ           1.24465         4.62656        -2.71958
LJ          -2.34394         3.40739         -6.0549
LJ          -1.22736        -1.28682         3.35863
LJ          -5.42993        -6.37972         3.17796
LJ           3.97481          2.7518        -4.04536
LJ             0.983         5.15165         4.22826
LJ         -0.546811        -1.62861         2.39577
LJ          -4.10221        -1.97945       -0.326943
LJ          -1.27564       0.0472384         2.84262
LJ          0.526816        -1.59044        -5.89748
LJ           2.43978       -0.283711         2.43412
LJ            1.2489        -3.27457        -1.27571
LJ          -5.84553        -3.91371        -4.32544
LJ          -1.98604        0.166277         1.47867
LJ          -2.92262         4.83527         4.68145
LJ          -1.90758         4.25238         1.81171
LJ          -1.23752         5.63219        -3.21293
LJ           4.84529        -6.14597         3.45243
LJ           1.84207        -4.42054         -2.9779
LJ           4.22025          2.0659         4.01844
LJ          -1.51931         1.69453        -2.47395
LJ           1.53515         1.61668         2.54844
LJ           4.38321       -0.833261         2.78569
LJ           1.66381        -1.85506         1.92839
LJ           -6.3194         6.21476        0.688266
LJ            3.4312         4.01499         4.08561
LJ           3.96662         4.97184         3.92337
LJ          -1.15262        -5.52512        -2.14511
LJ         -0.598878         4.07846        0.503838
LJ          -5.43914         -3.0117         -3.1254
LJ           1.22873        -3.47232          5.1534
LJ          0.156955        -4.31714        -4.21825
LJ         -0.239508         3.98318         1.63575
LJ          0.937375         2.73328        -2.31655
LJ          -4.41739         -4.9986         4.69749
LJ           1.85176         2.87683         4.37423
LJ           3.03913         6.19933       -0.281819
LJ          -3.20607         3.49734         2.79339
LJ           4.24912         2.43029         1.15404
LJ          -1.48832        -3.75613         3.51149
LJ          -4.57183        -5.33405        0.161652
LJ           3.36589        -4.90101         5.02035
LJ           3.14192         4.34487        -4.51067
LJ          -1.39997        -1.45826         -6.4232
LJ          -3.10409        -2.31849          5.2207
LJ           4.90546         3.85802      -0.0762978
LJ         -0.898881         5.16175        -5.38999
LJ          -5.20109         2.01575         3.78646
LJ          -5.67383        -1.88905          2.8538
LJ          -4.13873       -0.643848        -6.29246
LJ           2.41861        -5.35966        -3.84947
LJ          -1.56019        0.878931        -3.39332
LJ          -2.72974          2.4698        -1.25132
LJ           -6.1627         6.17229        -3.03394
LJ          -4.16377         1.92416         5.08598
LJ          -2.50989         1.67277        -5.37254
LJ         -0.834105        -1.60055        -1.50917
LJ           -5.6088        -5.29467       -0.913999
LJ          -0.37604         2.77435         3.09301
LJ          -2.35054         1.23783        -1.38078
LJ          -1.60123         1.35097         6.33726
LJ         -0.514921         2.26467        -2.54551
LJ            5.1179         -1.9983          5.8492
LJ           -5.8571        -5.20739         1.52367
LJ           3.29558          4.4956         6.43818
LJ           5.42932        -6.04242        -2.53358
LJ           3.65428          1.2525         2.46372
LJ          -1.86125        -5.84161         4.97503
LJ          -3.56757        -4.27093       -0.593619
LJ            0.1352         3.22983         3.99002
LJ          -2.60577          2.1731         -6.3578
LJ           3.55401         2.23192         2.15742
LJ           5.15762         2.85893        -6.05884
LJ           2.22081        -6.35716        -3.77242
LJ         -0.519862        -3.47344         1.31824
LJ           6.14658        -3.00749         6.34042
LJ           5.68055         6.22321        -5.21484
LJ          -2.13286         2.60017         1.68769
LJ           3.04016         1.15595        -1.00186
LJ           5.84411         -4.7073        -1.46956
LJ           2.32386        0.724932         4.82048
LJ          -3.21331        -1.06691        -3.03879
LJ          -1.51858        -6.45978        -4.19905
LJ          -4.62449         1.52276       -0.510785
LJ          0.537474         4.23901         6.38029
