108
#Comment!
LJ           5.76157         2.66282      -0.0132412
LJ         -0.527068         -1.1328         4.77159
LJ          -2.73875         3.89097         2.47837
LJ           4.48637         -4.7241         2.52322
LJ          -3.52124        -3.60432        0.678071
LJ          -1.18985       -0.496682        -3.70932
LJ            3.1566        -4.73768        -3.20357
LJ           5.84463        -2.07072         3.97058
LJ         -0.523551         5.29749         1.93256
LJ           5.52432         6.13906         5.92482
LJ           -4.7837         4.84076        -5.20313
LJ          -4.94267        -3.84728         5.96599
LJ         -0.382011       -0.638835         3.34215
LJ          -1.31716         1.71975        -4.57503
LJ            -4.966        -2.26505         -1.5791
LJ           4.29533         3.19049        0.869645
LJ           4.34465        -5.64983        -3.48745
LJ           3.01057        -4.47952         -6.1393
LJ          -0.50145        -2.15925         2.09888
LJ           4.09996        0.981598        0.815949
LJ          -2.30115         1.86047         2.75504
LJ          -6.04049        -1.49566         2.68455
LJ          -4.61789        -5.00755        -5.52921
LJ            3.4513         0.87018        -2.07447
LJ          -2.97921         -5.1359          4.2593
LJ           1.82175          2.1535        -4.23285
LJ           6.26333       -0.175011        0.152654
LJ          -5.69348        -4.53876        -4.05228
LJ          -1.08284        -5.22883        0.449904
LJ           4.21213        0.259319       -0.706654
LJ           6.14868          -5.032        -3.55333
LJ           4.75857        -3.13943         -1.6071
LJ           3.31781         1.46459        -1.02996
LJ            3.8112        -3.41595        -2.06109
LJ          -5.10031       -0.358451         5.34949
LJ          -0.85628         5.31176       -0.915338
LJ           4.94081        -6.06094        -4.79847
LJ          -3.48176           4.623          4.9068
LJ           1.55887        0.967262         3.45715
LJ          -2.74657        -5.47184       -0.823318
LJ           2.55682        -3.50495         4.86372
LJ            5.3413        -2.99385         1.78596
LJ            2.2465          1.7463       -0.574349
LJ           5.64761         3.92483        -1.36203
LJ            5.7824         2.60142         6.23166
LJ            3.3896         2.31617      -0.0978104
LJ          0.027673        -2.60178         6.29033
LJ           6.38003        -3.83556        -4.05549
LJ           3.09403        -3.76331         3.72361
LJ           2.94968        -4.71413         5.48569
LJ           4.17479        -4.57377         6.12678
LJ           4.11322          2.6074          2.1784
LJ           2.89518         4.40311          1.3955
LJ          -3.45488         6.35213        -5.27111
LJ           3.83805      -0.0576336        -2.92955
LJ          0.503206         2.63246         4.29269
LJ         0.0450498         -4.8669        -4.56769
LJ            5.3195        -5.61487        -2.08563
LJ           1.16259        -6.39759        -3.41759
LJ           4.17183        -3.61365        -3.28394
LJ          -4.17311         3.81208        -4.76848
LJ           3.73588         3.56297        -4.67682
LJ           5.59677        -5.72707          5.1968
LJ         -0.801173        -1.85478        -3.67101
LJ        -0.0717358        -5.91239         4.41363
LJ           2.98721        -3.61784        -5.46419
LJ          -5.96227        -4.83649         5.17527
LJ          -3.42235         -5.3371         5.42106
LJ           1.45414         2.83038        -3.09189
LJ          -1.93379         1.86209         3.85719
LJ           -1.2348        -2.86418         4.96542
LJ           5.05883        0.655126        0.302286
LJ           4.88202         3.78559       -0.210222
LJ          -1.68971        -1.33802         -1.5214
LJ           2.08361        -6.15376        0.210742
LJ          -1.38855         4.06856        0.379063
LJ           3.99486        -6.41017        -5.81462
LJ          -3.73246         4.81514        -3.37224
LJ           5.03399        -4.30212        -3.74541
LJ           0.69588        -4.53725        -1.54721
LJ            3.1059           5.691        -1.65114
LJ           -1.5001       -0.872199         5.26195
LJ            2.1604       -0.289252         4.18666
LJ          -5.50049         3.03266          4.2475
LJ          -4.93001        -6.25142        -2.25838
LJ          -5.52742       -0.940504         6.27622
LJ         -0.696276         1.76358         1.67201
LJ           1.56868        0.435836         -6.0732
LJ          -4.23578         1.58198        -1.28653
LJ          -4.57656        -5.22491         4.58253
LJ           3.52322       -0.687287         1.55877
LJ           1.01181        -2.47119       -0.676212
LJ           4.15834         4.38167         4.56507
LJ         -0.089412         6.11745        -2.95662
LJ           2.70958         5.90528       -0.668839
LJ          -6.07226         5.20799        -2.02465
LJ           6.00915       -0.485916        -2.13295
LJ          -4.48968          6.3906          0.9912
LJ         -0.890118         3.02332        0.105286
LJ           -2.4434          3.4137         5.71535
LJ           5.34528         2.60166         1.88704
LJ          -3.39226         5.23059         3.42561
LJ           4.96159         3.82229         4.12918
LJ           4.99162        -0.56968         6.08945
LJ           3.50312        -4.99883         1.85098
LJ          -3.22644        -6.26943         6.35381
LJ          -3.33832        -1.10777         -1.4182
LJ         0.0703536        -4.51417        -3.36839
