108
#Comment!
LJ           3.36685       -0.433778         2.68539
LJ           4.08604        -2.62042         1.11383
LJ          -5.89617         3.24657        0.247491
LJ           1.43038        -2.14327         2.75019
LJ           5.21812         4.73256       -0.971181
LJ          -2.49222        -2.47445         3.00708
LJ           5.55943         2.62759        -5.39894
LJ            5.8163        -2.15446          2.6088
LJ          -5.05638         4.19175         3.39364
LJ          -4.96569         4.71465         -3.3147
LJ          -4.46634        0.146083         5.54752
LJ         0.0734238        -2.55587        -2.85164
LJ            3.7182        -1.91775       0.0158606
LJ          -3.67772         4.86376        -4.04335
LJ          -1.98169        -3.26163         5.68947
LJ          -3.32639          1.4855        -5.79253
LJ           3.92593         2.55689        -2.55135
LJ           4.67346        -1.18759        -1.73997
LJ           2.44018         4.20883         4.83917
LJ          -5.14944         2.10336        0.684901
LJ           3.78968         2.37793        -1.02879
LJ          -4.95808       -0.299239        -2.69755
LJ          -2.70673        -4.23326           4.985
LJ           -5.7768         5.15384        -4.05539
LJ           1.63399         2.57147        0.866014
LJ           2.95595        0.265003        -4.38207
LJ           6.35399       0.0298318        -3.49214
LJ          -2.91617      -0.0609114        -1.28913
LJ          -0.17282       -0.865745        -2.57876
LJ           2.75194        0.748422         3.10203
LJ          -3.39383         4.74581         6.18661
LJ          -1.94157        -1.31248        -4.37121
LJ          -3.19905        -3.19895         2.79463
LJ          0.737588       -0.758596        -3.35065
LJ           1.26622        -2.89278         4.23218
LJ           -4.4052         1.27144         5.52895
LJ           1.56009         0.35951        -3.52226
LJ         -0.413995        -5.96913       -0.577976
LJ          0.542355          3.4151         3.84968
LJ          -4.93719        -4.45719       -0.147178
LJ            3.5861        -5.40303        -3.64431
LJ          0.717023        -6.13604       -0.924925
LJ           3.90877         4.56388         -3.0297
LJ           4.88058         3.29907        -3.78236
LJ          -3.30367        0.537501        -6.45804
LJ         -0.329423        -2.65358         6.25204
LJ          -4.20457        -2.43933        -2.45353
LJ           3.89855        -5.34969         2.87447
LJ          -2.90177         1.17177       -0.355946
LJ           5.01922        -1.39382        -5.37715
LJ          -4.76632        -2.11241        -5.85214
LJ            4.7877         2.44987        -4.53785
LJ          -2.58731         6.29412        -5.01322
LJ           3.43937       -0.276845        -3.76601
LJ           2.31417        -4.53549         1.91095
LJ          -2.40953         3.88524         1.99432
LJ           2.82438         2.65856        -1.44391
LJ           -2.3388        -5.33849        -3.14682
LJ           2.74027         5.19209         3.30581
LJ          -2.72084        -1.58088        -5.86612
LJ          -4.43571         3.16283         5.82484
LJ           2.41088        -5.65906         4.43883
LJ          -5.50543         6.37702         3.57699
LJ          -4.69836         1.51612        -2.13929
LJ           4.88901         3.70413         1.69976
LJ          0.628152          4.3176         4.97352
LJ           3.91219         4.20404         1.96162
LJ         -0.325912        -4.83186        -2.88524
LJ           5.40949        -1.42563      -0.0445704
LJ          -3.42049        -4.86039       -0.402872
LJ          -1.50408         2.20838          2.3092
LJ           -6.3345         -0.6226         5.88554
LJ          -2.96902         -1.3759         4.43251
LJ          -5.49269         3.70265         4.57162
LJ          -4.05701         0.17942       -0.601745
LJ          -5.82128         3.03131         6.04367
LJ           5.18064         4.39626        -3.31781
LJ           3.45442         4.34212        -4.28087
LJ          -3.42088         1.69606         1.72624
LJ          -3.01584        -5.82953        -2.52158
LJ           -4.8191        -5.79001         3.67939
LJ          -5.12532        -3.32943         -5.9995
LJ          -6.09726        -4.60542       0.0798783
LJ           0.95036        -5.61097        -2.22953
LJ           3.77682        -3.39885       -0.490988
LJ           4.29364        -3.25077        -5.32822
LJ           1.11225        -6.19949         1.60966
LJ           5.40592        -2.36563        -1.01399
LJ            6.1066         3.39206         -1.3961
LJ          -2.52587        -3.17372        -3.14937
LJ         -0.742068         4.78279          3.5341
LJ          0.161108        -1.36998        0.596893
LJ           2.65692           4.056         3.65814
LJ          -2.39128         0.77451        0.902415
LJ          0.914413         4.24356          5.9502
LJ          -4.65957        -4.91332          2.2153
LJ           5.05984        0.332321         1.02074
LJ          -4.78556        -4.74282        0.913001
LJ          0.625563        -1.61377        -6.05232
LJ           5.78282        -6.04705        0.869279
LJ           -3.0007         -6.1081        -3.86545
LJ            1.4207          5.6022         6.31229
LJ           -4.6879        -1.77557         3.47284
LJ          -1.76689        0.841762         1.79823
LJ          -4.75249         0.38085          1.0475
LJ           3.26755        -4.98251       -0.931995
LJ          -3.95193        -4.81871        -2.78358
LJ          -2.04916         6.21629         4.13692
