108
#Comment!
LJ           4.28599        0.677364         5.39642
LJ           0.23291         5.10328         2.45255
LJ           5.13283          2.1688          2.8736
LJ          0.347522         6.04379         3.42403
LJ           3.29408         6.23365        -5.17653
LJ             3.512         3.88933        -3.86561
LJ          0.523363           2.273         5.10025
LJ             3.056        -5.63429         1.57819
LJ          0.224655        -2.66247         3.75504
LJ       -0.00934123         1.63759         1.77319
LJ           4.18541         1.68463        -2.96912
LJ           -1.1205         2.29383        -6.13457
LJ          -3.39456        -2.60917         3.12261
LJ          -5.06668         4.60796        -4.67944
LJ          0.035865          2.0232         6.22066
LJ          -1.75444       -0.204861        0.622399
LJ           1.65696        -2.38413        -1.69777
LJ         -0.970145        -2.15311        -0.20483
LJ           4.98859         -2.5309        -6.03442
LJ           1.09721         2.89805        -3.18875
LJ           2.91567         1.34778         4.55958
LJ           1.50754        0.421933        0.957565
LJ           3.74849        -2.46303         1.91522
LJ          -6.36387        -4.47945       -0.332172
LJ          -2.06379      -0.0568317         2.73198
LJ          -5.82993        -4.40193         5.48579
LJ           3.79365        -2.09097        -2.67998
LJ          -3.26982         6.07514        -2.79213
LJ          -5.82436        -3.06363       -0.216126
LJ           2.92337        -3.69285       -0.907157
LJ           2.74393         6.05052      -0.0168888
LJ           3.61802         2.73321        0.248924
LJ         0.0737624        -2.43843         5.53891
LJ         -0.483324         1.76407        0.150318
LJ          -5.12276        0.572934        -4.07915
LJ           1.02744          4.4453         1.84893
LJ          -3.35396      -0.0696317         3.91149
LJ          -4.89803        -4.72734         1.90557
LJ        -0.0852577        -5.28179         3.90964
LJ           1.85031          2.3608           4.023
LJ           5.52501          2.1997       0.0552452
LJ          -0.53556         2.89136          4.8133
LJ          -4.61719        0.962739         3.35156
LJ           2.53007         4.79893        0.300706
LJ          -4.62034          3.2558        -5.34903
LJ           3.14529        -5.88119        -3.05485
LJ         -0.196852       -0.329032         3.85287
LJ          -3.59934        -5.88066        -1.99312
LJ           -4.6117        0.825285       -0.149985
LJ          -5.00606       -0.044079        -1.78148
LJ           6.31687       -0.067289       -0.875891
LJ          0.100314        -3.92985          4.6663
LJ           5.97831          5.0424        -5.15976
LJ           3.66948        -6.35816       0.0258757
LJ          -3.03415         3.25594        -5.49384
LJ           4.10294        0.873386        0.443337
LJ          -1.62429       0.0510506         1.67545
LJ           3.52613         4.99847        -4.03637
LJ           -6.0614         1.39707         2.30724
LJ           1.62059         -1.6423         2.32886
LJ          0.466048         -5.2938         -2.1979
LJ          0.788844         2.83145        -1.30823
LJ          0.158111         1.44649        -4.38566
LJ         -0.849101        -4.68639         1.27063
LJ          -1.28359        -3.52016         2.20751
LJ          -5.73394      -0.0407086          5.6984
LJ          -5.40787         2.08295         1.46942
LJ           6.00195         -3.3543        -5.64366
LJ          0.186185         5.31085         4.68826
LJ           1.24845          1.6168        0.203491
LJ          -3.67441          3.3077         3.27696
LJ           3.73956         1.15537        -3.89056
LJ           1.94991         -4.7067        -1.56979
LJ            0.8873        0.345657        -6.16473
LJ           5.11104         5.03425        -3.24115
LJ            4.6536        -1.41513         -2.0975
LJ          -0.79553        -4.71361        0.125861
LJ         -0.326298        -3.67523         5.68386
LJ        0.00337504         2.15013        -2.70368
LJ           4.28181         2.95274        -2.45253
LJ           5.20101         5.81919        -4.06047
LJ          0.893519           1.495         5.85637
LJ           3.14911        -1.25415         2.36878
LJ           6.37777        -6.03179         3.71349
LJ          -2.52116        -4.93195        -2.45742
LJ           1.79431       -0.582881        0.696476
LJ          -2.12226        -2.32184         1.67349
LJ           1.40181         1.21534        -5.58961
LJ           5.36423        -5.54902        -4.38011
LJ           1.19374        -4.90299         2.87236
LJ          -1.34176       -0.889433         4.54103
LJ         0.0729741        0.541979        -4.83781
LJ          -3.72354        -1.43836           6.124
LJ           4.51212        -6.42994         -5.9471
LJ          -4.03483       -0.687578         2.79157
LJ          -2.97179         6.39232       -0.118195
LJ           3.58686         2.63919         1.31743
LJ           4.70384         5.48938        -5.59851
LJ          -3.43841        -6.21605        -3.49274
LJ            -5.604        -1.88419         1.01012
LJ           3.48064         2.17054        -3.34272
LJ          -4.33974         5.11816        -1.05191
LJ          -1.47291         3.83057        -1.22746
LJ           -3.0967        -2.83122        -5.27219
LJ          -4.20499        -4.04579         5.25338
LJ           -1.0573        0.521126         3.75956
LJ            2.4158      -0.0524611         1.52045
LJ          -6.00679         1.67085         -3.0856
