108
#Comment!
LJ          0.801301         2.14301         1.66991
LJ           5.04078        0.883717         5.21906
LJ            4.9222         1.98797         1.63945
LJ           1.82403         4.46892         2.98795
LJ           3.36128         1.26599          2.3378
LJ           1.31603        -2.30485         1.29615
LJ          -5.25499         2.68825        -3.10556
LJ          -3.68347         2.13292        -1.19634
LJ           4.50839         4.76087         1.68019
LJ          -3.17705         4.31042        -3.49355
LJ          -3.56621        -2.51064        -5.57182
LJ           -1.8007         3.38367        -3.73651
LJ             2.969         2.58651         2.08852
LJ          -2.29157        -5.44893        -1.61697
LJ         -0.689981         5.97087        -4.28181
LJ           -3.3082         -2.8543         6.06485
LJ           3.27364         1.00597        -1.19467
LJ           5.35999       -0.241662         2.05177
LJ            5.9673        0.543547        -5.47303
LJ          -3.97433         0.75686         4.74204
LJ           5.20638        -6.34814        -4.28526
LJ            2.5735       -0.507979         -1.1851
LJ          -6.29585        -2.15505         4.85724
LJ          -2.71648         2.91797        -3.17725
LJ             4.775         1.17793        -2.76985
LJ           2.04297       -0.295706         6.38717
LJ          -6.09391        0.805353        -0.51115
LJ          -4.33961        0.756929        -3.89034
LJ         0.0320051        0.832212        -5.21072
LJ          0.990902       -0.654685          4.2425
LJ          -4.48798          2.6644         3.05613
LJ          -2.31847         2.85043        -1.35548
LJ          -6.03624        -2.35126         6.44404
LJ           2.59085         -3.8102         -2.4662
LJ           1.55838        -3.24104        -5.57885
LJ          -4.98745        0.749275           5.104
LJ           1.27542        -4.77181        -2.26947
LJ          -1.60885        -6.06526        -3.80265
LJ         -0.887237         3.45954         3.13296
LJ          -4.76032        -4.42078        -2.08181
LJ            4.2067        -5.64635        -6.09481
LJ           -0.2384         -5.5469        -2.44312
LJ          -1.63855         3.77998        -5.25579
LJ          -4.64378         3.03943        -4.37198
LJ          -4.15143        -2.13191        -6.43105
LJ           1.62767        -2.29584         4.91282
LJ            6.4197        -6.01287      0.00330922
LJ            4.3467         -5.1021         1.68163
LJ           -5.0423         1.03584         4.09699
LJ           5.49475        -4.51271       0.0412274
LJ          -2.06585        -3.69633        -5.43573
LJ          -4.38045         1.88111        -3.07124
LJ          -3.04906        -5.36401        -2.66192
LJ           3.26018        -4.30757       -0.678343
LJ           0.71731        -4.59888         3.47767
LJ          -6.21674        -5.42046        -5.23411
LJ           3.34277          -6.383          -2.697
LJ          -3.63655        -3.54153        -5.32339
LJ           3.29636         4.12175         2.82952
LJ          -1.40811         1.82332        -3.38185
LJ          -3.51738         3.72735         5.65687
LJ           2.98027        -1.89834         3.44274
LJ           4.02336         1.99639         3.04568
LJ          -5.19759         4.38249        -1.02574
LJ           4.03822         2.51417         1.69474
LJ            2.4593         4.88301         3.93631
LJ           1.82527         1.96185        -1.25857
LJ           -5.0652        -4.86327        -5.52836
LJ           4.70276       0.0649784          4.5986
LJ          -3.07224         6.11567        -3.98023
LJ          -3.58439         2.65141         2.03385
LJ           3.70113       -0.767275          5.5733
LJ          -3.88697        -1.28619         4.59006
LJ           5.55155         5.72909        -6.39064
LJ          -1.62787         2.24212         -2.4199
LJ          -5.45902         1.43293         2.96925
LJ           4.59583         4.68589        -1.62326
LJ         -0.457554         3.82619        -5.98598
LJ          -2.22898          1.0504         -0.9532
LJ          -3.14696        -4.81536        -1.78037
LJ          -4.59105         4.04932         1.20296
LJ          -3.22781         6.18569         4.80264
LJ          -3.76202        -4.02585        -1.16027
LJ           1.83601        -6.43724        -3.34852
LJ          -6.06622         1.92573      -0.0271814
LJ           4.49585        -3.98009        -6.03475
LJ            3.0896         6.30628         3.87685
LJ           5.80634      -0.0658051         3.07866
LJ           6.06459         3.98453        -2.17113
LJ          0.013973       -0.872587        -6.16997
LJ          -1.59257       -0.231469         3.15951
LJ          -1.27733        -2.78922       0.0936561
LJ           2.96513         4.71153         1.91959
LJ          -2.29871         2.29389       -0.527392
LJ           2.51751         5.80266         4.64288
LJ          -4.92651         6.02457         1.68891
LJ           2.80683         3.24841         3.25062
LJ          -4.81202       -0.984738       -0.280909
LJ           3.11515         -2.2559        -4.40461
LJ           -5.2159        -5.25419         4.26857
LJ          -2.92358         5.67957        -5.46016
LJ           2.31167        -3.94786         3.54911
LJ           5.62413        -3.14843         1.70458
LJ            1.2394       0.0985473         3.00465
LJ          -4.43333         2.81474         1.13178
LJ          -5.50968        -5.81445        -2.64425
LJ           -3.8072        -1.62419        -3.44004
LJ         -0.743691         2.89411        -5.32764
