108
#Comment!
LJ           4.77333        0.301641         5.76038
LJ         -0.376454          4.3122         3.53653
LJ           6.38833         1.85292         3.49473
LJ         -0.161232         5.58214         2.94037
LJ           3.67535         5.41081        -4.06527
LJ           3.90442         3.36493        -3.17068
LJ           1.00361         2.94912         5.33165
LJ            2.8042         6.26995         2.82965
LJ          0.856982        -2.80521         3.42778
LJ         -0.497045          1.9406         1.76137
LJ           4.86896         1.59922        -2.59375
LJ          -1.07521         2.07745        -5.59193
LJ          -3.43699        -2.00374         4.63089
LJ          -5.86321         4.18886        -5.13752
LJ         0.0493908         2.50123          6.1735
LJ           -2.5165        0.799956       0.0174809
LJ           1.15674        -1.78866        -2.00215
LJ          -1.28592        -2.79232       -0.471187
LJ           5.77904        -2.04351         6.28838
LJ          0.269207         3.67739        -2.72282
LJ           2.59782         2.32287         4.75808
LJ          0.395087         1.08182          1.0575
LJ           3.67655         -2.6854         2.14452
LJ          -6.32253        -4.55522        0.121568
LJ          -2.73849      -0.0427284         2.84341
LJ          -4.32564        -3.63139         5.59716
LJ           3.68226        -2.56213        -2.91326
LJ          -3.62221         6.00088        -1.75918
LJ          -5.37242        -4.00522       -0.716547
LJ           2.23835        -3.34913        -0.74552
LJ           2.73117        -6.33295       -0.409671
LJ           2.67443         2.49439        0.140676
LJ         -0.333353        -2.49427        -6.42114
LJ         -0.134603        0.484665       -0.185041
LJ          -5.22342      -0.0172705        -3.60604
LJ          0.313555         4.34427         1.37021
LJ          -3.26441        0.411979         4.36382
LJ          -3.70719        -4.30008         2.78742
LJ          0.812891        -5.59902         3.28124
LJ           1.63445         3.15464         4.56358
LJ           5.39005         1.53853        0.386077
LJ        -0.0931705         4.13663         4.90165
LJ          -4.51169        0.393738          2.2328
LJ           2.83709         5.56913        0.205056
LJ           -4.0563         3.95503        -4.87389
LJ           3.57261        -5.10717        -2.47103
LJ          0.689051        0.601427         4.42148
LJ          -3.62141        -5.82894        -2.01048
LJ          -5.29287        0.520119        0.317413
LJ          -5.35282        0.555782        -2.18619
LJ           5.41732        0.466079        -1.52762
LJ           1.58211        -3.39252         4.49433
LJ          -6.41548          3.6155        -4.15858
LJ           4.99692         5.51932      -0.0406813
LJ          -3.57802         2.32415         6.03711
LJ            3.9209          0.5532        0.565561
LJ          -1.26919         0.15997         1.64263
LJ           4.17126         4.73186        -5.07168
LJ          -5.70278          1.8078         1.60101
LJ           2.11636       -0.908531         2.72975
LJ          0.179457        -5.94557        -2.62478
LJ         -0.353566         2.69426       -0.907662
LJ         -0.435438         1.20615        -3.66411
LJ         -0.789537        -4.37191         0.55106
LJ          -1.10179        -3.51166         2.39254
LJ          -5.82349         2.25775         5.93405
LJ           -4.6392         2.23509         2.17035
LJ           4.54438        -3.85488        -4.82638
LJ          0.225712          5.9156         4.60349
LJ           1.73448         0.70026        0.022596
LJ          -4.33535         3.76109         3.98297
LJ            4.1906         1.64523        -3.79724
LJ           1.85606         -5.1524        -1.66466
LJ           0.75628        0.243639        -6.23653
LJ           4.00418         5.58013        -2.82887
LJ           5.10111        -1.65846        -2.16283
LJ         -0.462599        -4.94575       -0.427244
LJ        0.00232468        -4.48634         4.85184
LJ         0.0831077         2.37253        -3.18471
LJ           4.53813         4.72973        -2.62436
LJ           4.50473          6.3683        -4.55965
LJ          0.947861        0.981446         5.67446
LJ           3.25823       -0.996646         1.88311
LJ           5.38874        -5.54077          3.8396
LJ          -2.42392        -5.40071         -2.1333
LJ           1.25412       -0.684094         0.84889
LJ            -2.818        -1.98252        0.657945
LJ           1.63057          1.1619        -6.33167
LJ           5.54828        -5.24935        -4.70463
LJ           1.32168        -4.47531         2.41423
LJ          -1.43462        -1.54896         4.21503
LJ         -0.185267        0.242309        -5.73156
LJ          -3.96622        -2.76809         5.52451
LJ           4.83952        -5.82463        -5.73114
LJ          -4.06061        -0.50056         2.19509
LJ          -2.49212         6.06729        -0.44849
LJ           3.16425         2.08898         1.14003
LJ           4.21328         5.72604        -5.64931
LJ          -3.18358        -5.58803        -3.80126
LJ          -5.93622        -2.95307      -0.0803134
LJ           2.39395         2.00256         -4.2091
LJ          -3.69222         5.20774       -0.489104
LJ          -1.43146         4.52598        -1.73131
LJ          -2.77945        -3.51857        -5.10694
LJ          -3.68058        -5.37091         5.56989
LJ          -1.08086       -0.926328          3.3302
LJ           2.70507       0.0168772         2.43895
LJ          -5.64599         1.58776         -3.0987
