108
#Comment!
LJ           5.32487        -3.29356         4.97304
LJ           5.75183        -5.62547        -4.86481
LJ          -1.24169       -0.416648         1.90008
LJ           1.63869       -0.390802         3.37465
LJ           3.16503        0.310643         3.52618
LJ          -1.53206        0.341658         2.83377
LJ          -2.93751        -5.96134        -4.20151
LJ           4.39034         5.60281        -4.16191
LJ          -1.77498         3.34309         4.54614
LJ           1.47337        -5.73356         6.44618
LJ          -5.65931         2.65386           -5.21
LJ         -0.231487        -3.22082        -5.75638
LJ           2.28391         4.59682        -5.01196
LJ         -0.633695        -3.90027         1.15427
LJ         -0.864777         1.35951         1.28464
LJ          -6.00549         3.78057         4.50273
LJ         -0.489419         3.56174        -3.60603
LJ          -1.63668        -3.51636        -6.03029
LJ         -0.943604       -0.468179         3.94206
LJ           4.01686           2.889         4.00413
LJ           3.34512          5.3519         1.22703
LJ         -0.244912         2.70165        -5.46218
LJ           5.40132        -4.40881         -5.3116
LJ          0.731929        -4.26851         4.03363
LJ          -1.21794         5.53508         5.30343
LJ           1.03582         3.04923       -0.929101
LJ          -5.24904        -3.24688         6.12973
LJ          -1.71125         5.32379       -0.844714
LJ          -4.51125         5.98094        -1.51399
LJ          -1.71375        -4.38587        -1.84539
LJ         -0.149427         2.70684       -0.731333
LJ          -5.12958         5.96912         3.45017
LJ          -2.52646        -5.91667        0.401948
LJ          -4.50665        -4.21739        -6.24351
LJ           1.33598         4.16789        -2.43778
LJ           3.19696         5.62164          2.5514
LJ           2.73314          5.7266        -4.70203
LJ          0.801099        -4.53038         1.07183
LJ          -2.38563        -2.48786         5.75186
LJ          -5.52199        -1.79132         4.02521
LJ          0.144971        -3.15341        0.224196
LJ           1.92224         -4.5594         1.84173
LJ          -6.14631         3.50689        -5.01282
LJ         -0.348128         6.09355         2.26609
LJ          -2.22714         2.38241        -6.46327
LJ          -1.46747        0.342179         1.00155
LJ           3.16389        -4.46427        0.891999
LJ          -3.36528         6.18732         5.45342
LJ          0.974708         -3.0279         -4.7624
LJ           3.57416         5.27689        -3.47548
LJ          -3.53805        -3.34802        -5.28965
LJ           4.52932       -0.897586         1.74278
LJ          -3.35541        -1.46642         3.35187
LJ          -2.14955         4.05674        0.214855
LJ           4.91385        -5.50151        -5.53926
LJ          -1.28638        -1.35663         3.61899
LJ           5.26967       -0.548483        -3.08609
LJ          -1.01665        -3.96829        -3.94636
LJ          -3.74961         4.44792        -5.49825
LJ          -3.58243        0.686492        -5.00313
LJ          -4.32808       -0.800451         3.15076
LJ          0.587291         2.02032        -5.45351
LJ          -3.81679         -5.9444        -6.17148
LJ          -1.74422        -0.79957        -5.41365
LJ           6.24382        -1.97798        -4.72596
LJ          -3.19365         5.55444        -5.53472
LJ            2.4618         4.27444         1.10587
LJ           2.19915         4.77148         6.33479
LJ            5.4757        -1.45621        -6.13704
LJ           2.59161        0.248048        -5.74555
LJ          0.290031       -0.795779           4.503
LJ         -0.132838         1.22403         2.63116
LJ          -4.43714        -6.03877        -4.71655
LJ           5.45371         2.27589        -1.92396
LJ           2.48224        0.588478         6.13909
LJ           5.59805         4.11294           4.433
LJ          -3.84515        -5.26126        -1.95562
LJ          -5.28622         4.93108         -5.0908
LJ           3.85048         2.89724        -2.43304
LJ          -1.43257        -4.52338        -2.90018
LJ         -0.636854        -2.44265        -4.76932
LJ          0.358307        0.860222         6.11652
LJ          0.847858        -4.32024         2.31628
LJ          -3.41086        -4.00059         2.52126
LJ           4.83838        0.485046        -2.48418
LJ          0.310297       -0.845642         6.43605
LJ           3.42834        -4.32084         5.08272
LJ            5.7082        -6.15988        -3.21783
LJ           5.32139         2.80039         -5.0583
LJ           4.11429        -6.12114        -4.06746
LJ           1.46027        -3.54795         0.85023
LJ           1.23532        -1.61782        0.845129
LJ           5.44028        -4.39604         5.49715
LJ           3.35004       -0.233054         5.61978
LJ          -2.38312        0.105723         -3.7095
LJ           -4.4144        -1.71994           4.088
LJ          -4.71058        -5.35746        -1.19882
LJ          -4.26565        -3.01811         3.54271
LJ          -4.80862        -4.32195        -5.18845
LJ           4.41113         1.88852         3.26566
LJ          -3.66255       0.0868629         0.76675
LJ         -0.860966         1.43088        -5.16834
LJ         -0.429029       -0.466808       0.0090119
LJ          -1.47274          2.1149          1.8023
LJ           5.99186       -0.110207         5.32631
LJ          0.452473         5.78053         1.06868
LJ           -4.5231         2.92322         1.75274
LJ           5.68802        -3.64863        -4.55755
