108
#Comment!
LJ          -5.23218        -3.62254         3.85141
LJ          -2.48359         5.75013        -4.63253
LJ          -1.21768         5.52146        0.805585
LJ           5.55939        -4.85028         4.76234
LJ           5.44642       -0.899037        -4.53962
LJ          -2.72132         1.96986         4.68635
LJ           5.65689        -1.99966        -4.69542
LJ          -5.19937         4.29309       -0.765349
LJ          -5.90663         3.40174         2.59919
LJ           5.47795     -0.00763731        -4.82494
LJ          -6.01801        -1.22427         4.58919
LJ          -1.33845         -5.0984         6.02441
LJ           1.41974         3.42337        -5.51423
LJ            3.9852        -2.92791          1.0733
LJ          -6.41685          -1.792        0.663599
LJ           4.29105         3.32315         2.10696
LJ           5.21338       -0.266788         3.20697
LJ          -5.07677        -5.44853         6.19424
LJ          -3.00363         1.90657          3.0149
LJ          -5.24195          1.1157         1.59873
LJ           3.71991         3.16694       -0.819201
LJ         -0.609644         3.93159         4.96918
LJ            5.8395       -0.338506         4.10069
LJ           4.97875         -4.5345        -1.33622
LJ         -0.899163         3.71628         6.07754
LJ           3.19491         -4.2768         6.31062
LJ           5.16343         2.29057        -5.59487
LJ          -2.67404         4.88821        -1.65357
LJ          -2.97456         2.50514       -0.590768
LJ           5.11376         2.88067        -2.42359
LJ          -2.97996        -3.43405          2.5791
LJ          -6.38769        -5.64854        0.329168
LJ          -2.32421        -2.45252         5.77894
LJ           0.55113        -4.09397         -3.3878
LJ          -3.62141        -5.99116        -6.34581
LJ         0.0290301        -5.93984         1.68989
LJ          0.911079        -4.83957         6.33799
LJ          -2.84933         2.66518        0.850995
LJ         -0.873497        -3.39518          6.4164
LJ           3.31119        0.929579        -2.41349
LJ           1.30939         4.70087        -6.41817
LJ           5.55077         -3.5552        0.245947
LJ            6.2465        -3.36882        -4.21039
LJ           1.59974        -3.65037       -0.760817
LJ          -5.34338         4.38519         5.39417
LJ          -5.58029        0.348244        0.861214
LJ            1.6867        -5.30573          4.2621
LJ            2.0022        -5.31922         2.37262
LJ           2.16341        -5.77116        -6.46257
LJ          -3.28792         6.25836         1.87723
LJ          -4.66886         6.20466        -3.70489
LJ           4.64147        -5.72745        -1.18926
LJ          -1.95599        -4.25767       -0.226989
LJ           1.12288         5.17471       -0.510507
LJ          -4.63751        -3.48528         5.21292
LJ           2.74854         5.68238        0.513736
LJ          -2.95894         5.11195        -2.73832
LJ           5.36942         6.16662        -1.10439
LJ          -4.07978        -4.46459         4.03727
LJ           -5.7319        -5.42669       -0.817453
LJ           4.55524         4.04616        -1.33025
LJ           2.85837      -0.0606922        -4.67087
LJ          -5.55658        -3.28911        -4.85888
LJ         -0.249551       -0.686798         5.77828
LJ          -6.28105         5.98345         -1.1876
LJ           3.30338         3.73134        -2.41748
LJ        -0.0836287         5.37526       -0.392385
LJ          -5.48887         -4.9702        -3.04091
LJ           5.08146         1.65268         5.80162
LJ          -3.79663         3.56007         -1.5317
LJ          -1.04482       -0.852265          1.2598
LJ           2.18528       -0.749549         3.37316
LJ           3.51549        -5.26889        -3.83654
LJ         -0.430241        -2.10451       -0.481413
LJ           -4.7499         2.88078        -3.79289
LJ           5.20043         4.45251         1.54964
LJ          -2.02024        -3.37988         1.36488
LJ          -4.25302         5.37177        -6.27536
LJ          0.697191         5.41926        -4.84869
LJ           4.12536        -1.25496         -2.9671
LJ          0.736352        -4.88785        -2.58927
LJ          -4.04165         1.25797         5.20164
LJ           6.34378         -1.9901        -1.39736
LJ          -3.75339         1.65504        -2.66707
LJ           3.18203         3.04228          2.9895
LJ           1.71408        0.348628        -2.09145
LJ           4.96711         5.22092        -3.89975
LJ          -3.23575         5.09132        -5.47801
LJ         -0.646181         2.46036         5.11843
LJ          0.519309         5.79777        0.672196
LJ          0.178183        -4.60042          5.3205
LJ           5.79516        -4.61959       -0.363381
LJ           4.11115        -5.33281         3.03035
LJ          0.925989       -0.757888       0.0651055
LJ          -4.28836        -1.42525         6.34221
LJ           6.08549        -5.88189         1.23835
LJ           1.96121         5.66555        -4.01393
LJ          -2.99732        -4.19408         3.95055
LJ           3.62693         1.52729         -3.6184
LJ          0.601274         1.77385        0.419526
LJ           3.60652        -5.09419        0.536495
LJ          -1.70422         1.54395         4.34646
LJ          -4.47495        -3.16401        -5.73859
LJ          -4.23701         4.45913         1.29662
LJ          -6.42367         1.01127        -6.23097
LJ         -0.292693         3.36383       -0.143175
LJ          -4.31274        -1.25956         5.39869
LJ           2.01314         -5.6296        -3.51441
