108
#Comment!
LJ          0.030605          0.8114        -1.28823
LJ           -2.5588       -0.775211         2.50454
LJ           6.16165        -1.45944         4.46662
LJ           -4.8216         6.40387        -6.30438
LJ           5.41301         5.47244        -1.41907
LJ          -1.22118        -5.76593         3.65388
LJ           6.37907        -4.93057        -3.66818
LJ           4.51037        -5.54568        -1.21053
LJ          -3.76421        -1.06548         3.75482
LJ          0.339556         3.77609       -0.200715
LJ         -0.215742       -0.946552       -0.251704
LJ           4.68364         2.42891         4.32678
LJ           1.47602         5.22364        0.246683
LJ          -0.72464        -3.32286         6.07031
LJ           4.29967         2.04014          6.0831
LJ          -6.06283        -2.53113        -3.65422
LJ          -2.97848         4.93654        0.134918
LJ           3.65986        0.717175         3.36581
LJ            2.7217         -6.1668         5.02484
LJ          -6.41094        -5.42256        -2.63017
LJ         -0.992603       -0.667181        -5.33688
LJ           1.83013        0.440022       -0.446554
LJ           1.37906         1.27879        -2.53083
LJ          -5.02486          1.3783          4.7765
LJ           1.04835        -1.58204        -5.22747
LJ           5.21923         -3.5196       -0.106212
LJ          0.381947        -2.35069        0.539889
LJ           5.95377         2.44932         3.33063
LJ           2.21581        -6.18452         1.27524
LJ          0.815222         1.31053         6.34768
LJ           2.47791        -5.99637         3.15447
LJ          -2.02471        -3.45714        -2.02248
LJ          -3.62638         -3.6044         -2.8877
LJ           3.76166        -0.70702           4.349
LJ          -3.41498         5.42679        -6.11338
LJ           2.54386         6.30326        -5.87885
LJ           2.72304        -1.13512        -1.58977
LJ           2.96414        0.448989         0.79519
LJ          -5.61179         1.90488        -2.68896
LJ           2.99529         1.59028          4.2158
LJ         -0.695538        0.923462         2.56536
LJ           1.04693         3.29388        -2.22931
LJ          -4.66401         -4.5781         4.47551
LJ           4.41677         3.56969         4.16522
LJ           1.91538         1.35497        -3.56736
LJ           4.08653         6.31297         3.22062
LJ          0.873762         2.64191         4.40146
LJ          0.895391         2.76654        -3.08264
LJ          0.768082         4.81122         3.42219
LJ           1.36475         6.38908        -5.08242
LJ            2.8976         2.37973        -5.29815
LJ           -3.7387        -5.10195         2.90141
LJ          -2.50711        -4.63158         -4.8597
LJ          -2.92819        -2.85741         5.04696
LJ          -3.70251         1.48223        -4.92387
LJ           2.47627         5.08471         6.23114
LJ         -0.946682         1.58157          5.2329
LJ           3.75086       -0.219023         6.15781
LJ          -4.68363        -4.65067         5.69834
LJ           4.70472        -3.72575         6.01025
LJ            2.4892         4.18385        -1.12326
LJ           5.60413        0.300802        -2.71676
LJ          -5.76353        -2.38814          4.5477
LJ          -5.51007        0.473291         4.15694
LJ          -5.65518         1.57642        0.176219
LJ          -3.40576        0.148039        0.263241
LJ          -2.14148        -1.86474         6.10065
LJ           1.26032         2.21129        -2.07454
LJ           -5.4333        -1.66748        -1.11785
LJ           2.21218         -6.1418        0.130969
LJ          -4.80924         2.34922         4.86069
LJ           6.38262         0.83169        -3.48378
LJ           5.43348          5.2523         3.84751
LJ          -1.94424        -3.79485         5.31417
LJ          -1.39563         2.10294        -3.55746
LJ           2.67421           5.569         1.59616
LJ          -5.89104         5.47279         5.43111
LJ           0.28652        -5.81119        -1.41431
LJ           4.54277        -2.99279       -0.768003
LJ           1.62012         5.15534         1.51057
LJ           -2.0783        -5.02364        -5.89499
LJ           5.35231        -5.78376        -3.92245
LJ         -0.876972         1.12455        -2.87714
LJ           0.14189       -0.262712        -5.66706
LJ           1.67329        -5.00497          5.7017
LJ          -2.29308         1.63017         4.18144
LJ            -4.307         2.35672        -4.06344
LJ            1.4948         3.03966        -6.24669
LJ           1.15674        -2.05305        -2.23037
LJ          -4.97489        -2.23739        -5.80331
LJ          0.230278        0.911588         4.47329
LJ           4.91248        -3.39439         2.41879
LJ         -0.185091        -1.32006        -2.97405
LJ          -2.52114       -0.376419        -3.71262
LJ          -2.48815        -1.03308        -1.03741
LJ           2.27211         2.15597          1.7152
LJ          -4.92035        -2.69861        -3.88328
LJ          -5.63754         1.55884        -4.00369
LJ           1.60362        -5.39605      -0.0329322
LJ           -3.3601        -2.74115        -1.92064
LJ         -0.559515        0.949479         6.01188
LJ          -3.93852         2.57971         2.05262
LJ           4.04272         1.07994        -6.41594
LJ           4.61725         1.66485         3.31117
LJ          -1.03821        -0.94412         2.67871
LJ         0.0364783        -6.11664        -2.58846
LJ           4.25811       -0.595447        0.604241
LJ           4.35905         4.46818        -2.68411
