108
#Comment!
LJ          0.709136         2.25677         1.63524
LJ           5.05034         1.03538         5.41363
LJ           4.87817         1.85914         1.77621
LJ           1.73974         4.15495         3.00075
LJ           3.16475         1.08095         2.33214
LJ           1.48385        -2.29421         1.21338
LJ          -5.03317         2.75659        -3.13466
LJ           -3.4717         2.37222        -1.33671
LJ           4.32267         4.76811         1.62813
LJ          -3.01404         4.29235        -3.41319
LJ          -3.55174        -2.41832        -5.59065
LJ          -1.95505         3.56303        -3.79434
LJ           2.89677         2.74097         2.32915
LJ          -2.06093        -5.40406        -1.76881
LJ         -0.681309         5.83432        -4.10227
LJ          -3.35359        -3.10181         5.98697
LJ           3.17062         0.80497        -1.21797
LJ           5.32222       -0.204024         2.14847
LJ           6.12246        0.380232        -5.36164
LJ           -3.9655        0.693984         4.90064
LJ           5.29116        -6.27444        -4.47754
LJ           2.24509       -0.439763        -1.18956
LJ          -6.45632        -2.17222         4.91511
LJ          -2.54862         2.81346        -3.22585
LJ           4.92534         1.17189        -2.86631
LJ           2.00351       -0.328713         6.28965
LJ          -6.14168        0.963159       -0.402344
LJ          -4.49644        0.852324        -3.94099
LJ          0.122823        0.931457         -5.3639
LJ          0.916001       -0.708913         4.23642
LJ          -4.52387         2.59165         2.87678
LJ          -2.37276         2.98068         -1.3857
LJ          -6.26656        -2.27748        -6.39902
LJ           2.58389        -3.96999        -2.37657
LJ           1.55118        -3.23445        -5.45492
LJ          -5.02833        0.582948         5.11827
LJ           1.33705         -5.0064        -2.16955
LJ          -1.66431        -6.09211        -3.93914
LJ         -0.941476         3.45016         3.09767
LJ          -4.80714        -4.44759        -2.13964
LJ            4.2238        -5.71909        -6.18671
LJ         -0.220447        -5.50389        -2.47814
LJ          -1.85494         3.66279        -5.43492
LJ          -4.54615         2.94252        -4.34212
LJ           -4.0712        -2.14589        -6.41707
LJ           1.74577        -2.29236         4.85945
LJ           6.18179        -6.08044       0.0958725
LJ           4.36237         -5.0904         1.62954
LJ          -5.17474         1.17737         4.22855
LJ           5.51516        -4.66181        0.284452
LJ          -2.00554        -3.84377        -5.46321
LJ          -4.29257         1.83605        -2.92161
LJ          -3.14896        -5.33438        -2.57898
LJ           3.30745        -4.25313       -0.462816
LJ          0.731286        -4.58991         3.56759
LJ          -6.07387        -5.21373        -5.57864
LJ           3.15521        -6.24757         -2.5805
LJ          -3.62304        -3.64775        -5.33629
LJ           3.28819         4.18119         2.74975
LJ          -1.26072         1.97476        -3.42698
LJ          -3.46705         3.78519         5.62216
LJ           2.99083        -1.73853         3.39755
LJ           3.97238         1.84855         3.00766
LJ          -5.20751         4.56182       -0.969684
LJ           3.92583         2.65431         1.91901
LJ           2.60542         4.86166         4.00306
LJ           1.73707          1.9233         -1.4673
LJ          -5.26266        -4.79879        -5.67267
LJ           4.69036         0.11012         4.86195
LJ          -3.03402          6.1102        -4.13087
LJ          -3.57663         2.65811         2.14196
LJ           3.58179       -0.755297          5.5403
LJ          -3.92729        -1.26974         4.61596
LJ           5.46738         5.81559        -6.30441
LJ          -1.59011         2.54639        -2.33122
LJ          -5.33748         1.33825         2.88181
LJ           4.64924         4.79391        -1.62842
LJ         -0.725524         3.79458        -6.08385
LJ          -2.20859         1.04091        -1.12027
LJ          -3.13837        -4.76112        -1.67411
LJ          -4.58013         3.90046         1.08704
LJ            -3.143         6.04047         4.70891
LJ          -3.58364        -4.02609        -1.23166
LJ           1.71582         6.34391        -3.46667
LJ          -5.81262         1.98018      -0.0983305
LJ           4.51715        -3.95279        -6.07609
LJ           3.20546         6.34857         3.89693
LJ           5.85233        0.061622         3.25902
LJ           6.04973         4.00601        -2.23051
LJ          0.217035       -0.741078        -6.30578
LJ          -1.61997       -0.448314         3.25865
LJ          -1.33735        -2.85301       0.0819685
LJ           3.08502          4.7002         1.85169
LJ          -2.39277         2.23915       -0.543729
LJ           2.57618         5.87154         4.55611
LJ          -5.01509          5.9379         1.84575
LJ           2.63105         3.29068         3.36616
LJ          -4.68229        -1.04526       -0.224271
LJ           3.22159        -2.28111         -4.4168
LJ           -5.1268        -5.22034         4.41931
LJ          -2.93425         5.60241        -5.62247
LJ           2.32934        -3.80234         3.40973
LJ           5.50338        -3.20331         1.62287
LJ           1.40404       0.0572427         3.08532
LJ          -4.49655         2.93315         1.06292
LJ          -5.31759        -5.85362        -2.72904
LJ          -3.79356        -1.54994        -3.33849
LJ         -0.675186         2.82646        -5.13479
