108
#Comment!
LJ           1.65447         3.49748        0.864302
LJ        -0.0160072        -3.46921        -1.80737
LJ          -1.24489          3.8263          2.3317
LJ            4.8186        -4.81632          6.4065
LJ          0.690025        -5.76886       -0.579509
LJ           6.04858         2.80613         4.66115
LJ           4.41577        -2.41233        -4.73859
LJ          0.395896         1.68605        -1.30713
LJ          -3.78292         1.37677          6.3157
LJ          0.125349         2.22738         1.82194
LJ          0.455071        -4.83044        -3.05487
LJ          -3.28336         2.75436         3.18058
LJ           -1.9602         5.58773         4.51452
LJ           3.99885        0.733851        -5.64932
LJ           6.00525        -3.66771         3.81484
LJ           3.73602        0.579657         6.01995
LJ          0.864572         1.06966       -0.491226
LJ           2.16379         2.56799        0.551014
LJ           2.82644        0.697628         -2.5194
LJ            5.1687        -1.46695        -5.30036
LJ          -4.81215        -5.23486         6.06255
LJ          0.271771         -3.9216        -3.70079
LJ          -4.93534         -3.5524        -1.69098
LJ          -5.68847        -1.35163         -3.3653
LJ         -0.974273         1.68911          2.9853
LJ          -4.81971         4.07196         4.80903
LJ           2.77211       -0.105864       -0.915187
LJ          -2.26422        -4.38589         4.99755
LJ          -3.63375        -3.31284        -2.25104
LJ           5.46047         5.57874        -2.17632
LJ          0.425969       -0.700027         1.19101
LJ          -4.97623         2.21967         2.06452
LJ          0.217933         6.05178         3.68131
LJ          -4.21763        -6.39077         3.81278
LJ           5.67713         4.48754         5.40702
LJ           2.87011        -3.15412         4.62216
LJ          -1.58099      -0.0997399        -5.48109
LJ          -5.65875        -4.36459         4.21571
LJ          -5.86413        -6.34337        -4.30709
LJ           1.45806         2.41022          2.3409
LJ          -6.46136         5.15661        -2.41324
LJ           5.04494        -2.67815         6.20629
LJ          -4.59685        0.170078        -5.08328
LJ           1.39687         1.78046        0.400893
LJ          -5.71471         1.66879        -3.83368
LJ           0.29868         5.45037         5.85114
LJ           6.03501         3.11561        0.588101
LJ         -0.735787        -5.98131        -3.22635
LJ          0.874705         2.61701        -3.70093
LJ          -2.00222        -3.84726         2.15166
LJ          0.239279        -5.04693         5.71619
LJ           2.70373        -4.98088        -6.13179
LJ           3.54714         4.63241         1.27311
LJ          -4.24332       -0.314039        -4.08636
LJ          -2.04265        -6.03633        -3.12185
LJ          -4.53043         3.44171         2.36418
LJ          -1.28769        0.524657       0.0101001
LJ         -0.248857         4.57093         3.83822
LJ          -5.37393        0.515497         4.81414
LJ          -1.04396        -4.94845        -3.45351
LJ           6.43662        -5.67795         3.18256
LJ          -6.39346          4.3087        -5.06335
LJ           2.33512         4.14159        -3.71996
LJ          -2.08297        -2.66423         4.15543
LJ          -3.10561        -2.94946         4.67639
LJ          -1.85784          1.6479       -0.603724
LJ           1.98344       -0.385069         1.66451
LJ           5.01236       -0.150448        -1.88515
LJ            0.3226         1.38672         2.57983
LJ          -2.06305        -1.43852         1.55325
LJ          -2.19408         2.31884         2.16603
LJ           5.72185        -6.16965        -4.32426
LJ          0.123244         5.03073         2.23169
LJ           2.44409         4.65932        -2.68238
LJ             -0.43        -1.47365         4.49592
LJ           1.78115          3.1184        -3.37087
LJ          -3.29019        -4.41795        -6.35696
LJ         -0.522513         2.93492         2.31799
LJ           2.34776         5.10605        0.475072
LJ           1.23231      -0.0154656         -1.1985
LJ           5.34192        -4.53913         -2.9316
LJ        -0.0158976        -0.58636        -2.77531
LJ          -1.42782        -3.86271         1.27333
LJ          0.740394         3.08945         2.02711
LJ          -3.36489        -3.61063        -4.52232
LJ          0.367377         3.82251         5.27827
LJ          -1.64321         4.61315         5.11906
LJ            1.3955         3.42922        -4.38053
LJ           5.69292         1.44925        -2.96231
LJ           2.38227         4.62122        -6.09905
LJ          -4.26913         1.76879         4.42828
LJ        -0.0904905        -2.23095         -3.0311
LJ          -3.91213        -2.19034        -2.97382
LJ           5.49827         3.01271        -5.71693
LJ           2.84132        -6.37434         4.91053
LJ           5.83513        -3.76084         1.70159
LJ            6.1294        -5.92788        -2.22886
LJ          0.307992         6.08035         -3.0132
LJ          -4.72776        -5.13641        -3.05235
LJ           -3.8188         6.31668        -4.95734
LJ       -0.00523007        -5.43999        -2.22047
LJ           4.44351         2.67768         -5.5356
LJ          -3.53853        -4.60992        -2.56556
LJ          -6.15639        0.373902         5.56913
LJ           4.05343        -1.96918         1.20358
LJ         -0.700676        -6.23127         3.68562
LJ          -2.67712        -3.88583       -0.826116
LJ           5.31463         4.01896        -4.73378
