108
#Comment!
LJ          -1.28133        0.823162        -2.59694
LJ           -2.3153        -0.83311         1.20857
LJ          -5.96361        -1.98015          4.5821
LJ          -5.37029        -6.18267        -5.13173
LJ             -6.46         5.80117        -2.42961
LJ          -2.07851        -4.10814         4.52563
LJ          -5.72703        -5.40788        -3.97308
LJ           4.11465         6.41674       -0.842647
LJ           5.98585         -1.5809         3.19599
LJ           1.60048         3.19653        0.889648
LJ         -0.797432        -1.66657         1.55817
LJ           3.78936         1.84574         3.67946
LJ           3.26184         4.92743        0.900334
LJ          -1.13881        -2.61618         6.18291
LJ           5.47371         3.08587         5.12083
LJ          -5.96777        -2.01579         -4.8758
LJ          -1.99482          5.8184        0.229633
LJ           2.72157         1.14976         2.36515
LJ            3.4024        -4.81217          4.4033
LJ          -6.36955        -5.83219        -3.02605
LJ         -0.939872        0.204507        -5.54182
LJ           1.92352         1.25408         0.28684
LJ          0.274803         1.78041        -2.69497
LJ          -4.68731         1.02267         5.72219
LJ           1.16133       -0.697161        -4.54066
LJ           5.56975        -2.46533        0.587203
LJ           2.26633       -0.683085        0.121936
LJ          -6.04327         1.44283         1.04783
LJ           1.65587         5.75294       -0.155475
LJ           1.72917            1.16        -5.53047
LJ           1.55805        -5.95436         2.68325
LJ          -1.99763        -5.45904        -3.34994
LJ          -5.27513        -4.23284        -4.19808
LJ           2.91362        -2.25369          3.9887
LJ          -3.75541         5.03804         6.15115
LJ            3.0569         4.89762        -6.39421
LJ           2.09597       -0.323628        -1.95114
LJ           3.22606      -0.0324167        0.145167
LJ          -5.42826         2.17928        -3.46124
LJ           2.85315         1.94044         4.11668
LJ          -1.51369         1.84208         3.83724
LJ           1.15964         4.22098        -2.02804
LJ          -4.04769        -4.16496         4.83126
LJ           3.52819         2.90212         3.43541
LJ           2.37291        0.698165        -2.65334
LJ           3.59516         6.00027         4.41341
LJ           1.32153        0.109471         2.92117
LJ         -0.329309          3.2519        -2.71873
LJ           1.58978         5.66129         2.61305
LJ           1.07285         6.05038        -6.08739
LJ           3.26358         1.84279        -4.80704
LJ          -1.86632        -4.84538         3.28973
LJ          -3.25932         5.84177        -3.84572
LJ          -3.15913        -2.65378         6.30118
LJ          -2.02834         1.17137        -3.51792
LJ           1.02004          4.8509         6.40454
LJ          -1.18905         2.09173         5.98644
LJ           4.65317        0.440383          5.6921
LJ          -4.92887        -5.67585         4.98658
LJ           6.42129        -5.06434         4.63249
LJ           1.30997         2.19868       -0.557373
LJ           4.41824         0.45335        -3.54191
LJ          -6.16816        -3.30823         4.58737
LJ          -5.06077        0.247146         4.92944
LJ          -5.16669        0.926723         1.51347
LJ          -3.42624       0.0861447        0.155971
LJ          -1.82676        -2.28362        -4.53115
LJ        -0.0742869         1.45375        -1.20191
LJ          -4.79846        -1.49246       -0.462576
LJ           1.68632         4.42192      -0.0378362
LJ          -4.39226         3.28904         5.06598
LJ           5.83656         1.61392        -3.73816
LJ           3.49297         6.23117         2.82796
LJ         -0.856679        -4.19951         6.18527
LJ          -3.10548         3.69375        -2.30656
LJ           2.59796         5.78848         2.81517
LJ          -4.69698          5.3715         6.29468
LJ         -0.316615        -5.11023        -1.64143
LJ           2.89343        -1.95317      -0.0682427
LJ           1.69489         6.38444         1.32675
LJ          -1.06408        -4.87512        -4.62702
LJ           5.87462        -5.12928        -3.97849
LJ          -1.29453         2.61887        -2.44979
LJ           1.11184        0.418588        -5.03771
LJ            1.1192        -3.80353         4.72708
LJ          -3.06426         1.23041         2.71091
LJ          -4.16361         1.72279        -5.28165
LJ           1.51904         2.84753         6.45323
LJ           2.38914        -1.94034        -2.16245
LJ          -5.36271        -3.25871         -5.5058
LJ           1.59443         1.21197         4.66076
LJ           3.60134        -4.39278         2.51247
LJ           1.50381        -3.19916        -2.76158
LJ          -3.41831       0.0338922        -3.79223
LJ         0.0819569        0.145425        -1.80366
LJ            3.0617         1.47961         1.24394
LJ          -4.98373        -2.60161         -4.7918
LJ          -5.10702         3.43413        -3.66711
LJ        -0.0117596        -5.94501       -0.628495
LJ          -3.53708        -1.77982        -4.52316
LJ          -1.11095         1.97568        -5.80186
LJ          -4.91459         2.72132         3.27112
LJ            5.7216        0.428159         -6.1031
LJ           5.36267         1.49455         3.70154
LJ          -1.51752        0.832074         2.25775
LJ          0.196987        -6.12391        -1.93913
LJ           3.59431        -1.21081         1.08442
LJ           4.66713         4.99721        -2.67841
