108
#Comment!
LJ          -5.41488         5.89656         1.48825
LJ          -1.25518         4.95485        -4.84971
LJ           -2.2348        -5.27574         1.62392
LJ          -5.67163        -5.76389         4.61685
LJ          -3.51292        -5.09508        0.782311
LJ          -1.51498         1.28109         6.44556
LJ            4.2615        -3.59055        -2.06245
LJ          -6.17264         1.00019        -6.09598
LJ           2.11909         4.35329         1.92441
LJ           6.15076         3.41498        -4.40659
LJ           -5.4172         -5.2084       -0.719696
LJ          -3.98279        -4.57248         5.86465
LJ         -0.686426         1.49375         3.15564
LJ         -0.576242       -0.139319        -1.63545
LJ           1.49608        -2.37432       -0.556206
LJ           2.96235         4.60649       -0.236427
LJ           3.41614        -4.51718       -0.570766
LJ           5.33389        -5.66275         5.24975
LJ          -1.58051         5.80028         1.42945
LJ          0.943168         1.57738         1.40051
LJ          -4.59351         1.96415        0.277057
LJ          -3.02965        -6.26223          4.5398
LJ          -3.61478         6.12213        -4.45759
LJ           -4.8576         3.72173        -1.93256
LJ           1.04709         5.71831         5.53244
LJ           3.01476       -0.339895        -5.12049
LJ           6.06027       0.0150711        -3.10564
LJ          -5.47692       0.0533691        -2.84199
LJ          -2.58997         -2.7915        0.345719
LJ          -6.43464        0.573952        -2.01125
LJ          -4.65244         6.42612         5.81032
LJ           6.08797        -4.03872        -1.52783
LJ          -5.22326         1.85675         -1.0401
LJ           4.57592        -3.60459        -3.24333
LJ          -4.52278         3.25957         4.15797
LJ          -1.26832         5.31806        -2.40027
LJ           3.16465         6.15283        -6.22984
LJ          -2.84272         4.38562         2.20135
LJ           1.13049        -2.32972         3.90227
LJ         -0.305223         4.67988       -0.276785
LJ           2.68154        -4.46286         4.68184
LJ           5.57939        -2.91395        0.593567
LJ          -1.35689         1.47813         -2.9513
LJ            4.6527         5.87232        -1.85389
LJ           3.20054         4.96309         6.28564
LJ         -0.246681         1.00074        0.602606
LJ          -1.64474        0.205604        -2.32623
LJ            3.4106         -4.0549        -2.66898
LJ           1.70124         -4.2586          5.0281
LJ           5.56652        -5.12718         6.15796
LJ           5.33232        -5.49627        -5.64347
LJ           4.61913         4.08225         1.25634
LJ           1.09279         5.88448       -0.499753
LJ          -1.00668         3.89882        -2.06133
LJ           6.18952       -0.862186        -4.14766
LJ          0.993823         3.93717         4.24598
LJ          -1.01009         5.15011         -3.7475
LJ           4.50769        -6.08136       -0.359197
LJ         -0.638422        -5.04766        -5.28097
LJ           5.59934        -3.31977       -0.397479
LJ          -1.81648         3.86198        -3.00807
LJ           3.91182         1.90532        -4.20285
LJ          -6.06288        -4.29477        -6.39711
LJ         -0.979935         -1.1291        -5.71359
LJ          -1.14258        -1.22414         0.52771
LJ           2.37723       -0.442895        -3.67945
LJ          -3.58952         6.40908         2.88358
LJ           -1.3189        -6.42948         2.23239
LJ           2.75582         3.96009        -6.02338
LJ          -3.51376         2.57381        0.143325
LJ          -1.67807        -1.14618        -3.47428
LJ           5.26874        -0.85174         1.31353
LJ          -4.18378       -0.848677        -2.57748
LJ          -2.57843        -4.15382        -2.66227
LJ           3.86057         6.00117        0.246821
LJ           2.04889         3.67173        0.882459
LJ          0.199386        -5.11105         5.20426
LJ           -4.3247         5.67443        -5.99754
LJ           2.08511         -4.4937        -3.77157
LJ           2.89668         4.61252        -2.29091
LJ           2.77914         5.48384       -0.964274
LJ          -2.62901       -0.199125         5.08886
LJ        -0.0750617        -1.79108        -5.39897
LJ          -3.31171          3.9097          4.9788
LJ           5.37228         5.27724        -5.16397
LJ            4.2134       -0.165712         1.12679
LJ          -4.85201         2.65665       -0.459262
LJ          0.510825         2.22336        -5.60092
LJ           6.41019         1.83343         1.16962
LJ          -4.68049        -5.32562         3.67788
LJ           2.45083        -2.20196         4.37812
LJ           4.54149        -3.89935       0.0245861
LJ           1.67416         6.08945         3.25835
LJ          -1.70858         4.82088         -1.5366
LJ         -0.492261        -4.92936        -2.80352
LJ           5.64584         6.07401        -2.12992
LJ            3.3649        -3.28571        -3.64908
LJ          -2.62404        -4.49964        0.507742
LJ          -3.03838         3.21074       -0.437783
LJ         -0.683097         3.57495         4.55035
LJ           4.23563         5.28123         1.06377
LJ          -4.38435         3.60945         5.84719
LJ           3.93459         5.81023         3.43673
LJ           4.55222        -2.71557         5.85332
LJ           5.34633         5.02684         4.42285
LJ          -1.07246         3.26963        -3.73478
LJ           -3.5591        -1.68449        0.639672
LJ           2.62427        -5.73685        -3.51258
