108
#Comment!
LJ           3.81337        -0.63167          3.2241
LJ           3.79151          -3.864        0.970003
LJ          -5.23484         3.14482        0.446379
LJ          0.957117        -1.04621         2.94942
LJ           5.04029         5.34451        -1.85368
LJ          -2.47751        -1.68684         3.42926
LJ            4.4568         3.27495        -5.76969
LJ           5.30644        -2.97976         3.62653
LJ           -4.3151         4.16321         4.06449
LJ          -5.50972         5.66769        -3.30676
LJ          -4.25045       -0.395601         5.04462
LJ          0.281874        -3.64962        -2.88877
LJ           3.71992         -2.8754        -1.05087
LJ          -3.81783          4.2428        -5.50471
LJ          -2.49352        -2.43486         4.85601
LJ          -3.50276         2.07057        -5.64888
LJ           3.35623         2.83882        -3.09427
LJ           4.25787        -1.74027        -2.68854
LJ           1.31188         5.26889         4.24047
LJ          -5.51513         2.20548        -0.62885
LJ           4.02027        0.343163       -0.274204
LJ          -4.27065        0.280394        -3.50735
LJ          -1.86963        -4.97458         5.03735
LJ          -5.80994         5.07859        -4.27841
LJ           1.00935         3.09734         1.89966
LJ           2.18803         1.22457         -4.6329
LJ           5.94497       -0.639434        -4.28938
LJ          -3.42085         0.26305       -0.256261
LJ          0.832292        -1.47898        -2.42772
LJ           3.46287        0.646268         2.40934
LJ           -3.2761         5.27425        -5.90274
LJ          -1.97996        -2.85786        -4.94232
LJ          -3.49071        -3.88116         1.95625
LJ        -0.0189703        0.503387        -3.54852
LJ           1.05533        -2.61673         3.29358
LJ          -4.26965         2.43639         5.72749
LJ            1.7808        0.989449         -3.5795
LJ          0.197143        -5.96267        0.173782
LJ          0.875364         3.22253          3.8749
LJ          -4.78862        -4.58074         1.13902
LJ           3.41677        -5.41131        -3.03437
LJ           0.91067        -6.03742       -0.776033
LJ            3.9268         4.56563         -2.9692
LJ           4.29795         3.15153         -3.9819
LJ          -3.79052         1.55151          6.1644
LJ         -0.507962        -2.63324        -6.27546
LJ          -5.41897        -1.46471        -2.39048
LJ           3.69629        -5.39803         3.16706
LJ          -2.39919         1.09784        -1.13943
LJ           4.85285       -0.683348         6.22764
LJ          -5.37929        -1.42612        -6.37719
LJ           4.44758         1.83597         -5.1859
LJ          -2.97064         6.19516        -5.56508
LJ           4.37895        0.339198        -3.32276
LJ           3.19406        -4.39764         1.67524
LJ         -0.884308         3.04591         3.68145
LJ           3.13856         1.97679         -0.1949
LJ          -1.65832        -5.52688        -2.35951
LJ           2.27715         5.06852         3.52177
LJ          -2.71986        -2.38519        -6.22801
LJ          -4.89777         3.20643         5.48728
LJ            2.2155         6.29912         4.57817
LJ          -5.14372        -6.22747         3.54694
LJ          -4.25767         1.27458        -2.24937
LJ           5.29752         4.41355         2.52132
LJ           0.35353         4.47025         4.99176
LJ           4.30506         4.93678          2.6516
LJ          0.398373        -4.75283        -2.55507
LJ           5.75278        -2.41127        -1.30101
LJ          -3.98078        -4.14914        0.376352
LJ         -0.836713         1.89638         2.30343
LJ          -5.52976        -0.59384         5.96406
LJ          -2.79899        -1.39718         4.58171
LJ          -4.95195         2.94394         4.22349
LJ          -4.35497        0.199765        0.108633
LJ          -5.24208         3.60929        -6.31373
LJ           6.21137         4.72802        -3.78396
LJ           4.33723         4.63582        -4.32456
LJ          -4.31923         1.89792         1.50752
LJ          -2.75569           6.408         -2.2692
LJ          -4.28478         -4.3145         4.12759
LJ          -5.66563        -2.86127        -5.38321
LJ          -5.84973        -4.74428        0.126528
LJ         0.0501949        -5.85093        -1.39204
LJ           3.56883        -4.79793       -0.644129
LJ            4.2746        -2.94676        -5.11797
LJ          0.712696         -5.8642        0.966835
LJ           5.06978        -2.19306        -2.18295
LJ           6.03752         3.36508         -1.7582
LJ          -1.74227        -3.72793        -3.33044
LJ         -0.581533           5.949         4.13585
LJ          0.519596        -1.02593        0.770906
LJ           2.92765         4.16307         3.97995
LJ          -3.47264        0.383943         1.02061
LJ          0.644386         3.69674         6.45165
LJ          -4.87761        -4.44165         2.77311
LJ            5.5331       -0.398574        0.742623
LJ          -4.51272        -6.44664         1.48965
LJ        -0.0879565        -1.63633           6.012
LJ           5.37133        -6.19736       0.0135096
LJ           -3.0417         -6.0876        -3.62476
LJ           1.26771         4.84933        -5.96612
LJ          -3.92313         -1.4351         3.92567
LJ          -1.85932         1.12355         1.57436
LJ          -4.40542       0.0229911         1.16192
LJ           2.34332         -4.6484       -0.501327
LJ            -3.967         -5.5625        -2.12802
LJ          -2.32421         -5.8997         3.32204
