108
#Comment!
LJ           5.26777        -2.25667         4.40033
LJ           5.11338        -6.05644        -3.46735
LJ          -2.43073        0.506262         1.67453
LJ        -0.0404741         1.61698         2.44158
LJ           3.90097         4.14382         6.25249
LJ          -0.85784        0.441245         2.35267
LJ          -0.26483         5.49449          -4.604
LJ           3.60687         6.02634        -4.46581
LJ          -1.06843         3.60187         5.86339
LJ           3.27578        -5.74451        -6.16327
LJ          -4.93383         1.23818        -5.72607
LJ          0.678942        -2.34496        -5.08168
LJ           2.46897         4.68374        -4.13927
LJ         -0.758114        -6.01635         3.56768
LJ          -2.29173        -0.57142        0.826278
LJ          -5.08406         4.54255         5.19751
LJ          -1.12528         4.81793        -4.99349
LJ          0.547564        -3.40555        -5.42667
LJ         -0.427757        -2.77387         4.05847
LJ            5.4481         2.98104        -6.31732
LJ            4.6097         5.25846         2.24623
LJ          -2.15524         2.54638        -5.52855
LJ           2.02786        -4.82221        -6.25575
LJ         -0.672078        -5.50958        -6.32437
LJ         -0.180467         5.27604         5.62501
LJ         -0.275377         2.64547        -3.30903
LJ           6.38049        -2.92668         5.45626
LJ          -1.66787         3.81455       -0.459818
LJ           5.93244        -4.92601        -1.95048
LJ          -4.34154        -2.30827       -0.381262
LJ          -1.95831         3.04794         -2.8752
LJ           -4.6916         5.47038         4.93792
LJ          -2.95733        -5.78426        0.388242
LJ          -3.17911         6.43912        -5.07741
LJ            1.2238          1.7117       -0.949312
LJ           4.46427          4.7824         3.35509
LJ            2.3077         4.41197        -5.24176
LJ           2.07797        -5.45312        0.812398
LJ         -0.535891       -0.264628         5.02879
LJ          -5.90522        -2.50334         4.56442
LJ           1.64767        -3.95681       -0.757133
LJ          0.907731        -5.06013        0.875916
LJ           5.89405         4.67438        -4.62806
LJ           1.13062         5.79282          4.1122
LJ           -2.9123         2.36768         6.28333
LJ          -2.09201       -0.251461         4.00222
LJ            2.7644         5.20782        -1.47117
LJ            6.1893          6.4445         5.49258
LJ         -0.307264       -0.594626        -4.21315
LJ           4.04135         3.54722       -0.120296
LJ          -5.70766        -2.38171         5.78502
LJ            3.8367        0.440429         3.65216
LJ          -2.72039        -2.38201         5.82591
LJ          -4.11459         2.70875       -0.961531
LJ            4.5836        -5.94057         5.31934
LJ          -5.45556       -0.163778        -0.82326
LJ           4.70899       -0.204408        -6.24547
LJ          -1.40693        -4.59012        -3.22627
LJ          -1.65442         3.85403         4.91611
LJ          -2.76426          4.0394        -5.62966
LJ          -6.35756         3.08365         2.77884
LJ        -0.0158581         3.31942         6.13236
LJ          -2.29345         5.91691        -6.38355
LJ          -2.59846       -0.517181        -4.24241
LJ          -6.44584        -4.56442        -6.27122
LJ          -1.81119         4.74346         5.58181
LJ           5.42205         6.18836         3.55543
LJ           0.60875         3.43949         3.13851
LJ           5.34239        -3.64003        -6.29256
LJ           3.83693        -1.87866         5.36778
LJ          0.523434       -0.182347         3.42319
LJ        -0.0747898         2.63028         3.35019
LJ           -4.3179         4.24538        -5.14463
LJ          -4.41687         1.87875        -4.82224
LJ           5.79284        0.632359         3.80567
LJ          -6.41061         4.01011         5.50269
LJ          -5.20595         6.39367        -2.61292
LJ          -5.78857         4.35696        -4.02427
LJ           5.46436          2.4742        -1.02368
LJ          -1.55363        -5.66124        -2.66798
LJ          -2.59843        -1.12438         5.50931
LJ           2.61787       -0.723635        -5.38912
LJ          -1.65487        -4.24435         1.92123
LJ          -1.78153         5.02124         2.16075
LJ           3.90793         2.61618        -1.68721
LJ           2.11935        -1.65841        -5.57116
LJ           2.82434        -4.20349         3.75893
LJ           4.96671        -4.43719        -3.23387
LJ           4.90069         3.94751        -3.64412
LJ           3.01177        -6.08971        -4.35624
LJ           1.93969        -4.61443         2.02882
LJ           0.77129       -0.752735         1.33231
LJ           4.15587        -4.74878         5.08777
LJ           5.30448       -0.598634         4.20679
LJ         -0.892585        0.395195        -4.61252
LJ          -4.63238        -2.51736         4.68165
LJ          -5.57733        -3.83921       -0.550404
LJ          -3.65877       -0.789721         3.77544
LJ          -3.80337        -3.89649        -6.25508
LJ           4.23995          2.7985         6.33353
LJ          -3.17162         2.60747       -0.422215
LJ           1.82893         3.68576        -3.81863
LJ          -1.16641       -0.633117         2.53296
LJ          -1.64423         2.61558         1.53122
LJ          -6.46325       -0.595568         4.14252
LJ        -0.0621086        -6.15825         0.76514
LJ          -4.40468         4.50529        0.497124
LJ          -5.33923        -3.57567         -1.9128
