108
#Comment!
LJ           5.33246         2.33871       -0.289055
LJ         -0.217881        -2.07021         4.89644
LJ          -2.69533         3.44215         2.60319
LJ           4.28396        -4.54639         2.39058
LJ          -3.49058        -3.45465         0.58539
LJ          -1.13194       -0.768408        -3.38431
LJ           3.42429         -4.8727        -3.33262
LJ           5.81911        -2.30841           3.546
LJ         -0.852628         5.38651         1.87588
LJ            5.4515         6.27105         5.80851
LJ          -4.92603         5.10493        -5.94046
LJ          -4.94603        -3.83093         5.92008
LJ         0.0140384        -1.06716          2.8966
LJ          -1.21228         1.62998        -4.86954
LJ          -4.17233        -2.31768        -1.66376
LJ           4.60289         3.33017        0.864653
LJ           4.54176        -5.70788        -3.63511
LJ           3.15832        -4.71284        -6.46005
LJ         -0.365838        -1.54404         2.16628
LJ           4.23411        0.626308        0.825504
LJ          -2.25146         2.17953         2.94219
LJ           6.43941       -0.977475         2.49382
LJ          -4.86844        -4.99997        -5.84583
LJ           3.03572        0.347482        -1.87599
LJ          -3.66433        -4.98951          4.3375
LJ           1.45321         2.69166        -3.84014
LJ           6.20304       0.0458944         0.72207
LJ          -5.96331        -5.16503        -4.16974
LJ         -0.930043        -5.51062        0.484882
LJ           3.95454        0.278218       -0.409268
LJ           6.05215        -4.71374        -3.12853
LJ           4.54304        -2.82509        -1.66407
LJ           3.26919         1.36236       -0.990387
LJ           3.77348        -3.82068        -2.26845
LJ          -5.19226       -0.675961         5.50151
LJ         -0.967586         5.34848       -0.748414
LJ           5.35476        -5.87477        -4.36131
LJ          -3.80183         4.40734         5.03962
LJ            1.6568         1.28858         3.47469
LJ          -2.85435        -5.18669       -0.999584
LJ           2.43737        -3.42536         4.61311
LJ            5.3031         -3.0136         1.92841
LJ           2.21226         1.83189       -0.127065
LJ            5.6717          3.6188        -1.10671
LJ           6.10436         2.30672         6.22484
LJ           4.09551         2.41013       -0.125007
LJ          0.227905        -3.06266         5.81309
LJ          -6.25667        -3.94907        -4.00616
LJ           3.29708        -3.70105         3.90461
LJ           2.36489        -4.74905         5.43536
LJ           4.08364        -4.40651         6.02492
LJ            4.1547         2.50266         2.24421
LJ           3.17098         4.26636         1.60874
LJ          -3.79655        -6.04124        -5.70795
LJ           3.61133      0.00307495        -2.79048
LJ          0.438558         2.31745         4.31697
LJ          0.317049        -4.46086        -4.44606
LJ           5.52029        -5.45132        -2.39677
LJ           1.26124         6.42539        -3.14974
LJ           3.87621        -3.73215        -3.49255
LJ          -4.22357         3.37461        -4.92581
LJ           3.55741         3.83139        -4.96583
LJ           5.12904        -5.74664         4.95784
LJ         -0.879157        -1.73338        -3.49819
LJ         -0.383316        -6.19186         5.23898
LJ           3.07684        -3.72631        -5.43796
LJ          -5.88558        -4.49262         5.54613
LJ          -3.81143        -4.83526         5.59285
LJ           1.33603         2.63752        -2.79803
LJ          -1.63676         1.80389         3.88245
LJ          -1.06556        -3.01115         4.44966
LJ           5.11015        0.787687      -0.0878797
LJ           4.56654         4.28251        0.184822
LJ          -1.51747        -0.77314        -1.20886
LJ           2.32724        -6.43784       -0.239683
LJ          -1.78732         3.92278        0.309774
LJ            4.2988         6.45532        -5.82614
LJ          -3.64905         4.79695        -3.07998
LJ           5.46568        -3.91224        -3.73961
LJ          0.284428        -4.22349        -1.37579
LJ           3.03321         5.65517        -1.83009
LJ          -1.55446       -0.936632         5.41828
LJ            2.3757      -0.0164251         3.73002
LJ          -5.73427         2.99548         4.18043
LJ          -4.60677        -6.24151        -1.96786
LJ          -5.35004        -1.34401        -5.79815
LJ          -0.30045         1.70003         1.92391
LJ           1.55296        0.364409        -6.10073
LJ          -4.32351         1.39442        -1.56111
LJ          -4.58561        -5.21565         4.70288
LJ           3.64322       -0.471911         1.20439
LJ          0.600121        -2.29608       -0.794962
LJ           4.59379         4.45798         4.84234
LJ          0.253863         6.22506        -3.07516
LJ            3.1129         5.77021       -0.331282
LJ          -6.02029         5.16476        -1.93494
LJ           6.17989       -0.257578        -2.14638
LJ            -4.909         6.21367         1.21535
LJ         -0.303205         3.26335        0.324696
LJ          -2.75672         3.40441         5.85276
LJ           5.33648         2.18146         1.73832
LJ          -3.08153         5.31141         3.21236
LJ           5.27464         3.44081         4.21201
LJ           5.38997       -0.651582         5.86959
LJ           3.09952         -4.7198           1.428
LJ          -3.53959        -5.78144         5.98032
LJ          -3.26859        -1.06506        -1.68281
LJ         -0.590447        -4.42492        -3.53893
