108
#Comment!
LJ          -6.27766         4.09663        0.714289
LJ         -0.754473         1.77476         6.06831
LJ          -2.93749          5.5527         2.16709
LJ           5.77507        -5.08592         3.35367
LJ          -3.61183        -4.17325        0.995629
LJ          -1.27897        0.112764        -4.86334
LJ           3.05635        -4.24155        -2.83103
LJ           6.13143       -0.978775         5.38643
LJ          0.634629         4.93984         2.07363
LJ           5.85465         4.90706        -5.86186
LJ          -5.42575         5.71795        -2.78642
LJ          -5.03883        -4.21319         6.00781
LJ          -1.41073        0.806501         3.04377
LJ          -1.69112         2.00308        -3.51451
LJ           5.04985        -2.00335        -1.22059
LJ            3.5077         3.25344        0.369909
LJ           3.39589        -5.59236        -2.65433
LJ           3.51575        -5.01972         6.08993
LJ         -0.994355        -4.34623         1.87347
LJ           2.84808         1.70722         1.03126
LJ          -2.82705         1.24735         2.30261
LJ           -4.5208        -3.40447         3.45074
LJ          -3.74072        -5.03893        -4.42785
LJ           4.99927         2.48492        -2.85015
LJ          -1.19297        -6.04461         4.74138
LJ           2.95161         0.33212        -5.58123
LJ           6.27503       -0.622496        -1.68263
LJ          -5.51945        -2.51279         -3.5288
LJ          -1.69858        -4.24886        0.295498
LJ           5.34567        0.580319        -1.48863
LJ          -5.82083        -5.81115        -5.07756
LJ            6.0484        -3.81692        -1.34244
LJ           5.01865         1.78231       -0.793014
LJ           3.89722        -2.95002         -2.5997
LJ          -4.21504         1.36084         4.11301
LJ         -0.485564         5.16889        -1.53988
LJ           4.08478        -6.37689        -5.55724
LJ          -2.68206         5.15529         3.95549
LJ           1.27904       -0.418568         3.59216
LJ          -2.13889         6.35827       -0.225928
LJ            2.8694        -3.93794         4.92244
LJ           5.46773        -2.94841         1.31471
LJ          0.807766         1.77531        -1.65436
LJ            5.4966         4.88918        -1.84064
LJ            4.6247         3.68564         6.24363
LJ           1.59767         1.73874        0.181677
LJ         -0.849137       -0.959733        -4.95141
LJ           5.10319        -4.22663        -3.83521
LJ           2.24312        -3.92686         4.02767
LJ           4.59516        -4.48911         5.69116
LJ           4.26831        -5.30722        -5.43029
LJ           4.31039         3.03868         1.77198
LJ           1.97434         4.82487        0.592215
LJ          -2.40837         4.58541         -4.0216
LJ           4.84316       -0.271137        -3.52417
LJ          0.743863         3.74029         4.18514
LJ         -0.754048        -6.24368        -4.39345
LJ           4.48999         -6.1093        -1.31867
LJ          0.656761        -5.80882        -4.27368
LJ           4.84148        -3.60853        -1.94356
LJ          -2.54863         3.41378        -3.77585
LJ           4.27652          2.5958        -3.72608
LJ          -6.31473        -4.91924         5.74382
LJ         -0.630761        -1.88483        -4.40857
LJ          0.684925        -4.64153         1.73524
LJ           2.67511        -2.19687          -4.647
LJ          -5.01349        -5.84983         3.58381
LJ           -1.7952         6.22986         4.19698
LJ           1.98687          3.3365        -4.35562
LJ          -3.07033         1.93824         3.12436
LJ          -1.69537        -2.09942        -5.99614
LJ           5.24332       -0.066341        0.764505
LJ           6.41586         1.69603        -1.37692
LJ          -2.47358        -3.32445        -2.64747
LJ            1.7224        -5.63153         1.26199
LJ          0.196348         4.09448        0.423321
LJ           2.26736        -6.01096         6.45291
LJ          -4.15431         5.14044        -4.64659
LJ           3.30118        -4.27855        -3.91774
LJ           2.13023        -5.77357        -2.21836
LJ           3.45699         5.83351         -1.2909
LJ          -2.03256       -0.614937         5.16009
LJ             1.261        -1.02165         5.65854
LJ          -4.64875         3.19011         4.49082
LJ          -6.20526         6.34072        -3.29867
LJ            6.0626       -0.272786          3.9069
LJ           -2.2756         2.05113        0.799365
LJ           1.76633        0.743603        -5.84872
LJ          -3.91685         2.25282       -0.285346
LJ           -4.5734        -5.23837         4.50863
LJ           3.13601        -1.36884         2.78519
LJ           2.49502        -3.12964       -0.266256
LJ            1.8587         4.81966         4.06337
LJ          -1.26642          5.7509         -2.4969
LJ            1.0651        -6.19564        -1.40612
LJ          -6.31009         5.46278        -2.40539
LJ           5.13437        -1.44722        -2.27511
LJ          -3.12638        -5.77486        0.277842
LJ            -3.078         2.70217       -0.394937
LJ           -1.3985         3.53719         5.13604
LJ           4.87369         4.16245         2.27051
LJ          -4.14398         4.74423         4.56871
LJ           4.60117         4.41487         3.20646
LJ           3.55884       -0.269749          -6.043
LJ           4.37612        -6.20329         3.05536
LJ          -2.27907         5.05407        -5.09306
LJ          -3.45493         -1.3409       -0.504262
LJ           2.62853        -5.14983        -3.25559
