108
#Comment!
LJ           4.42103        0.573211         5.49708
LJ         0.0493314         4.90604         2.76541
LJ           5.46792         2.08569         3.04993
LJ          0.204083         5.90667         3.26098
LJ           3.32075         6.05198        -4.86619
LJ            3.5921         3.71673        -3.69176
LJ          0.472072         2.56232          5.1578
LJ           2.98917        -5.91255         1.92235
LJ          0.425015        -2.74719         3.72183
LJ         -0.146146         1.73342         1.78708
LJ           4.38807         1.67698        -2.82056
LJ          -1.13609         2.23803        -5.96959
LJ          -3.40541        -2.44649         3.52927
LJ          -5.29086         4.51438        -4.79088
LJ          0.119195          2.1476         6.14056
LJ          -1.97963       0.0694461        0.419956
LJ           1.51728        -2.21866        -1.78281
LJ          -1.05426        -2.32608        -0.28214
LJ           5.19618        -2.37784        -6.21335
LJ          0.905521            3.16        -3.07042
LJ           2.85483         1.59278         4.62021
LJ            1.2943        0.485095         1.04224
LJ           3.61479        -2.26705         2.03308
LJ          -6.37955        -4.53812       -0.196788
LJ          -2.09763      -0.0464751         2.88198
LJ          -5.44498        -4.16038         5.51898
LJ           3.74143        -2.23546        -2.75894
LJ          -3.36571          6.0342        -2.54347
LJ            -5.671        -3.30574       -0.383588
LJ           2.74513        -3.59054       -0.854054
LJ           2.71474          6.2495       -0.148112
LJ           3.34848         2.68596        0.164311
LJ        -0.0351542        -2.43208         5.81374
LJ         -0.336257         1.42057        0.133382
LJ           -5.1439         0.40007        -3.96447
LJ          0.849598         4.40557         1.69376
LJ          -3.33417       0.0663743         4.06089
LJ          -4.57332        -4.61157         2.14603
LJ          0.221556        -5.30126         3.66337
LJ           1.79175         2.60268         4.14064
LJ           5.49504         2.02538        0.143589
LJ         -0.288405         3.14134         4.87754
LJ          -4.59611        0.824945         3.05644
LJ           2.60747         4.95443        0.294812
LJ          -4.45624         3.42828        -5.21809
LJ           3.26471        -5.66921        -2.89721
LJ         0.0763715      -0.0791545         4.01189
LJ           -3.5607         -5.8129         -1.9732
LJ          -4.79493        0.741556      -0.0219766
LJ          -5.09363        0.113113        -1.88637
LJ           6.06828       0.0766414         -1.0514
LJ          0.510946        -3.72009          4.5329
LJ           6.11646         4.64883        -4.89415
LJ           4.06588          6.2845        0.009726
LJ          -3.16738         2.99585        -5.88446
LJ             4.054         0.77419        0.474201
LJ          -1.49803       0.0818982         1.65803
LJ           3.68783         4.87827        -4.32108
LJ          -6.01695         1.47441         2.12136
LJ           1.80674        -1.45987         2.41932
LJ          0.380838        -5.47502        -2.31896
LJ          0.479085          2.7988           -1.19
LJ        -0.0119173         1.35267         -4.2016
LJ         -0.830812         -4.6085         1.06107
LJ          -1.23611        -3.51332         2.26975
LJ          -5.75851        0.586163         5.76311
LJ          -5.14643         2.16878         1.64275
LJ           5.61117        -3.50415        -5.40834
LJ           0.19895         5.47342         4.69967
LJ           1.41371         1.39948        0.107563
LJ          -3.85406         3.43288         3.47033
LJ           3.84052         1.28492        -3.90811
LJ           1.92008        -4.83367        -1.59687
LJ          0.850874        0.269419        -6.25203
LJ           4.82067         5.18243        -3.08867
LJ           4.79765        -1.46704        -2.10238
LJ         -0.703443        -4.78009      -0.0216109
LJ         -0.271115          -3.927         5.48957
LJ       -0.00592341         2.18272        -2.81389
LJ            4.3749         3.44181        -2.45418
LJ           5.02594         5.94957        -4.26904
LJ          0.881648         1.34732         5.86217
LJ           3.21774        -1.40319         2.23157
LJ           6.10781        -5.89822          3.7477
LJ          -2.54154        -5.07392        -2.35134
LJ           1.63407       -0.635751        0.711231
LJ          -2.31775        -2.22724         1.39502
LJ           1.50576         1.24373        -5.77522
LJ            5.4309        -5.44475        -4.45688
LJ           1.16868        -4.85288          2.8165
LJ          -1.37495        -1.09954         4.48089
LJ        -0.0290401        0.461162        -5.05037
LJ          -3.80049        -1.81866         5.96785
LJ           4.60418        -6.20123        -5.93641
LJ          -4.04478       -0.664348         2.61287
LJ           -2.8308         6.30841       -0.198172
LJ           3.48133         2.48317         1.32723
LJ           4.61536         5.54614        -5.57379
LJ          -3.36756        -6.05596        -3.60132
LJ          -5.69831         -2.1527        0.731733
LJ            3.1842         2.08583        -3.58749
LJ           -4.1747         5.13028       -0.893522
LJ          -1.46325         4.02125        -1.36503
LJ           -3.0093        -3.01923        -5.22516
LJ          -4.02927        -4.42279         5.33582
LJ          -1.23689        0.148344         3.52202
LJ           2.36452       0.0350737           1.665
LJ          -5.91532         1.66509        -3.08736
