108
#Comment!
LJ           1.44164          1.3898         1.91384
LJ            4.9863      -0.0604073         3.93203
LJ           5.89787         2.39369        0.852107
LJ           2.07612        -6.37588         2.53957
LJ           4.50382         2.61614         1.79411
LJ          0.221429        -2.37395         1.83676
LJ          -6.16347         2.08092        -3.18698
LJ          -4.89471        0.586911       -0.270075
LJ           5.56991          4.6693         2.07364
LJ          -4.09667         4.10176        -3.91355
LJ          -3.69336        -2.17532        -5.43668
LJ          -1.08779         2.02283        -3.26244
LJ           3.00803         1.71049         1.18726
LJ           -3.5248        -5.99898       -0.814476
LJ         -0.966814        -5.90756        -5.24705
LJ          -3.11528         -1.1696          6.4071
LJ            3.8407         2.27185        -1.09743
LJ           5.41856       -0.520076         1.00927
LJ           4.95734         1.60228         -6.2088
LJ          -4.14108         1.24032         3.76821
LJ           4.58939         6.30209        -3.20881
LJ           4.73338       -0.878376        -1.15769
LJ          -5.17441        -2.09059         4.68775
LJ          -3.59578          3.8026        -2.99134
LJ           3.74748         1.25625        -2.03031
LJ           2.31372       -0.102322        -5.92811
LJ          -5.87351        0.288008        -1.20829
LJ          -3.33922        0.380997         -3.4438
LJ         -0.585492        0.174321        -4.22246
LJ           1.48868       -0.239781         4.10396
LJ          -4.21716         2.97085         4.02365
LJ           -1.9267         2.28218        -2.48575
LJ          -4.97424        -3.04094         5.55154
LJ            2.5162        -2.86995        -3.01186
LJ           1.61688        -3.26305        -6.38903
LJ          -4.66508         1.54517          5.3458
LJ          0.978437        -3.22766         -2.9452
LJ          -1.22445        -6.01465        -2.95731
LJ         -0.530879         3.51648         3.35906
LJ          -4.74418        -4.37733        -1.97068
LJ           4.09152        -5.26509        -5.43347
LJ          -0.41578        -5.82846        -2.31852
LJ          0.184294         4.20841          -4.337
LJ          -5.25547         3.46696        -4.24362
LJ          -3.96754        -1.83034        -6.36121
LJ          0.879036         -2.2811          5.2337
LJ          -4.95965        -5.53182       -0.602665
LJ           4.25399        -5.17065          2.0102
LJ          -4.39377        0.590074         2.55019
LJ           5.37372        -3.58295        -1.52501
LJ          -2.84598         -2.7033        -5.26815
LJ          -5.32389         2.40089        -4.11876
LJ          -2.25578        -5.98765        -3.39487
LJ           2.93318        -4.64247         -2.1418
LJ          0.740625        -4.62579         2.92474
LJ           6.31054         6.14639        -3.00972
LJ            3.8094         5.41651        -3.25631
LJ          -3.63351        -3.97236        -5.06032
LJ           3.42136         4.48562         3.09912
LJ          -2.23809        0.716389        -3.94901
LJ          -3.84518         3.34786         5.87813
LJ           2.87933        -2.95149         3.76367
LJ           4.77074         3.25978         3.35684
LJ          -5.18008         3.20106        -1.41698
LJ           4.45309         1.88432        0.590621
LJ           1.93076         5.00411         4.01103
LJ           2.55415         2.14657       0.0940265
LJ          -3.49937        -5.01075        -4.62038
LJ           4.76916       -0.342528         2.87112
LJ          -3.12472         6.27395         -3.1202
LJ          -3.18243         2.62748          2.0566
LJ           4.51702       -0.763852         5.71349
LJ          -3.65217        -1.39087         4.48193
LJ           6.08984         5.18812         5.98983
LJ          -2.30201         1.07832        -1.96295
LJ          -5.89174         1.91504         3.80308
LJ           4.35394         3.95221         -1.6248
LJ          0.811251         3.88721         -5.0828
LJ          -2.48228         1.03663      -0.0317117
LJ          -3.43358        -4.76327        -2.25544
LJ          -4.63037         4.92794         1.95448
LJ          -3.78595        -5.79663         5.41517
LJ           -4.7803        -3.97193       -0.493848
LJ           2.72032        -5.47401        -2.53121
LJ           5.18823         1.25927        0.277063
LJ            4.3803        -4.08359        -5.81368
LJ           2.40931         6.04873          3.4718
LJ           5.63495        -0.81411         2.43226
LJ           6.12222         3.86409        -1.73956
LJ          -1.29487        -1.69627        -5.27375
LJ          -1.40353         1.17896          2.5164
LJ         -0.881182        -2.37518         0.17376
LJ           2.56186         4.43963         2.26676
LJ          -1.69285         2.09354        0.558544
LJ           2.01584         5.28257         5.37208
LJ          -4.36218        -6.38085        0.649353
LJ           3.38052         2.23848         2.15861
LJ          -5.56422       -0.808057        -0.51972
LJ           2.40793        -2.12117        -4.31552
LJ          -5.78928        -5.47695          3.2917
LJ           -2.8561         6.24622        -4.13766
LJ           2.09547        -4.89834         4.42583
LJ           6.40161        -2.79812          2.2282
LJ          0.178805        0.282908         2.66507
LJ          -4.66285         2.13647         1.04039
LJ            6.2067        -5.51047        -2.08562
LJ          -3.88277        -2.12411        -4.16963
LJ          -1.19564         3.75975        -6.42391
