108
#Comment!
LJ        0.00221707          3.2864         1.54143
LJ           4.96557         1.89325        -5.97206
LJ           4.58667        0.941047         2.87264
LJ          0.467064         1.91773         2.28932
LJ           1.96122       -0.314388         2.97927
LJ           3.01422        -2.22276        0.506523
LJ          -3.05033         2.54261        -3.34597
LJ          -2.66543         3.04457        -1.76693
LJ           4.82448         4.89767        0.938707
LJ          -2.67238         4.42199         -2.3123
LJ           -3.0432        -2.60718        -5.24507
LJ          -2.23441         3.99386        -5.16251
LJ           2.00389         3.86182         4.13079
LJ          -1.08296        -4.72085        -3.12544
LJ         -0.612006         5.63589        -2.47223
LJ          -3.20301        -4.83844         5.90598
LJ           1.89701         -1.1376         -1.4264
LJ           5.34729        0.381843         3.75369
LJ          -5.39991        -1.07522         -4.3652
LJ          -4.36788       -0.128782         6.14405
LJ           6.20117         -5.3771        -6.34192
LJ         -0.403985        0.379325        -1.25485
LJ           5.01754        -2.28688         5.79831
LJ           -1.1044         2.52326        -3.08634
LJ           6.31501         1.12695         -3.7487
LJ           1.52547       -0.825665         5.49498
LJ          -6.23783         2.53486        0.580295
LJ          -5.70065         2.09672        -4.17673
LJ          0.962151         1.68073         6.10193
LJ          0.542242        -1.04753         4.01274
LJ          -5.11778          1.3315         1.50949
LJ          -1.94525         5.95325       -0.979303
LJ            4.5982        -1.66489        -5.98681
LJ           2.42883        -4.07872        -1.20154
LJ           1.51762        -3.15917        -4.33187
LJ          -5.11029       -0.970527         5.86184
LJ          0.815374         5.84447       -0.974351
LJ          -1.74609        -6.37417         -5.0065
LJ           -1.4025         3.35233         2.75824
LJ          -4.74562        -5.16539        -2.74384
LJ           4.56413        -6.24018         5.76398
LJ          0.269966        -5.21288        -2.70765
LJ          -3.99702          2.5314         6.14753
LJ          -3.68464         1.80394        -4.19828
LJ           -3.3253        -1.47338         5.50598
LJ           2.83037        -2.10204         4.28434
LJ           4.08159        -5.91158         1.40849
LJ            4.8019        -4.96059         0.88781
LJ          -6.29579          2.4989         4.59114
LJ            5.2519        -6.44938         2.24359
LJ          -1.73359        -5.14172        -5.69215
LJ          -3.47454         2.29001        -2.02427
LJ          -3.77356        -5.18563        -2.01965
LJ           3.37782        -3.93566         1.56665
LJ          0.934537        -4.46393         4.36306
LJ           4.62996         -5.1974         4.84916
LJ           2.41834        -6.45323        -2.29503
LJ          -3.54708        -3.93853        -6.12206
LJ            2.9864         3.96553         2.52305
LJ         0.0536693         3.58553         -2.6262
LJ          -2.88214         4.34199         5.31329
LJ           3.34565       -0.551294         2.70654
LJ           2.40524        0.570988         2.26683
LJ          -5.26197         6.07998       -0.384498
LJ           3.24178         3.76755          3.9143
LJ           3.63653         4.74346         4.28808
LJ          0.972377         1.51349         -3.3256
LJ            -3.932        -3.19717         6.22525
LJ            4.5836        0.845442        -5.49783
LJ          -2.90239         5.71511        -5.90126
LJ          -3.63391         2.70831         2.77458
LJ           3.65067       -0.519001          4.7311
LJ          -4.18612        -1.03079         4.97264
LJ           4.53372        -6.39886        -5.42441
LJ          -1.21088         3.94227        -3.16847
LJ           -4.1162          1.1635          2.2094
LJ           5.29064         5.64014         -1.7647
LJ          -2.91903         3.44439         6.07189
LJ          -2.46011         1.72058        -2.15741
LJ           -1.6693        -5.57973        -1.38734
LJ          -4.71344         4.86541       0.0462527
LJ            -2.407         4.66735         3.94673
LJ          -2.97544        -2.58985       -0.990219
LJ          0.645168         5.08481        -4.43999
LJ          -3.60302         2.35176        -0.29519
LJ           4.75502        -3.80422         6.45507
LJ           4.51972        -6.07086         3.60014
LJ           5.94264         1.09635         4.28257
LJ           5.78634         4.33286        -2.65406
LJ           1.12418        0.766951         5.66004
LJ          -1.86453        -2.39733         4.16295
LJ          -1.92038         -3.4324      -0.0586552
LJ           1.93865         4.37065         1.73783
LJ          -3.34403         1.26306        -1.25987
LJ           2.94948         5.61803          4.0371
LJ          -5.80933         5.13148         3.23306
LJ           2.20785         4.10351         5.44636
LJ          -3.50906        -1.59393        0.270677
LJ           4.16376        -2.52654        -4.56044
LJ          -4.85059         -5.1222         5.63853
LJ          -2.98344         4.99301         6.22563
LJ           2.43279        -2.44852          2.1918
LJ           4.82613        -3.90926        0.817842
LJ           2.42713       0.0330531          4.0477
LJ           -4.7926         1.61559        0.182125
LJ          -3.74611        -5.99602        -3.56639
LJ          -3.67146       -0.883607        -2.43444
LJ        0.00572511          2.3678        -4.61861
