108
#Comment!
LJ          -6.07541       -0.979907        -5.89913
LJ          0.387418         2.74224        -3.93934
LJ          -5.19546         2.24604         3.24954
LJ          -1.72579         2.83192         1.59431
LJ           6.07646         2.37805        -1.00955
LJ           6.17742         2.02857        0.893941
LJ           1.28117         4.22642        -5.81792
LJ            3.9588          3.0715        -5.60837
LJ           3.65245        -3.63138         1.68726
LJ          -3.24169         3.34729         2.51111
LJ           5.34563         1.42425        -3.26528
LJ          0.555767         1.63198        -4.13453
LJ          -0.79897         2.10191        -6.28173
LJ           4.43592         2.23988         5.79548
LJ          0.755991         4.00514         6.21742
LJ           -4.4963         3.95804       -0.569306
LJ          -1.46505         0.22619        -2.71947
LJ          -3.02876        -5.40361        -1.67989
LJ          -4.14408       -0.113308         4.08286
LJ          -3.14093         4.71884         -1.6019
LJ           1.05655         5.29417        -6.07171
LJ         -0.472514         2.98004         3.24687
LJ           3.30181        -4.36299         2.61224
LJ          -3.98075        -4.83017        -2.32594
LJ          -5.67724        -1.33347         2.15963
LJ          -2.40535         3.87817         6.32834
LJ           3.51656        -4.77903        -3.54042
LJ          -2.80275         5.58499         2.46307
LJ          -6.35508        -6.40528       -0.524107
LJ         -0.609118        -2.26031       -0.248114
LJ           3.24104        -4.37345        -1.76462
LJ            1.3993         1.07093        0.305255
LJ          -2.81247        -2.46851        -3.51204
LJ          0.348445        -4.51667         -4.5138
LJ          -5.98629       -0.891101       -0.651617
LJ          -2.25096         4.28492        0.285358
LJ           -2.5151         2.93277         5.40764
LJ          0.929234        -4.93316        -6.31029
LJ           2.00712         5.53033          3.0859
LJ         -0.374498         5.60274         5.65679
LJ           4.58917      -0.0142052         2.46409
LJ          0.399307        -6.31896         3.96479
LJ           5.66472         -0.1255        -1.70725
LJ           3.87672        -3.77784       -0.842338
LJ          -2.11568        -5.99835        -2.77112
LJ           4.83301        -2.08969        -0.46387
LJ           4.48488         2.04828         2.17373
LJ          -4.61269        -6.15435        -1.79867
LJ           5.04493        0.983549         1.78906
LJ           5.92341         2.18475        -2.22579
LJ           1.80542          1.7125        -3.17905
LJ          -6.03839        -2.45846         4.40889
LJ          -4.27696         1.30968       -0.552557
LJ          -4.73962         3.06833      -0.0436554
LJ          -1.73912        -3.20748        0.978989
LJ           3.73959       -0.660689         1.21492
LJ          0.548993        0.646295         1.48032
LJ           5.48738        -6.22269          4.5707
LJ          -3.97999         4.46514        0.889361
LJ           2.28388          2.9901         4.97972
LJ          0.281908          6.3799        -3.92718
LJ          -3.14952        0.193617         -2.2884
LJ          -1.95314         1.94637       -0.637889
LJ        -0.0953354        -4.03332        -2.56828
LJ          -1.35874         6.22315          2.5978
LJ          -6.39109         -2.0913        -5.54092
LJ           -5.0012         1.33723         4.53035
LJ           1.40004        -3.77344        -3.07841
LJ         -0.869494        -3.71806         3.80114
LJ          0.486147       -0.611372         0.63594
LJ           5.79113         5.53319        -5.97394
LJ          -6.40878         2.28633        -3.60816
LJ           1.61379         5.94075        -2.60004
LJ          0.144314         1.99194         6.25902
LJ          -2.46961        -6.27237        -1.63902
LJ           6.21531        -2.41547        -2.83131
LJ          0.316507        -4.96357        -2.19697
LJ           3.28382        -6.36713       -0.592338
LJ       -0.00477854         3.15302        -5.48914
LJ          -5.64627         -3.1819         -1.6406
LJ           2.38048         -3.9277         -4.7351
LJ         -0.728968       -0.912921         -5.7857
LJ           4.85759         -1.1819        -1.74899
LJ           1.53731        -3.38502          4.1377
LJ          -1.87328        -5.77264       -0.527551
LJ         -0.285101       -0.563142         1.35933
LJ          -5.55871        -0.55858        -3.28228
LJ           2.14702        0.294807         6.30975
LJ          -6.32021        -3.53262        -4.89337
LJ           4.00156        -3.74335        0.396869
LJ          -1.62076        -2.11058         2.32951
LJ         -0.596075        0.233928         4.17341
LJ          -3.55912        -4.32087         6.15643
LJ           3.24892        -6.42659        -4.42167
LJ          -2.56488        -1.16433         1.10604
LJ          -1.77041         4.60657        -2.01339
LJ          0.637937       -0.277811       -0.413984
LJ           2.99546         5.61104         6.30913
LJ          -2.77085        -3.83137        -2.68599
LJ           5.97969           4.526        -2.87225
LJ         -0.544743         1.69633          5.2398
LJ          -2.36513         5.83562         1.46203
LJ          -1.14523        -5.92283        -3.59857
LJ         -0.949696        -5.90158        -5.70624
LJ          -2.39908         2.31553        -5.87656
LJ           1.07456        -2.85313         2.83066
LJ           2.27296         2.65713         6.05436
LJ           -1.7076        0.227158        -5.75578
