108
#Comment!
LJ         -0.490771        0.878632        -1.78612
LJ          -2.28953        -0.74308         2.11613
LJ           6.34832        -1.56164         4.56035
LJ          -5.01806        -6.39059        -5.87061
LJ           5.54301         5.42082        -1.90175
LJ          -1.49498        -5.17952         3.98913
LJ          -6.36195        -5.14591         -3.7776
LJ           4.36782        -5.87894        -1.07727
LJ           -4.9451        -1.53893          3.7209
LJ           0.82953         3.59412       -0.456279
LJ         -0.443093         -1.1907        0.384333
LJ           4.39065         2.29679         4.07629
LJ           2.21131         4.92044        0.466952
LJ         -0.813286        -3.09845         6.10631
LJ           4.70883         2.35041         5.80709
LJ          -6.06378         -2.3153        -4.07963
LJ          -2.63213         5.24761        0.168572
LJ            3.3271         0.80118         2.98838
LJ           2.96342        -5.66857         4.82714
LJ          -6.35039        -5.56379        -2.73391
LJ          -1.02969       -0.384302        -5.40044
LJ           1.99608        0.655182       -0.124557
LJ          0.955982         1.62168         -2.7632
LJ          -4.91659         1.19846         5.12924
LJ           1.10651        -1.24533        -5.00283
LJ           5.38128        -3.16484        0.157588
LJ           1.06376        -1.78903        0.401862
LJ           6.28749         2.11682         2.52136
LJ           2.15357         6.46053        0.895013
LJ           1.18192         1.55029        -6.24252
LJ           2.10102        -6.02313         3.02726
LJ          -2.00853        -4.16565        -2.48377
LJ          -4.19454        -3.88024        -3.33524
LJ           3.46035        -1.26034         4.22044
LJ          -3.49821         5.27737        -6.34226
LJ           2.72315         5.73555         -6.1145
LJ           2.52933       -0.808495        -1.70198
LJ           2.90142        0.370949        0.477139
LJ          -5.75805         1.84288        -2.91635
LJ           2.86231         1.71423         4.24367
LJ          -0.95235         1.27525         3.01514
LJ           1.04643         3.53917        -1.41911
LJ          -4.42099        -4.38529         4.58921
LJ           4.11543         3.33212         3.90393
LJ           2.10887         1.10682        -3.24286
LJ           3.84347         6.24177         3.70906
LJ            1.0443         1.81498         3.76376
LJ          0.539809         2.82733        -2.97904
LJ           1.02603         5.19949         3.19507
LJ           1.22301         6.22634        -5.43781
LJ           3.04118         2.19497         -5.1141
LJ          -3.10263        -5.02331         2.98986
LJ          -2.80705        -5.51227         -4.4626
LJ          -2.66184         -2.7148         5.84333
LJ           -3.1784         1.47265        -4.38918
LJ           2.00256           5.118         6.35262
LJ          -1.06947         1.81529          5.4236
LJ           4.10297       0.0470342         6.03423
LJ          -4.79675        -5.05778         5.45499
LJ            5.3061        -4.20009         5.52547
LJ           2.08804         3.48595         -1.0266
LJ           5.13782        0.318078        -2.98415
LJ          -5.75519        -2.50752         4.33845
LJ          -5.34903        0.399422         4.42083
LJ          -5.46762          1.3354        0.629993
LJ          -3.41497         0.13005        0.220445
LJ          -2.24797        -2.23407        -6.34828
LJ          0.778736         2.01319        -1.59336
LJ          -5.21103        -1.60682       -0.886187
LJ           1.97745         5.95841       -0.170039
LJ          -4.65184         2.73953         4.93236
LJ           6.36239         1.20892        -3.50143
LJ           4.87469         5.53793         3.42172
LJ           -1.7395        -3.74894         5.60416
LJ          -2.03316          2.7137        -3.12793
LJ           2.66574         5.72404          1.9759
LJ          -5.50302         5.42286         5.71149
LJ         0.0351018        -5.50425         -1.4803
LJ           3.92888        -2.62668       -0.550198
LJ           1.52317         5.57334         1.52693
LJ          -1.68255        -4.96874        -5.48328
LJ           5.58149        -5.50966        -3.97547
LJ          -1.02708         1.54261        -2.68605
LJ           0.54614      -0.0336174        -5.43966
LJ           1.46669         -4.5702         5.36227
LJ          -2.60132         1.49171         3.66719
LJ          -4.32466          2.0781        -4.50329
LJ           1.44913         2.67419        -6.28063
LJ           1.64037        -2.05987        -2.18356
LJ          -5.11768        -2.61401        -5.79115
LJ          0.682603        0.937443         4.64196
LJ           4.44992        -3.74626         2.45181
LJ          0.335721        -1.99802        -2.94131
LJ          -2.84545       -0.258859        -3.73312
LJ          -1.58458       -0.664358        -1.28913
LJ           2.55311         1.95991           1.538
LJ          -4.94239        -2.63945        -4.15329
LJ          -5.23445         2.30011         -4.0703
LJ           1.03638         -5.5584       -0.192738
LJ          -3.40103        -2.37308        -2.81243
LJ         -0.750975         1.28363        -6.44761
LJ          -4.28161         2.63621         2.47761
LJ           4.62288        0.874224         -6.3682
LJ           4.92914         1.57944         3.44851
LJ          -1.39573       -0.402996         2.45452
LJ         0.0940406         -6.1671        -2.44149
LJ           4.06034       -0.839459         0.79797
LJ           4.70999         4.80245        -2.55415
