108
#Comment!
LJ           1.28049        -5.70523       -0.643041
LJ          -2.25269        -0.86234        -1.13371
LJ           -2.6276         6.14084         4.31272
LJ          -5.98514        -4.55181        -5.73852
LJ           -1.4996         6.25735        -2.60798
LJ          -4.49213       -0.260199         2.17526
LJ           6.10649        -2.62013         -4.2939
LJ           2.40311         2.68822      -0.0495889
LJ          -2.58963        0.413453         2.40724
LJ           1.39686         2.62803        0.282878
LJ          0.041415        -3.72537        -5.98779
LJ           -6.3369        0.651826         3.18606
LJ           -5.0361         5.91773         2.76052
LJ          -4.35368        -1.56076          -6.106
LJ          -2.30225         5.50526         2.70652
LJ           5.82167       -0.254983          6.3443
LJ          0.827178        -2.65479        0.581721
LJ            2.8937         1.95512         1.28517
LJ           4.20522         5.33705        -0.23874
LJ          -6.44861        -3.89646        -4.21736
LJ          -2.12323         5.00444        -6.12029
LJ           1.35239        -1.48374        -1.26044
LJ           -3.7231       -0.983053        0.512933
LJ           -5.1144       -0.639831        -4.24089
LJ        -0.0974341        0.973165        0.896564
LJ           6.20832         1.98523         3.17147
LJ           2.66566         1.61241        -0.14276
LJ           -2.3332        -2.86854        -5.74113
LJ           -1.2989        -2.28452        -4.65734
LJ           5.49607         4.20794        -3.81002
LJ         -0.192533        -2.10375        0.461204
LJ          -3.24577         3.09116         3.67618
LJ              2.82         5.69602         5.45421
LJ          -6.25628        -5.80742         6.01495
LJ           1.82258         3.89143         4.01903
LJ           3.06995       -0.289427         5.17283
LJ          -1.44027       -0.310616        -3.58946
LJ           -4.0985        -2.05205         1.38698
LJ          -3.81695        -6.31635        -2.67303
LJ           2.78195         2.94861         2.52194
LJ          -4.88526         5.02412        -4.57071
LJ           2.32194        -4.94266        -5.28936
LJ          -3.51363       -0.997301        -3.91138
LJ           1.92803         2.71047         1.35822
LJ           4.39779         1.80088        -2.19032
LJ           1.05748         6.41059         5.30572
LJ           3.89727         -1.6298       -0.740707
LJ         -0.959667        -5.50701         -2.5716
LJ           1.81452          3.6448        -2.76225
LJ         -0.187342        -5.44399         4.30178
LJ           2.11673         5.29266        -5.47026
LJ          -0.96648        -3.88092         -6.4028
LJ           5.74771        -3.10092        -0.59361
LJ          -3.30061        -1.02148        -5.14237
LJ          -0.97637        -1.19986        -4.12438
LJ          -1.91997         2.39122         4.26891
LJ          -1.44346         1.93265        -2.58304
LJ          -3.20944         2.76225         5.53552
LJ          -4.20837         2.28927          4.5489
LJ          -3.52954         4.92176        -3.18158
LJ          -3.75705        -4.90746         2.49084
LJ           4.18802         -4.6068        -3.54408
LJ           3.90237         4.69133        -5.02362
LJ           -3.1757       -0.981766         5.05492
LJ          -3.55663        -1.70814         4.29037
LJ          -2.33226       -0.882861        -2.69505
LJ          0.737591        -1.63526          2.3251
LJ          -3.74278        0.600637      0.00992157
LJ           -1.6945        -0.62753         1.25091
LJ          -2.88642        -5.03261         1.13227
LJ          -3.57279         4.51895         3.67234
LJ           4.55681         3.73319        -3.96819
LJ          0.724228         3.66352         2.89576
LJ            2.7179         6.14641        -3.64366
LJ           3.55114        -3.83002         1.71143
LJ           1.04678         4.73998        -4.49343
LJ          -3.71046         6.43224        -4.46284
LJ          -1.11694         5.01069        0.425224
LJ         -0.865933         4.77426         2.51206
LJ           1.16426         4.27397       -0.776072
LJ           3.55254        -3.44426        -1.94768
LJ          -3.15972        -3.39894         -2.8391
LJ          -3.80964        -6.08861       -0.163048
LJ         0.0936996          1.1739       -0.354869
LJ          -2.25037        -1.74704        -5.92198
LJ          -2.80572         3.85648        -3.16167
LJ          -2.62247         2.71221        -6.15261
LJ           1.36339         3.70051        -6.41602
LJ           5.47656        -0.43161        -2.89229
LJ           5.20097         5.22769        -5.53603
LJ           6.37012         1.07667         4.98056
LJ          0.672324        -2.27986       -0.994183
LJ          -5.11709         2.87107        -1.99689
LJ          -6.20121         1.96055        -4.85857
LJ          -3.36329         4.48789         5.94799
LJ           4.33647        -1.84825         1.57668
LJ           5.81116        -4.79126        -4.67052
LJ          -1.79627        -6.39308        -4.08009
LJ          -4.36359        -4.98774        -2.44191
LJ          -3.68609        -3.76165       -0.654258
LJ           -2.7801         5.84845        -3.76556
LJ           4.55424         3.93117        -6.28496
LJ          -3.57658         2.68045        -4.95909
LJ           5.18705         1.73134          4.9592
LJ          -3.81243        -5.06413         1.44375
LJ         -0.901556        -5.27952        0.723765
LJ          -1.26228        -3.86902       -0.661741
LJ           3.75957         5.86636         -3.9294
