108
#Comment!
LJ           1.26998        -5.61091       -0.673086
LJ          -2.29521       -0.827306        -1.12288
LJ          -2.68082         6.21773         4.31679
LJ          -5.93306        -4.59226        -5.74866
LJ          -1.55103         6.25925        -2.65293
LJ          -4.42387       -0.316338         2.13698
LJ           6.15294        -2.61962        -4.28239
LJ           2.45519         2.76172       -0.048995
LJ          -2.57085        0.390808         2.30552
LJ           1.40564         2.66098        0.315921
LJ          0.010816        -3.70359         -6.0788
LJ          -6.40792        0.607365         3.17028
LJ          -5.10898         5.90215         2.73275
LJ          -4.22892         -1.6122        -6.10845
LJ          -2.21571         5.38908          2.7055
LJ           5.86862       -0.306995         6.34281
LJ          0.818055        -2.78156        0.596547
LJ           2.86672         1.99233         1.33877
LJ           4.19928         5.48065       -0.150518
LJ          -6.43981        -3.95399        -4.15256
LJ          -2.07019          4.9284        -6.10798
LJ           1.34142        -1.44097        -1.18842
LJ          -3.71228       -0.903858        0.645568
LJ          -5.06409       -0.648785        -4.27686
LJ        -0.0607735        0.943287        0.802514
LJ            6.2079         1.89225         3.12744
LJ           2.67161         1.55816       -0.169924
LJ          -2.36441        -2.83522        -5.73041
LJ          -1.24104        -2.19863        -4.60709
LJ           5.49723         4.18716        -3.89498
LJ         -0.192673        -2.11874        0.433157
LJ          -3.19674         3.12255         3.74583
LJ           2.90245         5.66378         5.50053
LJ          -6.37741        -5.76795         5.96764
LJ           1.68418         3.88263         3.98634
LJ           3.07541       -0.216023         5.18682
LJ          -1.42605       -0.343245        -3.52849
LJ          -4.10541        -1.98099         1.33708
LJ          -3.76117        -6.29614        -2.65673
LJ            2.8039         2.95693         2.49802
LJ          -4.82984         5.03188        -4.62075
LJ           2.25468        -5.00256        -5.25015
LJ          -3.59316        -1.04141        -3.99204
LJ           1.91538         2.69347         1.43537
LJ           4.36548         1.77645         -2.1795
LJ           1.06457         6.39319         5.29495
LJ            3.8406        -1.75153       -0.775295
LJ          -1.01742        -5.52194        -2.54538
LJ           1.80403         3.67247        -2.68855
LJ         -0.138934        -5.49078         4.35248
LJ           2.15966         5.22829        -5.44539
LJ           -1.0504          -3.807        -6.36051
LJ           5.81256        -2.96757       -0.639419
LJ          -3.28691        -1.00377        -5.15474
LJ          -0.99924        -1.03975         -4.1878
LJ          -1.87914         2.36778         4.33139
LJ          -1.44915         1.96518        -2.65637
LJ          -3.29377         2.71194         5.55712
LJ          -4.18835         2.36158         4.51918
LJ          -3.49008         4.83906        -3.04123
LJ          -3.67877        -4.80946         2.43679
LJ           4.12804        -4.51326        -3.49069
LJ           3.95105         4.74973        -5.10864
LJ          -3.21596        -0.96045         5.06566
LJ          -3.56288        -1.64692         4.28922
LJ          -2.28317       -0.889309        -2.66643
LJ          0.699055        -1.64901         2.31813
LJ          -3.63399        0.615044       0.0553927
LJ          -1.75161       -0.678497         1.22889
LJ          -2.77581        -5.09852         1.09975
LJ          -3.64613         4.53548          3.7072
LJ           4.52049         3.66073        -3.96516
LJ          0.795727         3.66628         2.88167
LJ           2.76009         6.18584        -3.69033
LJ           3.65644        -3.90649         1.65101
LJ             1.021         4.76503        -4.55983
LJ          -3.78216         6.39345        -4.49794
LJ          -1.10813         5.04397        0.379972
LJ         -0.963806         4.75048         2.55555
LJ           1.19438         4.38324        -0.73194
LJ           3.51032        -3.41857        -1.92371
LJ          -3.21734        -3.45545         -2.8358
LJ          -3.87729        -6.17957       -0.226929
LJ          0.111007         1.16109       -0.421541
LJ          -2.15481        -1.73456        -6.10645
LJ            -2.905         3.86878        -3.05529
LJ          -2.64318         2.67025         -6.1089
LJ           1.38011         3.70833        -6.44994
LJ           5.43477       -0.454893        -2.87154
LJ           5.28796         5.29692        -5.51079
LJ           6.29456         1.05398         4.99885
LJ          0.748657        -2.27332       -0.924423
LJ          -5.15245         2.99704        -1.97628
LJ          -6.16162         1.93747         -4.8329
LJ          -3.50758         4.42985         6.04728
LJ           4.30296        -1.79519         1.56126
LJ           5.81409        -4.73315        -4.74281
LJ          -1.86964        -6.41586        -4.10524
LJ          -4.31523        -5.00526         -2.4351
LJ          -3.70139         -3.7099       -0.534471
LJ          -2.74681          5.7242        -3.77067
LJ           4.55434         3.97649         -6.2926
LJ          -3.55803         2.54761          -5.023
LJ           5.18912         1.76025         4.93035
LJ          -3.77396        -5.16269         1.48756
LJ         -0.913131        -5.25111        0.651433
LJ          -1.22646        -3.90328       -0.587552
LJ           3.72558         5.86943        -3.88802
