108
#Comment!
LJ           4.33155        0.642332         5.43031
LJ          0.167614         5.03573         2.55663
LJ           5.24405         2.14136         2.93278
LJ          0.300558         6.00245         3.37005
LJ           3.29875         6.17554        -5.07327
LJ           3.53752         3.82861        -3.80761
LJ          0.497678          2.3804         5.11005
LJ           3.03377        -5.72675          1.6935
LJ          0.291673         -2.6878         3.74127
LJ        -0.0548506         1.67005         1.77944
LJ           4.23382         1.69439        -2.92785
LJ          -1.12925         2.27591        -6.07767
LJ          -3.39832        -2.55538         3.25847
LJ          -5.14159         4.57901        -4.71534
LJ         0.0953292         2.03922         6.18453
LJ          -1.83072       -0.113808        0.550919
LJ           1.61001        -2.32861        -1.72629
LJ         -0.998035        -2.21076       -0.230954
LJ           5.05513        -2.47653        -6.09606
LJ           1.03657         2.98834        -3.15092
LJ           2.89663         1.42824         4.58016
LJ           1.55715        0.370055         1.05302
LJ           3.70432        -2.39795         1.95421
LJ          -6.37046         -4.5019       -0.287033
LJ          -2.07966      -0.0549797         2.78326
LJ          -5.70386         -4.3215         5.49714
LJ            3.7729        -2.14172        -2.70869
LJ           -3.3042         6.07439        -2.73304
LJ          -5.77201        -3.14255       -0.273114
LJ           2.86529        -3.65768       -0.888377
LJ           2.73305         6.12136      -0.0624568
LJ           3.52784         2.71785        0.221912
LJ         0.0383614        -2.43162         5.63187
LJ         -0.435808         1.64966        0.143319
LJ          -5.12921        0.514497        -4.04178
LJ          0.971503         4.42939         1.79377
LJ          -3.34683       -0.023868         3.96424
LJ          -4.78977        -4.68881         1.98575
LJ         0.0147999         -5.2892         3.82868
LJ           1.83054         2.44306         4.06044
LJ            5.5157         2.14193       0.0844652
LJ         -0.446179         2.97015         4.83611
LJ           -4.6107           0.918         3.25363
LJ            2.5551         4.84593        0.300017
LJ          -4.56688         3.31121        -5.30584
LJ           3.18511        -5.81043        -3.00225
LJ        -0.0992631       -0.247525         3.90644
LJ          -3.59082        -5.85502        -1.98043
LJ          -4.67245        0.797525       -0.106995
LJ          -5.03466      0.00792375        -1.81699
LJ           6.23344      -0.0194073       -0.934135
LJ          0.239316        -3.86233         4.62145
LJ           6.02624         4.90944        -5.07196
LJ           3.80381        -6.45268       0.0203346
LJ          -3.07624         3.16898        -5.62469
LJ           4.08676          0.8393        0.453484
LJ          -1.57907       0.0621492          1.6679
LJ           3.57846         4.95997        -4.13157
LJ          -6.05034         1.41952         2.24795
LJ           1.67961        -1.58271          2.3599
LJ          0.436733         -5.3546        -2.23873
LJ          0.685961         2.82127        -1.26785
LJ         0.0993666         1.39324         -4.3379
LJ         -0.842524        -4.66186         1.19939
LJ          -1.26765        -3.51758         2.22992
LJ          -5.74218        0.168273         5.72001
LJ          -5.31715          2.1152         1.52387
LJ           5.87431        -3.40742        -5.56322
LJ          0.190266         5.36383         4.69525
LJ            1.3043         1.54694        0.169272
LJ          -3.73424         3.34956         3.34146
LJ           3.76823          1.2016        -3.89827
LJ           1.93958        -4.74992        -1.57914
LJ          0.874006        0.311949        -6.19594
LJ           5.01497         5.08079        -3.18492
LJ           4.70503        -1.42989        -2.09694
LJ          -0.76484        -4.73581       0.0767772
LJ         -0.310847        -3.76315         5.62229
LJ       -0.00337367         2.15842        -2.73909
LJ           4.31438         3.11816        -2.45014
LJ           5.14403         5.86603        -4.13021
LJ           0.85995          1.4685         5.86934
LJ            3.1753        -1.30412         2.32378
LJ           6.28773        -5.98733         3.72486
LJ          -2.52463        -4.97612        -2.42273
LJ           1.73545       -0.585562        0.704022
LJ          -2.18821        -2.28955         1.58006
LJ           1.44197         1.22884        -5.64707
LJ           5.38721        -5.51187        -4.40547
LJ           1.18743        -4.88557         2.85204
LJ          -1.35448       -0.961959         4.52304
LJ         0.0384226        0.535987        -4.89275
LJ          -3.74926          -1.565         6.07191
LJ           4.54379        -6.35099        -5.94628
LJ          -4.03924       -0.681467         2.73001
LJ          -2.92443         6.36445       -0.144257
LJ           3.55156         2.58772          1.3197
LJ           4.67409         5.50571         -5.5939
LJ          -3.41131        -6.18133        -3.51125
LJ          -5.63537        -1.97264        0.918415
LJ           3.40506         2.12233        -3.41558
LJ          -4.28521         5.12167        -0.99899
LJ          -1.46982         3.89421         -1.2733
LJ          -3.06748        -2.89401         -5.2563
LJ          -4.14412        -4.17148         5.28056
LJ          -1.11837        0.402515         3.68145
LJ           2.28365       0.0330689         1.49968
LJ          -5.97688          1.6699        -3.08565
