108
#Comment!
LJ         -0.573983         4.03947         1.95418
LJ           4.79212         2.27932         -4.3828
LJ           4.21732        0.982322         3.45065
LJ         -0.851954        0.145779         1.23866
LJ            1.7206        -1.41574         4.60219
LJ           4.39833        -2.25473        0.028052
LJ          -1.90763         1.36231        -3.96651
LJ          -1.57089         3.32379        -1.17463
LJ           5.53308         5.10177        0.323942
LJ           -2.6479         3.65407        -1.68826
LJ          -2.84072        -3.22846        -5.40051
LJ          -2.42761         4.27386         6.15553
LJ          0.830708          4.9796         6.12608
LJ         -0.652267        -4.11114        -4.15848
LJ           1.37844        -6.20069        -1.36159
LJ          -2.10447        -5.21889         6.11032
LJ          0.593231        -3.00907        -1.60565
LJ           4.91283          0.2584         5.01116
LJ          -4.05767        -2.42071        -3.44018
LJ          -4.74634        -1.30749        -6.10544
LJ          -6.02297        -4.25671         4.73354
LJ           -2.8495         1.29203        -1.34871
LJ           3.66328        -2.65462        -5.72854
LJ         -0.123008         3.32498        -2.87296
LJ          -5.08492         1.83523        -4.76197
LJ          0.171328       -0.983866         4.87794
LJ          -5.92129         3.99469         1.55731
LJ           6.09411         2.64479        -4.24574
LJ           1.66095          3.0464         5.02684
LJ          0.737267        -1.19464         3.68388
LJ          -4.91028      -0.0116669        0.876267
LJ             -1.64        -4.45246        0.801703
LJ           2.71007        -1.35245        -5.91077
LJ           2.30415        -2.90422        0.189388
LJ           1.49464        -3.09539        -3.25175
LJ          -5.52193        -2.20599        -5.92954
LJ         -0.319051         3.94459        0.221572
LJ          -1.90744         5.57579        -5.80458
LJ          -1.68915          3.3396         2.21775
LJ          -3.35705        -6.24937        -3.10688
LJ           4.91199         -6.1323         4.35103
LJ          0.961908        -5.06126        -2.92402
LJ          -5.66295         1.98666         4.84039
LJ          -2.88108        0.852453        -3.61423
LJ          -1.80548        0.881621         4.25716
LJ           3.88814        -1.49013         3.66522
LJ           2.82211        -4.44935         2.52701
LJ           5.04742        -5.39581        0.338228
LJ           5.46605         3.60816         4.80641
LJ           4.35314         5.35283         3.61176
LJ         -0.944765        -6.05326         -5.5956
LJ          -3.10816         3.31115        -0.74801
LJ          -4.63687        -4.89387        -1.82539
LJ           2.25343        -4.10992         3.58766
LJ           1.15191         -4.3265         5.10314
LJ           2.69274        -6.37465         3.19719
LJ           2.21661         4.99107        -2.46797
LJ          -3.32293        -4.62751          5.8938
LJ           2.38449         3.78024         2.68168
LJ           1.03702         4.56559        -1.53192
LJ          -2.45387         4.47604         4.06565
LJ           3.68163         0.52782         1.85954
LJ          0.781415        -1.23982         2.24194
LJ          -5.02876        -6.10631        0.268141
LJ           2.67132         5.34696         4.76376
LJ           4.23785         4.74961         4.81051
LJ          0.338926        0.547601        -4.69111
LJ          -3.64994        -2.78129         5.72864
LJ           4.62977         1.91691        -3.21663
LJ           -2.4389        -6.38781        -6.23094
LJ          -3.83506         2.50233         3.17351
LJ           4.75911       -0.952416         3.54505
LJ          -4.11605       -0.795556         5.33504
LJ           3.73431        -5.91019        -4.75973
LJ          -1.43546         2.53672        -3.75098
LJ          -3.66325         1.55598         1.02337
LJ           6.02008          6.0448        -2.13939
LJ          -5.20197         2.80801         5.73289
LJ          -2.65519         2.22467        -3.03346
LJ          -1.12784         -4.6305        -1.55424
LJ          -5.13255         6.42862        -1.05915
LJ          -1.77799         3.16442         3.57065
LJ          -2.31991        -1.24751       -0.473707
LJ         -0.429924          3.8617        -5.29125
LJ          -1.82521         2.33379        -0.85344
LJ           4.97994        -3.34553         6.02621
LJ           5.37309        -5.80853         3.44271
LJ           6.44463         2.46065         5.45039
LJ            5.4355          5.0367        -2.78044
LJ           1.87765         1.12079         4.37522
LJ          -2.13681        -4.23534          5.0807
LJ          -2.65431        -3.81502       -0.340958
LJ           1.06797         3.63196         2.40038
LJ          -3.58768         1.70476        -3.07746
LJ           3.29022         4.66076         3.63596
LJ           6.31002         4.32019         4.54762
LJ           2.32848         4.95543        -6.04374
LJ          -2.29202        -2.33864        0.519025
LJ           5.02658        -2.67027        -4.99554
LJ           -5.8276        -5.70835         6.42466
LJ           -3.0388         3.47573         4.82704
LJ           2.64317        -1.09595        0.980104
LJ           5.42208         -4.4625       0.0880584
LJ           2.50828        0.261538          4.5582
LJ          -4.78637        0.618154        -1.24621
LJ          -3.03494        -5.88411        -4.11717
LJ          -3.53922       -0.199208        -1.54497
LJ          0.581785         2.59319        -5.12635
