108
#Comment!
LJ            1.2909        -5.79955       -0.612989
LJ          -2.21043       -0.897357        -1.14652
LJ          -2.57443         6.06308         4.30754
LJ          -6.03931        -4.51198         -5.7265
LJ          -1.44725         6.26088        -2.56607
LJ          -4.55976       -0.204439         2.21298
LJ            6.0615        -2.62578        -4.30516
LJ           2.36386         2.62028      -0.0502048
LJ          -2.60839        0.435397         2.50825
LJ           1.37669         2.59364        0.259355
LJ          0.074932        -3.74661        -5.89548
LJ          -6.26704        0.700645         3.20253
LJ          -4.96288         5.93331         2.78835
LJ          -4.47614        -1.50829        -6.10176
LJ          -2.38782         5.62063         2.70862
LJ           5.77487       -0.202566         6.34543
LJ          0.832822        -2.52549         0.56494
LJ           2.91434         1.92323         1.22861
LJ           4.21112         5.19342       -0.326979
LJ          -6.46167        -3.83866        -4.28562
LJ          -2.17797         5.07973        -6.13357
LJ           1.36883        -1.51988         -1.3344
LJ          -3.73471        -1.06335        0.382497
LJ          -5.16293       -0.631398        -4.20497
LJ         -0.133177         1.00396        0.984946
LJ           6.20983         2.07377         3.21624
LJ           2.66045         1.66308       -0.112345
LJ          -2.30006        -2.89905        -5.75114
LJ          -1.35748        -2.36531         -4.7075
LJ           5.50678         4.23521        -3.72346
LJ         -0.188445         -2.0906        0.488659
LJ          -3.29559         3.06074          3.6094
LJ           2.73687          5.7283         5.40815
LJ            -6.135        -5.84609         6.06314
LJ           1.95975         3.89979         4.04999
LJ           3.06454       -0.362801         5.15884
LJ          -1.45764       -0.280204        -3.64736
LJ          -4.09059         -2.1199         1.43477
LJ          -3.87268        -6.33509        -2.69089
LJ           2.75773         2.93871         2.54183
LJ          -4.93961         5.01695        -4.52017
LJ           2.38924        -4.88291        -5.32848
LJ          -3.43318       -0.952981        -3.83602
LJ           1.94573         2.72382         1.27532
LJ           4.43009         1.82532        -2.20115
LJ           1.05062           6.428         5.31631
LJ           3.95396        -1.50834       -0.706131
LJ         -0.904694        -5.49756        -2.59835
LJ           1.82493         3.61736        -2.83593
LJ          -0.23543        -5.39754         4.25141
LJ           2.07283         5.35592        -5.49363
LJ         -0.886309        -3.95468        -6.44589
LJ           5.68269        -3.23419       -0.547833
LJ          -3.31497        -1.04169        -5.12716
LJ         -0.955632        -1.36497        -4.06374
LJ          -1.96312         2.41569         4.20631
LJ          -1.43783         1.90006        -2.50974
LJ          -3.12481          2.8124         5.51509
LJ          -4.22452         2.21939         4.57919
LJ           -3.5635         5.00505        -3.32459
LJ          -3.83326        -5.00206         2.56087
LJ           4.24831         -4.7003        -3.59757
LJ           3.85742         4.63329        -4.93816
LJ          -3.13538        -1.00297         5.04482
LJ           -3.5505        -1.76954         4.29128
LJ          -2.37909       -0.874822        -2.72568
LJ          0.775987        -1.62175         2.33141
LJ          -3.85141        0.584581      -0.0349694
LJ           -1.6379        -0.57608         1.27322
LJ          -2.92747        -4.96461         1.14238
LJ          -3.49809         4.49993         3.63747
LJ           4.57986         3.80115        -3.97522
LJ          0.654136         3.66113         2.91098
LJ           2.67286          6.1076        -3.59688
LJ           3.44592        -3.75326         1.77179
LJ           1.07449         4.71566        -4.42848
LJ          -3.63488        -6.45887        -4.42353
LJ          -1.12569         4.97744        0.470814
LJ         -0.769431         4.79866         2.46863
LJ           1.13442         4.16398       -0.819986
LJ           3.59495        -3.46993        -1.97175
LJ          -3.10231        -3.34268         -2.8422
LJ          -3.74164        -5.99679      -0.0983674
LJ         0.0758627         1.18607       -0.282414
LJ          -2.34763         -1.7607        -5.73435
LJ          -2.70948         3.84887        -3.26839
LJ          -2.60548          2.7547        -6.19865
LJ           1.34688         3.69326        -6.38178
LJ           5.51837        -0.40833        -2.91305
LJ           5.11061         5.15578        -5.56043
LJ            6.4414         1.10145         4.96144
LJ          0.589847        -2.29347        -1.05884
LJ          -5.08168         2.74516        -2.01758
LJ           -6.2408         1.98367        -4.88423
LJ          -3.21724         4.54534         5.84944
LJ           4.36986        -1.90157         1.59195
LJ           5.81255        -4.84469        -4.59734
LJ          -1.72757        -6.37395        -4.05053
LJ           -4.4103        -4.97304        -2.44924
LJ          -3.67063        -3.81368       -0.774091
LJ          -2.81566         5.97528        -3.76098
LJ           4.55402         3.88817        -6.27482
LJ          -3.59346         2.81356        -4.89719
LJ           5.18947         1.70001         4.98785
LJ          -3.92243        -4.97184         1.40513
LJ         -0.890455        -5.30762        0.795825
LJ          -1.29802        -3.83495       -0.735593
LJ           3.79664         5.86076         -3.9729
