108
#Comment!
LJ          -5.51617         2.49424        -3.02426
LJ         -0.381753        -5.13245         3.13423
LJ          -3.19328         2.36247         2.76424
LJ           2.22617        -3.28432         1.32353
LJ          -3.37711         -2.6076       -0.118836
LJ          -1.72922       -0.126849        -2.14069
LJ           3.65509        -5.16401         -4.3763
LJ           -5.9515        -2.74929         2.47321
LJ          -2.84239         6.34242        0.659327
LJ           5.26281         5.06344         5.71445
LJ          -5.57434        -5.92238         2.54305
LJ           6.18207        -2.98928        -5.53445
LJ           4.46126        -1.47853         3.84006
LJ         -0.544647         1.05407         6.22097
LJ         -0.126834       -0.683057         -3.2709
LJ           5.51859         3.59959      -0.0682959
LJ           5.08264         5.71045          -3.944
LJ            4.2727         6.28234         2.47118
LJ          -1.33678       0.0717907       -0.313383
LJ          -6.05625         1.25105       -0.575099
LJ          -1.65582         3.14914         4.57314
LJ           2.91803         0.83804          2.5934
LJ           6.43304        -4.37948        -4.26464
LJ          0.844488        -1.29138         1.22138
LJ          -4.73181        -4.19209         3.30501
LJ         -0.640409         5.85905        -1.99048
LJ          -6.37257         2.77966        0.746706
LJ          -4.45691         6.01744        -5.07012
LJ          0.031118         5.31702        0.681493
LJ           3.13119     -0.00577622        0.277207
LJ          -5.78779        -2.51213         -2.4554
LJ           3.51664       -0.811273        -1.94432
LJ           4.37668      -0.0864241        -1.58148
LJ            3.0461        -4.99718        -3.27568
LJ           6.43258        -1.20374         5.44423
LJ          -1.42158         5.50752       0.0706798
LJ          -5.53114        -6.09441         -6.0652
LJ          -6.02706         3.09456         5.74906
LJ           2.49047         2.81047          3.5026
LJ          -3.05196        -3.86377        -2.19944
LJ           2.67328        -3.10748         3.10769
LJ           3.98101         -4.2309         1.25568
LJ           1.23403         2.28704          3.9671
LJ           5.18512         1.21818         1.80558
LJ          -4.90528        0.466245         5.86804
LJ           4.31444         4.30666        0.965312
LJ          -1.68712        -6.28564         4.33638
LJ          -5.84543         -5.2675        -2.77529
LJ           3.28398        -3.06143         4.45012
LJ           3.54753        -6.43303        -5.96512
LJ           3.85132        -4.01745         5.87446
LJ           3.80333         1.84691          1.8083
LJ           5.55637         4.09338         2.31946
LJ          -5.65557        -3.60805         3.35473
LJ           2.69331       -0.263822        -2.46496
LJ           1.99135        0.378906         4.21128
LJ           1.30884        -1.91911        -3.01468
LJ           4.58257        -4.90024        -0.42974
LJ           3.25958        -5.85497        -1.81022
LJ           2.54131        -5.07424        -4.49087
LJ           -4.4615        0.925342        -5.85532
LJ           2.48526         5.56951         6.17052
LJ           1.91826        -4.91983         3.04324
LJ         -0.751045        -3.43693        -2.79686
LJ          -2.29767          5.0212          -2.543
LJ           3.83948        -3.69182        -5.16428
LJ             5.652        -1.00151        -6.30267
LJ          -6.16753        -2.61724         6.25835
LJ          0.418494         1.70945       -0.379679
LJ         -0.523903        0.985205         3.49011
LJ          0.383169        -3.63496         1.62364
LJ           5.42745        0.412984        -1.22672
LJ           2.96186         4.90315         3.59615
LJ         -0.518393         2.55974        0.586029
LJ           3.81327         5.38843        -1.30499
LJ          -3.85849         2.96598       -0.143441
LJ          -6.30821          6.4283        -5.36505
LJ           -3.1881         4.74658        -1.22557
LJ          -4.58361        -1.57083        -3.84368
LJ           -2.3027        -2.25532       -0.179902
LJ           3.38325         3.81502        -3.58172
LJ          -1.68266        -1.48517         6.28611
LJ           3.00979         2.65758        0.959024
LJ          -5.00628         3.12646         3.33162
LJ           -2.4871        -6.10055       -0.257112
LJ          -4.34346        -3.32137       -0.666536
LJ           1.73476         1.24024          3.5245
LJ           1.42862      -0.0637662        -6.29133
LJ          -4.82543         0.35026        -3.43956
LJ          -4.69052        -5.59495         4.85779
LJ           1.93421       -0.770034        0.304673
LJ          -1.30203        -1.53206       -0.507146
LJ          -6.05324         5.64491        -6.05606
LJ          0.452544          6.3422        -3.39001
LJ           5.48274         4.27959         1.01331
LJ           -5.6562         4.93167        -1.36651
LJ          -5.54056       -0.473281        -2.26553
LJ           5.37642         5.19024         2.60873
LJ           3.13405         4.83344         1.80625
LJ           -4.6631         3.36471        -6.07442
LJ           3.93759        0.669799               2
LJ          -1.61148           5.502         3.06563
LJ           5.32944        0.678627         5.22293
LJ          -4.61478        -1.91419         5.30119
LJ           1.13101         -2.9241       -0.743372
LJ          -5.36931        -4.84525         3.91184
LJ          -2.17268         -2.3588        -2.91161
LJ          -4.00531        -3.87016        -5.15909
