108
#Comment!
LJ           2.89157          1.8023         4.42797
LJ           2.82746        -6.27618       -0.167931
LJ           1.86921         2.34458         1.62673
LJ            1.5266        -6.00185         4.86628
LJ           2.93517         -5.0538         4.91024
LJ           3.35591         5.44427        -4.94925
LJ           2.40522        0.204487         5.84965
LJ           4.96219        -2.39237       -0.688853
LJ           -1.7787        -1.03664         5.24643
LJ           1.40903         1.21235        0.529301
LJ           4.69457        -1.66741        -3.67385
LJ          -2.06248         3.05742          5.0845
LJ          -2.87195        -4.14633       -0.980879
LJ          -2.31934         4.58852        -4.10816
LJ           1.30426        0.359967         6.08139
LJ        -0.0371624        -2.89357         3.08258
LJ           2.74293        -2.42843        -1.23093
LJ         0.0812697       -0.658721       -0.145914
LJ           3.36984        -4.37041         -4.1248
LJ           1.90266       0.0223628        -4.72131
LJ           3.74335        -1.07152         4.48631
LJ         -0.332933         3.13754        -1.51898
LJ           4.80013        -4.08639        0.591158
LJ          -6.08208        -3.49878        -1.51989
LJ          -1.43223       0.0769657         2.86888
LJ           3.40652         6.17995          5.4074
LJ           3.26808        -1.50383        -2.56734
LJ          -2.75114         5.89328       -0.663735
LJ           5.42408        -1.05811         1.50976
LJ           3.90651         -4.6564        -1.50851
LJ           2.37943         4.10904          1.3244
LJ           5.87255         2.57027         1.25407
LJ          0.479191        -3.62256         3.69652
LJ          -1.24623         5.09115        0.891447
LJ          -5.30007         2.64109         -5.1981
LJ           2.30354         5.56497         3.21775
LJ          -2.63299       -0.356723         4.34964
LJ           4.76216        -5.81739       -0.567776
LJ          -2.84002        -5.80247         5.78515
LJ            2.1303        0.701935         3.36829
LJ              5.91         3.74869       -0.855056
LJ          -3.32478        0.947402         5.04798
LJ          -4.82291         2.11039         6.23195
LJ            1.8464         3.30331        0.526794
LJ          -5.90453         1.67675         -6.2814
LJ           1.67284         5.52443        -5.03701
LJ          -3.44147        -2.97909         2.76667
LJ          -3.10881         5.96525        -2.83155
LJ          -2.91324         1.47781        -1.53548
LJ           -4.2543        -1.41975       -0.692875
LJ          -3.95608        -1.53698         1.07242
LJ          -4.04119         -4.4995        -6.02216
LJ           5.70026          -3.484         5.58089
LJ         0.0255344        -3.89903         -1.1859
LJ          -2.14223         5.46938        -3.04381
LJ           4.87608         2.41413        0.351476
LJ          -1.96616      -0.0818155         1.00572
LJ           2.46351         5.11993         -1.2907
LJ          -5.94684         1.06892         3.17573
LJ         0.0418408        -3.29751         1.26669
LJ           1.74753        -3.44026       -0.577479
LJ           3.68789         2.97894        -2.90334
LJ           2.08106         3.79185        -4.53646
LJ          -1.42049        -4.40423         2.98782
LJ          -1.93704        -3.27493         2.61625
LJ           4.55651        -4.38885         3.83588
LJ           4.18783         1.07343        0.555505
LJ          -3.00615        -2.24654        -5.11706
LJ          0.298077         4.33401         3.92398
LJ          -0.47549         2.07382         1.42937
LJ           -1.8482         1.99258         1.33004
LJ            4.2773       -0.519593        -4.07167
LJ            1.9914        -5.19537       -0.810143
LJ           0.51665         1.69839        -5.40234
LJ          -5.13997         2.41398        -4.06525
LJ           4.08575         0.14356        -1.45675
LJ           -1.3357        -5.07036         1.02675
LJ          -0.16556       -0.674334         5.81567
LJ           1.03058         2.24956        -1.70941
LJ           2.71621       -0.357973        -1.01355
LJ            -6.359         6.05228        -3.80209
LJ           1.68251         1.31313        -5.31589
LJ           1.87134       -0.950412         2.76209
LJ          -3.84769         5.59689         3.38854
LJ          -2.77133        -4.04428        -3.46339
LJ           4.58489       -0.476348         1.61983
LJ         -0.624173        -3.66044         3.20778
LJ           1.11663         2.33101        -4.55882
LJ            4.9302         5.33604         -3.6728
LJ           1.17497        -5.81223         3.88541
LJ          -1.19268        0.828334         4.26735
LJ          0.882792       -0.580349        -4.46042
LJ          -2.98973         2.30069        -5.24431
LJ           4.20173         4.75239        -6.03541
LJ          -5.67363        -1.92579         2.85589
LJ          -4.42173        -5.69193        0.554426
LJ           4.78541          4.5406         0.54491
LJ           3.51447         4.34974        -5.09083
LJ          -4.55474        -5.34563        -4.35228
LJ          -4.88719         1.02865         3.47204
LJ           2.86898         5.73586        -3.11612
LJ          -5.84566         5.14478        -2.75286
LJ          -1.65757         1.76521       -0.169584
LJ          -4.13608        -1.20558        -5.85907
LJ          -3.02591        -1.31296         3.18832
LJ         -0.592616         2.77932          4.7452
LJ           5.43706        -2.45705        0.993875
LJ           6.21673         1.58907        -3.35635
