108
#Comment!
LJ          -3.40704         4.75157         6.26758
LJ          -1.07506         4.67768       -0.978418
LJ          -4.42088          2.1705         2.98384
LJ          -1.08777        0.584608        0.978539
LJ           -5.2917        0.244893       -0.502241
LJ          -5.13248         1.26219         4.46952
LJ           1.64301         6.29361        -6.04425
LJ           6.21145         1.20719        -2.22861
LJ           5.34698        -5.68937         1.80717
LJ          -5.30219         3.74987         4.22559
LJ           6.23213       -0.166709        -1.76226
LJ           2.99109        -1.38824        -4.28037
LJ          -2.63201        0.204181         6.09135
LJ           2.03619          1.0707          4.4669
LJ           2.18895         4.10823        -5.97235
LJ          -5.49552         5.67553         1.12136
LJ          -4.36782         1.15063         -3.2137
LJ          -3.19212         5.91451        -1.29493
LJ          -2.06985         1.82059         2.38301
LJ          -3.18467         4.48841        -1.60905
LJ         -0.436152         4.64852        -5.81397
LJ         -0.811448         3.84729         3.32186
LJ           4.01472        -4.13679        0.796605
LJ          -2.68137        -4.16212        -6.31015
LJ          -6.35295        -3.18247         2.23565
LJ          -1.54132        -0.68906        -3.94242
LJ           4.31892        -6.44734        -2.32163
LJ          -2.32644         4.81602         5.01813
LJ           5.34528         5.30532       -0.592167
LJ          -1.22428        -2.30435        0.399134
LJ           4.26263        -2.89499        -3.01336
LJ           2.36185        0.604012       -0.808775
LJ          -4.85149      -0.0909449         -3.1793
LJ           2.53293        -6.39754        -5.02994
LJ           6.37781       -0.764625         1.52341
LJ          -1.94521         5.08732       -0.839835
LJ          -2.86897         3.94901         4.68053
LJ           3.73296         5.42662        -5.04335
LJ            2.2971         4.60721         3.22929
LJ          -1.49177          -6.074        -5.43303
LJ           3.58829      -0.0832096          2.7862
LJ          0.517824        -5.63674         3.52384
LJ           3.70995       -0.798081        -3.76352
LJ           5.03986        -1.12433        -4.20091
LJ          -2.97001        -3.97287         1.25058
LJ           4.92405        0.673879        0.265911
LJ          -4.93195         3.87804         1.40797
LJ          -5.31521        -5.79186         -1.7436
LJ            2.5371       -0.876751         1.90431
LJ           5.06265         3.90226        -3.21062
LJ           1.92205        -1.04553        -4.90153
LJ          -1.94894        -1.75295         4.15724
LJ          -3.07714          1.0594         1.08697
LJ          -5.39323         4.71201        0.502128
LJ          0.246823         5.13073        -2.76311
LJ            4.6186       -0.757828         2.52188
LJ           1.84908       -0.363039         0.66943
LJ           6.00002        -4.47244         2.16375
LJ            6.0217         6.31386        0.157659
LJ           2.50979         5.68342        -5.54639
LJ          -0.48293         -2.1055        -5.62335
LJ          -1.65145         -4.6154         6.22417
LJ          -3.36828         4.08969        0.852687
LJ         -0.801164        -5.05462        -3.17716
LJ          -1.52974          3.5283         1.61129
LJ           4.91942        -2.53011        -4.15546
LJ           6.39758         1.18707         5.72576
LJ           2.80566        -2.65655        -3.21857
LJ          -1.62648       -0.523918           3.312
LJ         -0.770736       -0.437834         1.26035
LJ           3.22048        -5.90154        -3.20907
LJ          -5.87404        0.492278         -2.6195
LJ            1.1583         4.87123        -3.89442
LJ         -0.303057         3.51251         4.47182
LJ            6.4056         5.19287        -1.27135
LJ           5.84805      -0.0178219        -2.84741
LJ          -1.18919        -3.94859        -2.51979
LJ           6.12907         5.70248        -5.45638
LJ        0.00905758         3.34386        -4.50879
LJ          -2.93739        -1.29524        0.711451
LJ           2.88933        -1.44477        -5.68067
LJ          -1.93923         -1.9065        -5.45162
LJ           3.99496        -4.51875        -3.28056
LJ          -1.37739        -1.26802         2.54004
LJ         -0.656463        -4.44769        0.641958
LJ          -2.80789        -1.75877         1.98011
LJ           4.96312        0.475528        -5.92675
LJ            1.6324        0.106288         6.32214
LJ          -5.48755        -2.05895        -4.90221
LJ           -6.3618         -5.6181         1.57567
LJ         -0.286189        -1.54464         1.21343
LJ         -0.636287         0.69673         2.23918
LJ          -3.43255        -6.08234        -6.38143
LJ           1.10844        -6.45142        -3.53087
LJ          -3.16946       -0.163085        0.728143
LJ             -4.11         3.99794        -1.35071
LJ          -1.67121       -0.562579        -1.47953
LJ           2.71428         6.36181         6.00959
LJ           -3.8115        -6.18393       -0.181716
LJ           4.95642         2.88882        -4.65604
LJ         -0.189075         1.70509         3.48288
LJ          -1.61038         5.72285          4.3167
LJ          0.877707        -3.61301        -4.63548
LJ         -0.605198        -6.12441        -6.28883
LJ          -2.03544        0.685199        -4.52825
LJ           2.30914        -3.36558         4.31808
LJ            2.0536         5.48627        -4.47971
LJ           2.10459        -2.41285         5.49488
