108
#Comment!
LJ           1.41028         5.99396       -0.253053
LJ          -1.74503        -1.32135        -1.41918
LJ          -2.08109         5.12096         3.83996
LJ           6.20637        -4.37463        -5.74595
LJ         -0.853353        -6.42219         -2.2959
LJ          -5.41042        0.535328         2.73256
LJ           5.44244        -2.64523        -4.36022
LJ           2.17309         2.88825        -0.75623
LJ          -2.83809        0.694777         3.70768
LJ          0.841269         2.16565         0.27861
LJ          0.294831        -4.07136        -4.98659
LJ          -5.44817         1.39003         3.49465
LJ          -3.91108         5.94359         3.11133
LJ          -5.87593        -0.85729        -5.98689
LJ          -3.52288        -5.94533         2.87279
LJ           5.22319        0.477905         6.31104
LJ           1.00612        -1.05613        0.356358
LJ           3.01432         2.02329        0.962688
LJ           4.27724         3.46287        -1.39097
LJ           6.24067         -3.1702        -4.96324
LJ          -2.91948         5.87483         6.43946
LJ           1.28921        -2.11852        -2.12459
LJ           -3.8716        -2.01709        -1.14579
LJ          -5.72354       -0.541803        -3.78132
LJ         -0.563889         1.36412         1.85186
LJ           6.29333         2.95306         3.79641
LJ           2.79094         1.00191       -0.259294
LJ           -2.2096        -3.23327        -6.30062
LJ          -1.90292        -2.80367        -4.56128
LJ           5.66885         4.63263        -2.79151
LJ         -0.242876        -1.82322        0.761225
LJ          -3.70397         2.81237         2.99549
LJ           1.72048         6.08373         4.81308
LJ          -4.68097        -6.27775         -6.2498
LJ           3.58891          3.9846         4.37954
LJ           3.00319        -1.24156         4.99097
LJ          -1.83122       -0.169799        -4.24565
LJ          -3.98029        -2.90118         1.95189
LJ          -4.41911         6.43404        -3.10687
LJ           2.40809          2.7947         2.65171
LJ          -5.46995         4.96251        -3.87391
LJ           3.19698        -4.17383        -5.79247
LJ          -3.07981       -0.405234        -4.13569
LJ           1.98784         2.64067        0.856513
LJ            4.8168         2.12316        -2.33165
LJ          0.973168         -6.2689         5.50616
LJ           4.63208      -0.0560855       -0.287745
LJ          -0.39563        -5.60902        -3.04853
LJ           1.90745         3.40047        -3.78269
LJ         -0.805444        -4.85227         3.65984
LJ           1.52618         6.06242        -5.72672
LJ          0.222672        -4.74784         6.18002
LJ           4.89366        -4.82788     -0.00291979
LJ          -3.81552        -1.00875        -4.69879
LJ         -0.981834        -3.39376        -3.54179
LJ          -2.73825         2.82635         3.45049
LJ          -1.37188         1.50285        -1.63216
LJ          -2.11743         3.45777         4.97959
LJ          -4.34801         1.45049         4.91111
LJ          -3.84614         6.23589        -5.10929
LJ           -4.7807        -5.94582         3.19905
LJ           5.06509        -5.84758        -4.31013
LJ           3.30673         4.18943        -4.05559
LJ          -2.76032        -1.44235         4.76732
LJ          -3.37267        -2.31733         4.46511
LJ           -2.0855       -0.800744         -2.2113
LJ           1.22706        -1.47647         2.34487
LJ          -5.14303        0.338795       -0.566665
LJ         -0.925994       0.0971752         1.54087
LJ          -3.14296        -3.93042         1.34419
LJ          -2.55489         4.12945         3.26033
LJ           4.94613         4.61532         -4.0026
LJ          -0.20557         3.72252         3.04774
LJ           2.34001         5.56077        -3.17225
LJ            2.1956        -2.80592         2.48938
LJ           1.53815         4.38649        -3.63838
LJ            -3.549        -5.64165        -4.55408
LJ          -1.20111         4.58462          1.0724
LJ          0.390265         5.00548         1.95494
LJ          0.846209         2.75689        -1.26169
LJ           4.11397        -3.78164        -2.26243
LJ          -2.34596        -2.68887        -2.78289
LJ          -2.93427        -5.05634        0.551814
LJ        -0.0649796         1.38382         0.77319
LJ          -2.97012        -2.50274        -3.59423
LJ           -1.6707         3.82551         -4.5941
LJ          -2.44691         3.28118         6.34149
LJ           1.16114         3.63921        -5.95206
LJ           6.04513        -0.13359        -3.17677
LJ           3.78643         4.34129        -5.58025
LJ          -5.80895         1.46539          4.5952
LJ         -0.153753        -2.29699        -1.80875
LJ          -4.65547         1.23037        -2.26593
LJ           6.20683          2.2633        -5.19359
LJ          -1.31524         5.17146         5.10632
LJ           4.75128           -2.56         1.76963
LJ           5.90864        -5.19266         -3.7265
LJ          -1.22153        -6.22023        -3.26589
LJ          -4.84963        -4.92552        -2.53663
LJ          -3.50298        -4.47275        -2.26036
LJ          -2.28854        -5.99066        -2.91468
LJ           4.61404         3.28656        -6.13607
LJ          -3.72067         4.45605        -4.15813
LJ           5.45647         1.22452          5.3234
LJ          -5.48649        -3.94092         1.17513
LJ         -0.778485        -5.64206         1.65693
LJ          -1.73601         -3.4146        -1.63294
LJ           4.03912         5.57549        -4.48791
