108
#Comment!
LJ          0.296714        0.786401         -1.0603
LJ          -2.67375        -0.79625         2.71226
LJ           6.11544        -1.45091         4.42072
LJ          -4.71665         6.32849         6.39706
LJ           5.33659         5.49449        -1.18802
LJ          -1.08567        -6.05807         3.48668
LJ           6.23932         -4.8782        -3.58502
LJ           4.58415        -5.38098        -1.27781
LJ          -3.16875       -0.828384         3.76394
LJ          0.108903         3.87022      -0.0841494
LJ        -0.0901812       -0.836199        -0.56614
LJ           4.82514         2.48587          4.3957
LJ           1.12338         5.41037        0.211312
LJ         -0.722894        -3.44444         6.03327
LJ           4.15737         2.19319         6.06476
LJ          -6.10216        -2.62912        -3.43933
LJ          -3.15154         4.78085        0.118206
LJ           3.84198        0.736684         3.59377
LJ           2.59086        -6.41065         5.12465
LJ          -6.45575        -5.33615        -2.62878
LJ         -0.928752       -0.794327        -5.31509
LJ           1.76563        0.329893       -0.592017
LJ           1.55369         1.02557        -2.42782
LJ          -5.12619         1.22916         4.58968
LJ           1.00296        -1.72809        -5.34592
LJ           5.20064        -3.77022       -0.148291
LJ          0.028916        -2.61472        0.600413
LJ           5.74106         2.60183         3.75453
LJ           2.15962         -5.9489         1.36619
LJ           0.59629         1.19332         6.16873
LJ           2.68041        -5.99618         3.21357
LJ          -2.06676        -3.09024        -1.79454
LJ          -3.32858        -3.42151         -2.6259
LJ           3.91267       -0.414439         4.41308
LJ          -3.38562         5.51049        -6.00048
LJ            2.4175        -6.36164        -5.76007
LJ           2.81045        -1.30127         -1.5341
LJ           2.98577        0.481845        0.933877
LJ           -5.5514         1.90552        -2.66005
LJ           3.10302         1.50208         4.16766
LJ         -0.569935        0.738916         2.34642
LJ           1.09959         3.57969        -2.32957
LJ          -4.77672        -4.66727         4.43552
LJ           4.58069         3.64727         4.29777
LJ           1.83838         1.48485        -3.74343
LJ           4.20674         6.34132         2.97948
LJ          0.782478         3.03449         4.72896
LJ            1.0379         2.50158        -3.39464
LJ           0.64324         4.61821         3.53055
LJ           1.47436        -6.46096        -4.93206
LJ           2.81999         2.47105        -5.39911
LJ          -4.05919        -5.13911         2.86481
LJ          -2.32814        -4.20508        -5.11682
LJ          -3.20744        -2.76359         4.65371
LJ          -3.89605         1.43401        -5.20473
LJ           2.71036         5.09901         6.18858
LJ         -0.890555         1.48399         5.08082
LJ             3.591       -0.291392         6.22975
LJ          -4.63088        -4.45691         5.80007
LJ           4.40433        -3.48849         6.25225
LJ           2.66843         4.53054        -1.17367
LJ           5.87462        0.318185        -2.61125
LJ          -5.80972        -2.28273          4.6504
LJ          -5.60245        0.487333         4.00442
LJ          -5.74789         1.69663      -0.0504119
LJ          -3.39888        0.153818        0.282182
LJ           -2.0838        -1.69509         5.85804
LJ           1.49456         2.20962        -2.30455
LJ          -5.54334        -1.69839        -1.23504
LJ           2.53277        -6.00143        0.364005
LJ          -4.82932         2.41273         4.85327
LJ           6.39821        0.655917        -3.44033
LJ           5.69445         5.11721         4.05975
LJ          -1.86526        -3.96146         5.19194
LJ          -1.04918         1.74931        -3.74122
LJ           2.78112         5.39455         1.49234
LJ          -6.08041         5.50334         5.29653
LJ          0.407036        -5.98769        -1.44726
LJ           4.78618          -3.103       -0.966397
LJ           1.62301         4.95032         1.41294
LJ          -2.30583        -5.03236        -6.04614
LJ           5.29855        -5.88012        -3.87203
LJ          -0.81358        0.956348        -2.98747
LJ        -0.0932369       -0.399655        -5.77373
LJ           1.78726        -5.23537         5.86678
LJ          -2.12467         1.69715         4.44605
LJ          -4.39553         2.53004        -3.82299
LJ           1.51999         3.20051        -6.22821
LJ           0.90484        -2.03525         -2.2591
LJ          -4.90368        -2.05134        -5.80009
LJ         -0.015606        0.930983          4.4108
LJ           5.14396         -3.2183         2.40136
LJ         -0.428822       -0.985754        -2.98161
LJ          -2.35614       -0.433203         -3.7034
LJ          -2.94086         -1.2172       -0.909604
LJ             2.134         2.24853         1.80283
LJ          -4.86001        -2.74451        -3.75282
LJ          -5.83759         1.19623        -3.89731
LJ           1.68925        -5.08602     -0.00273477
LJ          -3.32731        -2.97252        -1.51734
LJ         -0.400007        0.753866         5.81654
LJ          -3.76742         2.55034         1.84082
LJ           3.66848        0.818736        -6.31469
LJ           4.44163         1.72538         3.29639
LJ         -0.886318        -1.20062         2.78843
LJ         0.0210418        -6.06754        -2.58741
LJ           4.34111       -0.461309        0.507816
LJ           4.19231         4.30978        -2.73823
