108
#Comment!
LJ           5.03659        -3.99105         5.24838
LJ          -5.48275         6.06553        -4.37552
LJ          -1.77758         1.30525         2.18271
LJ           3.16103        -1.62709         3.64644
LJ           3.34404        -2.22237       -0.570639
LJ          -1.47996        0.573262            2.86
LJ          -4.57494        -4.76414        -4.26735
LJ            5.6703         5.20942         5.34799
LJ          -2.69665         3.12661         3.43484
LJ           1.91326         5.56902         -5.8206
LJ          -5.58419         1.60403        -5.38735
LJ          -2.49836        -3.24596        -5.03525
LJ           2.33372         4.94125        -4.04332
LJ          -2.99162        -3.26562         1.19787
LJ           1.49285        0.504311         1.36176
LJ           6.15237         3.30722         3.70134
LJ           1.09966         2.58784        -0.94202
LJ          -3.55295        -3.13046         6.31823
LJ          -1.43699         1.46113         3.95579
LJ           2.78198         1.90822         1.53276
LJ           2.13441         4.56202       -0.699326
LJ          0.399295         1.93215        -6.03109
LJ           6.43583        -4.42528         6.09439
LJ           2.45212        -3.14395         1.39742
LJ          -2.69469         6.10176         4.87794
LJ           2.44409         3.89777         1.24111
LJ            6.3646      -0.0116791         5.12182
LJ          -2.17664        -6.33996       -0.900023
LJ          -2.23662         5.33664       -0.931382
LJ          0.653685         6.39538        -2.27899
LJ           1.33562         1.56148         1.37948
LJ          -5.63852         6.43631         2.22178
LJ          -1.90763        -6.25674        0.396388
LJ          -2.62865        -4.91042        -5.00584
LJ        -0.0844406         5.89145        -3.92193
LJ           2.31537         5.93566          2.3268
LJ           2.78104        -6.27949        -5.64142
LJ         -0.987283        -1.29124         1.43475
LJ          -3.62989        -4.14908        -5.89065
LJ          -5.29722        -0.73647         5.54087
LJ          0.653305       -0.141723        -1.90328
LJ           3.66265        -3.64908        0.465037
LJ          -6.26724         5.50857        -4.64415
LJ         -0.129447        -5.92699        0.649888
LJ          -1.75708         2.24844        -6.34474
LJ           2.31905       -0.219622        0.683729
LJ           3.28831        -2.97699         3.61059
LJ          -1.22579        -5.96266         4.23439
LJ           1.06868        -5.48405        -5.49337
LJ           1.39258         4.88609        -1.56233
LJ           -2.6239        -4.78182        -3.87843
LJ           5.13338        -2.26291       0.0292044
LJ          -2.95287        -2.53376         2.21606
LJ         -0.230705          4.2897        0.452293
LJ           6.37149          -3.516        -5.58455
LJ           2.16925        -4.10651        -6.04573
LJ          -5.89568        -3.82459        -2.40747
LJ          0.113878        -3.52642         -4.0348
LJ          -4.75841          6.2765        -2.50489
LJ          -3.88519        -2.58094        -4.53284
LJ           -4.5905        0.387874       -0.534368
LJ           1.96112        -0.14677        -4.31612
LJ          -5.96842        -4.44331        -5.37814
LJ         -0.864467       -0.917782         6.28821
LJ           6.02251         1.55544        -4.16543
LJ           -4.9264         4.85017        -2.52008
LJ          -1.16871         5.49331       -0.350971
LJ           4.31348        -5.75111        -6.17029
LJ           5.80879        0.117373        -5.66899
LJ          0.777378         2.22509        -4.16677
LJ         -0.368387        -1.24299         4.09218
LJ          0.092382        0.262277         3.45606
LJ          -4.97355        -5.84427        -5.11063
LJ           2.57328         1.90015        0.557355
LJ         -0.844937        0.450586        -5.38596
LJ           5.34003         4.42018         3.24097
LJ          -2.76197        -4.27309       -0.950579
LJ          -4.83303         4.96285        -6.04569
LJ           2.42904         3.24204         -3.8257
LJ            1.2302        -3.52567        -3.08827
LJ          0.555351        -4.73788        -3.74641
LJ          -1.90174         1.87474          5.6101
LJ           1.84369        -3.97138         1.96207
LJ          -4.33909        -1.07301         1.75127
LJ            4.5622         1.73381       -0.856038
LJ          -0.52009         1.43172        -5.77938
LJ           4.26682        -4.39909         6.18833
LJ           -5.1509        -5.97086        -3.65975
LJ           -5.4514        0.708669        -6.42998
LJ           3.18315        -6.24485        -2.30273
LJ           0.46145        -4.00023         2.21237
LJ           2.63523        -3.45751        0.177185
LJ           4.92104        -5.38451         6.11218
LJ          0.753477        0.431436        -4.82583
LJ          -3.98598        0.312377        -2.52479
LJ          -3.58205        -5.23807         4.44789
LJ          -2.66963         5.31672         -2.0106
LJ          -4.44287        -3.45831         3.71495
LJ          -5.14559        -2.38894        -4.49826
LJ           3.56402         1.40418        0.872428
LJ          -6.01625        -1.72978        0.928777
LJ          -2.78145        0.911955         5.30469
LJ         -0.777337        -1.02204        -2.29549
LJ          -1.91386         2.36769         1.81969
LJ           5.73236       0.0233003         6.06316
LJ          0.492274          5.0132         1.68609
LJ          -4.56186         1.30357         2.95914
LJ           4.24076        -3.93378        -5.49033
