108
#Comment!
LJ           5.68159          2.5942      -0.0695894
LJ         -0.457138           -1.32         4.79468
LJ           -2.7304         3.80198         2.50221
LJ           4.45336        -4.68807         2.50175
LJ          -3.51517        -3.57425        0.659739
LJ          -1.17968       -0.545854        -3.64482
LJ           3.19954        -4.76923        -3.22849
LJ           5.83851        -2.11922         3.88763
LJ         -0.589043          5.3156         1.92166
LJ             5.504         6.22026          5.8566
LJ          -4.81475         4.89654        -5.35243
LJ          -4.94008        -3.83705         5.95908
LJ         -0.302826       -0.722088         3.25196
LJ          -1.29624         1.70193        -4.63399
LJ          -4.80866        -2.27692        -1.59614
LJ           4.35411         3.22009        0.874721
LJ           4.37943        -5.66693        -3.51268
LJ           3.03182        -4.46079        -6.13584
LJ         -0.474156        -2.03799         2.11108
LJ           4.16704        0.906203        0.796464
LJ          -2.29505         1.92343          2.7851
LJ          -6.12839        -1.39072         2.64503
LJ          -4.66894        -5.00551        -5.59106
LJ            3.3792        0.748877        -2.06439
LJ          -3.10663        -5.10504         4.26152
LJ            1.7489          2.2587        -4.15599
LJ           6.25705       -0.134468        0.267422
LJ          -5.73937          -4.663        -4.08081
LJ          -1.05202        -5.28501        0.457276
LJ           4.15653        0.252441       -0.655416
LJ           6.09673        -4.94963        -3.47505
LJ           4.67367        -3.09685        -1.63926
LJ           3.21243         1.47487       -0.973883
LJ           3.84399        -3.47338        -2.06759
LJ          -5.11647       -0.418205         5.37298
LJ         -0.878197         5.31993       -0.882845
LJ           5.03021        -6.02676        -4.71709
LJ          -3.54738         4.58051         4.93397
LJ           1.57708           1.035         3.45864
LJ          -2.76829        -5.41483        -0.85888
LJ           2.52535        -3.48045         4.81915
LJ           5.33393        -2.99744         1.81357
LJ           2.32193         1.73349       -0.535241
LJ           5.65539         3.86454        -1.31686
LJ           5.84678         2.54231          6.2306
LJ             3.533           2.342      -0.0997831
LJ         0.0691367        -2.69502          6.1971
LJ           6.45273        -3.84678        -4.05361
LJ            3.1405        -3.75248         3.75049
LJ           2.82674         -4.7296         5.46792
LJ           4.16921        -4.53933         6.10264
LJ           4.11028         2.58523         2.20001
LJ           2.94885         4.37692         1.43893
LJ          -3.52301         6.45555        -5.34858
LJ           3.78116      -0.0341256        -2.88296
LJ          0.490019         2.57027          4.2981
LJ          0.102545        -4.78756        -4.55383
LJ           5.35939        -5.58538        -2.14019
LJ           1.17313        -6.42058         -3.3636
LJ           4.11037        -3.62682        -3.33568
LJ          -4.18154         3.72028        -4.79877
LJ           3.70034         3.61671        -4.73468
LJ           5.50955        -5.78739         5.19237
LJ         -0.815224        -1.83568        -3.63645
LJ         -0.134003        -5.96835          4.5787
LJ           3.00659        -3.70209        -5.51135
LJ          -5.95405         -4.7694         5.24799
LJ          -3.49511        -5.23452         5.46847
LJ           1.42938          2.7943        -3.03149
LJ          -1.87095           1.849          3.8705
LJ          -1.20384        -2.89752         4.86082
LJ           5.03393        0.693498        0.256488
LJ           4.81804          3.8957       -0.135559
LJ          -1.65282        -1.22505         -1.4582
LJ           2.12877        -6.20614        0.124816
LJ          -1.47572         4.04571        0.366897
LJ           4.05232         -6.4244        -5.81865
LJ          -3.71526         4.81176        -3.31297
LJ           5.14485        -4.25098        -3.73034
LJ          0.613759        -4.47473        -1.51239
LJ           3.09273         5.68236         -1.6953
LJ          -1.51812       -0.881162         5.29666
LJ           2.20567       -0.238702         4.09707
LJ          -5.54697         3.02507         4.23392
LJ           -4.8647        -6.24866        -2.20018
LJ          -5.49382        -1.02484         6.45371
LJ         -0.616377         1.75031         1.72218
LJ           1.56556        0.421511        -6.07869
LJ           -4.2533         1.54457        -1.34145
LJ          -4.58879        -5.22619         4.59914
LJ           3.54562       -0.647339         1.48958
LJ          0.929612        -2.43571       -0.699753
LJ           4.28906         4.35902         4.59317
LJ        -0.0114983         6.14029        -2.98087
LJ           2.79221         5.87526       -0.597199
LJ          -6.06191         5.19909        -2.00691
LJ           6.04367       -0.440339        -2.13599
LJ          -4.57364         6.35521         1.03603
LJ         -0.765877         3.06412        0.147255
LJ          -2.50463          3.4104         5.74403
LJ           5.35682         2.51462         1.85827
LJ          -3.33031         5.24875         3.38191
LJ           4.98014         3.78403         4.17314
LJ           5.07097       -0.585978         6.04554
LJ           3.41508        -4.94473         1.76091
LJ          -3.28579        -6.17323         6.27347
LJ          -3.32559        -1.09789        -1.47119
LJ        -0.0655532        -4.49379        -3.39301
