108
#Comment!
LJ          -4.13328        -4.27865         2.63849
LJ          -1.97753         5.60957        -4.66598
LJ         -0.176807        -4.44081         0.26454
LJ          -5.74684        -6.23366         5.58555
LJ          -5.32385        -3.17905        -1.90841
LJ          -2.20289          2.2145         4.50819
LJ            5.1391         -2.7694        -3.50057
LJ          -5.29712         3.94646        -3.80465
LJ            4.8354         3.84776         2.09742
LJ          -6.22082        0.915547        -3.64927
LJ          -5.59695        -2.31324         2.45628
LJ          -2.03815        -5.17254           5.681
LJ          0.470617         2.54505         3.98356
LJ          0.986159        -3.21985        0.290902
LJ          -3.48507        -2.79716         0.10078
LJ           2.96855         3.87136         1.37522
LJ           4.74527        -1.86238         2.09819
LJ          -4.93302        -6.00294         4.92703
LJ          -2.37254         3.31304          2.0523
LJ           -2.6507         1.09237         1.54418
LJ           5.74214         2.52019        -1.64936
LJ          -1.68223         4.14508         5.43769
LJ          -5.21167         2.17327         5.75074
LJ          -5.85301         6.17405         -1.7422
LJ          0.570636         4.56431         6.13223
LJ           3.12978        -1.72879        -4.06778
LJ           5.30249         1.35859        -4.56936
LJ          -3.93838         3.00152        -2.04023
LJ          -2.41894       0.0722309       -0.341297
LJ          -5.49687         2.24161        -1.41779
LJ          -4.15836        -5.76352         3.59715
LJ           5.57138        -4.94483       -0.881116
LJ            -2.991       -0.393075        -4.07305
LJ           2.13928         -3.7873        -3.10034
LJ          -5.04094         6.00679         5.49556
LJ          -1.33093        -6.18823        0.541542
LJ            1.8105         -5.1965        -5.89254
LJ          -3.44802         3.23836      -0.0132459
LJ            1.1135        -3.52724         4.96686
LJ           1.91907         2.42346        -1.13598
LJ           1.73155        -6.33492         5.22437
LJ           5.31265        -3.05314        0.529601
LJ          -5.14476       -0.109789          -3.944
LJ           2.81305        -5.38797       -0.921574
LJ           5.76991         5.65667         4.87201
LJ          -3.12146        0.419096         0.92457
LJ         0.0282979         4.22481         1.63178
LJ           2.90834        -4.72374        0.695803
LJ           1.91545        -4.60408         5.57567
LJ          -5.49675        -5.60396         3.39599
LJ          -5.72522         5.76323        -4.03367
LJ           4.91838         5.68217       0.0847187
LJ         -0.214939        -5.12667        -1.11776
LJ           1.65497         5.30455       -0.805053
LJ          -5.30958        -2.15288        -6.18561
LJ           2.90241         4.56545         3.49824
LJ           -1.8072         4.78241        -4.05974
LJ           4.89391        -6.44058        0.879237
LJ          -2.78587        -4.15038         6.03953
LJ           -5.4893        -3.54267      0.00808482
LJ           1.66965         4.66538        -2.01779
LJ           3.31166        0.780782         -4.7033
LJ          -5.16446        -3.67192        -5.48073
LJ         -0.566978       -0.812618         6.33021
LJ          -4.56992         2.91239        0.176349
LJ           2.68498          2.1653        -3.15759
LJ          -1.66885         5.74779          1.4738
LJ           -4.1689        -5.36514       -0.887851
LJ            3.6833          3.1311         5.49731
LJ          -4.46172         2.69269        -1.16634
LJ          -1.63768       -0.645094       -0.604648
LJ           3.78719        -1.15577         2.36197
LJ        -0.0113226        -3.75485        -3.84384
LJ          -1.42171        -3.50286         -1.3371
LJ           6.40135         4.36411        -2.65026
LJ            4.5626         3.69247         1.11913
LJ          -2.53444        -3.84648         3.18502
LJ          -3.78455          5.2488        -6.14611
LJ           1.62167        -5.87002         -3.6173
LJ           3.63296         1.10753        -2.34762
LJ           1.70128        -5.48558        -2.26656
LJ          -3.41392        0.530396         5.06431
LJ          -3.63719        -1.87085        -3.03781
LJ          -3.54349         3.34543        -5.00054
LJ           3.48971         3.73355         4.73611
LJ           2.97681       -0.748488        -2.69405
LJ           5.73242         3.74387         -1.8412
LJ          -1.71104         4.17814        -6.23314
LJ           1.70543         1.81676         2.57082
LJ          -2.50373         6.43211         2.34409
LJ          0.435726        -4.16166          5.9382
LJ          -6.33432        -4.78334        -0.53532
LJ           4.08184        -6.10495          1.8179
LJ          0.488793          1.8584         2.04899
LJ           -3.2114        -3.23456        -4.93589
LJ           4.08181         -6.3869       -0.655136
LJ           2.60915        -5.46394        -4.99413
LJ          -2.31391        -4.69214         2.33339
LJ          0.470437         3.14695        -2.65029
LJ         -0.892957         2.97132         3.19163
LJ           3.08393         6.21188       -0.359912
LJ          -2.98865         2.35617         5.89449
LJ           5.68517        -4.59555         5.20699
LJ           -6.4305         6.36296         3.92682
LJ           5.91879         2.39981         6.09489
LJ         -0.728183         2.70177         -1.3346
LJ          -4.68978         -1.7831         2.93777
LJ          0.858023        -6.39551        -2.79909
