108
#Comment!
LJ          -1.00157         4.24204         2.20611
LJ           4.77223         2.41677        -3.40594
LJ           4.04349         1.44293         3.50735
LJ          -1.48017       -0.700379        0.728169
LJ            1.5895        -1.75438         5.38851
LJ           5.00593        -2.28533        -0.17175
LJ          -1.72265        0.474442        -4.14449
LJ           -1.3056         3.57966       -0.907301
LJ            5.8793         5.20685       0.0416908
LJ          -2.53403         3.10545        -1.38833
LJ          -2.77704        -3.54651        -5.53977
LJ          -2.55562         4.46169         5.29423
LJ          0.307996         5.49032          -5.876
LJ         -0.421224        -3.85016        -4.62489
LJ           2.73113        -6.05807        -1.03856
LJ          -1.70158         -5.4801         5.96212
LJ         -0.023628        -3.91952        -1.71651
LJ           4.53715        0.182247         5.38646
LJ          -3.41955         -3.0534        -3.01472
LJ          -4.92238        -1.95046        -5.93362
LJ          -5.77158        -3.72294          3.8795
LJ           -4.0208         1.81272         -1.3947
LJ           3.14836        -2.84602        -5.04213
LJ          0.160012         3.74611        -2.87673
LJ          -4.42836         2.35059        -5.21814
LJ         -0.281871        -1.04669         4.57585
LJ          -5.77761         4.68715         2.01151
LJ            5.5284         2.68358        -4.33435
LJ           2.01532         3.64256         4.47025
LJ          0.805827        -1.29658         3.29029
LJ          -4.70119       -0.567667        0.560926
LJ           -1.5897          -3.239         1.58514
LJ           1.90567        -1.32734        -5.83908
LJ           2.26391        -2.30642        0.852913
LJ           1.44993        -3.09512        -2.70337
LJ          -5.61347        -2.71328        -5.43387
LJ          -0.89701         3.04704        0.801853
LJ          -2.19371          5.2959        -6.35926
LJ          -1.55125         3.40587         1.73263
LJ          -2.62989         6.25071        -3.25967
LJ           4.79352        -6.33847         4.09832
LJ           1.24253        -4.98632        -2.99186
LJ           6.36079         1.95262         4.47361
LJ          -2.60234        0.881554        -3.06967
LJ          -1.08807         1.92641         3.68242
LJ           3.98549        -1.30623         3.42385
LJ           2.34232          -3.527         2.37892
LJ           5.07991         -5.7022        0.141229
LJ           4.71898         3.90182         4.89003
LJ           4.36406         5.50186         3.68113
LJ         -0.381885         6.21643        -5.31976
LJ          -2.58679         3.67349      -0.0929621
LJ          -5.04123        -4.83853        -1.86971
LJ            1.6703        -4.05935           4.582
LJ           1.21894        -4.28092         5.53562
LJ            1.9278         5.53992         2.98256
LJ            2.0122         4.28242        -2.45334
LJ          -3.47051        -4.73332         5.48201
LJ           2.07424         3.75347         2.90017
LJ           1.54703         5.03749        -1.10885
LJ             -2.33         4.15138         3.69298
LJ             3.859         1.05431         1.61068
LJ         0.0890768        -2.10721         2.49921
LJ          -4.91731        -5.90718        0.287804
LJ           2.82422         6.11755         4.87536
LJ           4.10924         4.48019         5.74387
LJ          0.108845      -0.0882771        -5.17586
LJ          -3.48636        -2.64959         5.56005
LJ           4.71195         2.50208        -2.32627
LJ          -1.87928        -6.27307        -5.90683
LJ          -3.87512          2.4181         3.37918
LJ           5.66513        -1.43672         3.25953
LJ          -4.12006       -0.711581         5.67719
LJ           3.35734        -5.68111        -4.45208
LJ          -1.38255         2.14495         -3.7057
LJ          -3.54042         1.71427        0.432154
LJ           6.33211         6.02525        -2.43643
LJ          -5.20764         2.55476          5.4887
LJ          -2.41392          2.2996         -3.5907
LJ            -1.218        -3.70414        -1.51759
LJ          -5.35889        -5.61771        -1.30208
LJ          -1.71588         2.72385         3.62032
LJ          -2.00908       -0.692443       -0.172215
LJ         -0.874357         3.20746         -5.6743
LJ           -1.2796         2.16842        -1.37195
LJ            5.0202         -3.0068         5.90049
LJ           5.87927        -5.60488         2.86463
LJ           5.66444         2.94327         5.72825
LJ           5.31956         5.58022        -2.70047
LJ           2.31641         1.27141         3.74804
LJ          -2.29099        -4.85105         5.24561
LJ          -2.93491        -3.95468       -0.409129
LJ          0.709129         3.33587         2.70959
LJ          -3.46338         1.74762        -4.12722
LJ           2.92381         3.98807         3.71677
LJ           6.23336         4.04762         5.15321
LJ           2.31752          5.3656        -5.41255
LJ          -1.71931        -2.72035        0.567564
LJ           5.30602        -2.72728        -5.36832
LJ          -6.21826        -5.98372        -6.14668
LJ          -2.84881         2.88235         3.94337
LJ           2.75042       -0.460005        0.418395
LJ           5.76479        -4.63326       -0.297684
LJ           2.44239        0.276946         4.75576
LJ          -4.56184       0.0917361        -1.88481
LJ          -2.74554        -5.83809        -4.29131
LJ          -3.58823          0.3013        -1.10698
LJ          0.675458         2.98447        -5.50969
