108
#Comment!
LJ          -3.97508         3.54189         6.45135
LJ         -0.624848         4.10542        -1.60654
LJ          -4.48898         2.19382         2.98814
LJ           -1.4163         1.12719        0.949167
LJ          -5.59607        0.695424       -0.571913
LJ          -5.56001         1.30337         3.71353
LJ           1.71592         5.91486        -6.07657
LJ           5.70115         1.41092        -2.95353
LJ           4.99503        -5.41421         1.78085
LJ          -4.86003          3.7599          3.8922
LJ           6.03499        0.711921        -2.25521
LJ           2.52561       -0.883698        -4.26546
LJ          -2.31271        0.550377         6.16962
LJ           2.55744         1.32839         4.73689
LJ           1.43505          4.6899        -6.24512
LJ          -5.12462         5.37922         0.82702
LJ          -3.71532         1.01278        -3.09479
LJ          -3.19614         6.11428        -1.50202
LJ           -2.5171         1.41284         2.77228
LJ          -2.93436          4.9858        -1.38628
LJ        -0.0982476         4.76575        -5.42808
LJ          -1.23162         4.23228         3.75107
LJ           3.68492        -4.12485         1.21967
LJ          -3.07259        -4.63182        -5.66665
LJ          -6.19961        -2.78223         2.22581
LJ          -1.41042        0.339758        -4.36282
LJ           3.86172        -6.15548        -2.84385
LJ          -2.41819         5.14005          4.5502
LJ           5.80642         5.63959       -0.557645
LJ          -1.93919        -2.04426        0.232475
LJ           3.69606        -3.22441        -2.74122
LJ           2.18101        0.738612       -0.624124
LJ          -4.46724       -0.668995         -3.2406
LJ           2.25938        -6.44903        -5.04318
LJ            6.3666       -0.798977         1.02396
LJ          -2.16156         4.93611        -0.71041
LJ          -2.39407         3.69275          4.6385
LJ            3.2508         6.21058        -4.94033
LJ            2.2414         4.79917         3.19259
LJ          -1.37059        -6.33181        -5.94826
LJ           3.74836      -0.0113129         2.79237
LJ          0.492491        -5.77432         3.61519
LJ           3.99947       -0.502835        -3.29569
LJ           4.75362         -1.6377        -3.24137
LJ          -2.72547        -4.31813        0.408059
LJ           5.05095       0.0947775        0.137413
LJ          -5.76016         3.53148         1.49661
LJ          -5.26491        -5.78109        -1.80634
LJ           2.80385        -0.29589          1.6711
LJ           5.19755         3.64663        -2.76724
LJ           1.67139       -0.148491        -4.48441
LJ          -2.85648        -1.93707         4.25489
LJ          -2.44872        0.676857        0.842122
LJ          -5.22617         4.10174        0.416593
LJ        -0.0894769         6.14265        -2.00232
LJ           4.53675       -0.898428         2.23842
LJ           1.75041       -0.249738         1.05466
LJ           6.02191        -4.89889          2.6892
LJ           6.39466          5.9676        0.251066
LJ           2.58395         5.06917        -5.77012
LJ           0.10127        -2.71276        -5.18701
LJ          -1.93731        -3.59639        -5.76245
LJ          -3.09717         3.43947        0.641318
LJ          -0.97002        -4.86846        -3.18283
LJ          -1.43098         3.98086         1.78655
LJ           5.20027        -2.58414        -4.18674
LJ          -6.22632         1.21196         5.49299
LJ           2.76851        -2.94133        -3.18435
LJ          -1.67928        -1.06074         3.33195
LJ          -1.41669       -0.080745        0.953303
LJ           3.82084        -6.19378        -3.99488
LJ           -5.9495        0.923626        -2.79837
LJ           1.35096         5.22752          -3.665
LJ         -0.354248         3.35264           4.685
LJ          -5.86191         5.36794        -1.27849
LJ           5.99071        -0.67786        -3.08885
LJ         -0.575024        -4.10979        -2.39466
LJ           5.61209         5.83973        -4.37031
LJ           0.22009         3.77197        -4.95049
LJ          -2.90905        -1.78798        0.209543
LJ           2.39404        -2.21226        -5.34258
LJ          -1.68835        -1.69755         -5.5109
LJ           4.43068        -3.77485        -3.32131
LJ         -0.613879        -1.82438         2.97075
LJ         -0.901564        -4.80913        0.528712
LJ          -2.30857        -1.44144         2.22271
LJ           5.47871        0.264654        -5.39952
LJ           1.74919        0.161609         6.31507
LJ          -5.62602        -2.37113        -4.94054
LJ           6.05538        -5.07239         1.28998
LJ         -0.511536        -1.76918         1.32178
LJ         -0.586135        0.625279         2.69106
LJ          -3.38655        -5.47175        -6.25153
LJ           1.45604         6.38954        -3.69793
LJ          -2.59428       -0.371784        0.738862
LJ          -3.67299         3.83873        -1.60487
LJ          -1.16413        -0.49968        -1.33268
LJ           2.58487         6.09967         6.02729
LJ            -3.616         -5.6441       -0.710607
LJ           5.22254         2.89299        -4.31664
LJ         -0.250409         1.62535         3.81641
LJ          -1.56683          5.1375         3.66491
LJ          0.409256        -4.22372        -4.48664
LJ         -0.192368         6.28494        -6.27553
LJ          -2.37303         1.00955        -4.94661
LJ           2.11716        -3.27659         3.94531
LJ           1.79448         4.68414          -4.892
LJ           1.30374        -1.81283         5.79358
