108
#Comment!
LJ         -0.621094         4.07344         1.98616
LJ           4.79437         2.30061        -4.27169
LJ           4.19712         1.04217          3.4586
LJ         -0.928695       0.0414113         1.17726
LJ           1.71035        -1.46178         4.70538
LJ           4.47482        -2.25824      0.00281676
LJ          -1.89905          1.2308        -3.98669
LJ          -1.52342         3.32419        -1.13115
LJ           5.57589          5.1144        0.288471
LJ          -2.66028         3.58772        -1.64303
LJ          -2.83214        -3.26777        -5.41629
LJ          -2.44476         4.29503         6.04831
LJ          0.764077          5.0429         6.23941
LJ          -0.62355        -4.07808        -4.21707
LJ           1.54805        -6.18216        -1.32022
LJ          -2.06943        -5.24293         6.08146
LJ           0.51864         -3.1212        -1.61742
LJ           4.86689        0.248822         5.06048
LJ          -3.97802        -2.49963        -3.38672
LJ          -4.77222        -1.39052         -6.0789
LJ           -5.9913        -4.18973          4.6265
LJ          -2.99622         1.36236        -1.35332
LJ           3.59579        -2.68103        -5.64262
LJ        -0.0860615         3.37845         -2.8731
LJ          -5.00382         1.89986        -4.82049
LJ          0.105366       -0.989123          4.8498
LJ          -5.90292         4.08094         1.61443
LJ           6.02041         2.64898        -4.25291
LJ           1.70341         3.12002         4.95999
LJ          0.750918        -1.20316          3.6363
LJ          -4.88501      -0.0820918        0.837711
LJ          -1.63064        -4.30648        0.905166
LJ           2.60773        -1.34657        -5.90162
LJ           2.29839        -2.83138        0.271713
LJ            1.4913        -3.09327        -3.18532
LJ          -5.53138        -2.26721        -5.86916
LJ         -0.386929         3.83167        0.290906
LJ           -1.9405         5.52579        -5.86721
LJ          -1.68202         3.34369         2.15361
LJ          -3.26834         -6.3115        -3.11021
LJ           4.89383        -6.15442         4.33326
LJ          0.997064        -5.05367        -2.93329
LJ          -5.77592         1.96534          4.7738
LJ          -2.82046        0.836669        -3.55607
LJ          -1.72071         1.01792         4.18502
LJ           3.92811         -1.4527         3.63095
LJ           2.76526         -4.3349         2.50188
LJ           5.05334        -5.42644        0.312121
LJ           5.41142          3.6861         4.81796
LJ           4.36057         5.37216         3.61042
LJ         -0.867994        -6.13279        -5.55673
LJ          -3.04534         3.36478       -0.678276
LJ          -4.68893        -4.88903        -1.82863
LJ           2.17171        -4.10574         3.73086
LJ           1.16595        -4.31808         5.14508
LJ           2.59515         6.42807         3.16732
LJ           2.19801         4.90208        -2.47413
LJ          -3.32751        -4.64081         5.83553
LJ           2.35158         3.77356         2.70153
LJ           1.09447         4.62431        -1.47094
LJ          -2.43584         4.45274         4.01329
LJ           3.70359        0.593812         1.82556
LJ          0.691079        -1.35337         2.25789
LJ          -5.01308        -6.08041        0.281195
LJ           2.68587         5.44751         4.78348
LJ           4.23396         4.70339         4.92472
LJ          0.310563        0.467509        -4.75179
LJ          -3.62929        -2.76396         5.70578
LJ           4.63766         1.98654        -3.09797
LJ           -2.3707        -6.32766        -6.22831
LJ          -3.84415         2.48915         3.19548
LJ           4.84545        -1.02931         3.51238
LJ          -4.11549       -0.782334         5.37487
LJ           3.68734        -5.88142        -4.72121
LJ          -1.41481         2.49882        -3.74976
LJ          -3.64791          1.5761        0.950784
LJ           6.05692         6.04509        -2.17535
LJ          -5.34262         2.76917         5.70078
LJ          -2.65461         2.23673        -3.09719
LJ          -1.14256        -4.51657        -1.55003
LJ          -5.15993        -6.38636        -1.10163
LJ          -1.75592         3.09398         3.57983
LJ          -2.28169        -1.17591       -0.440505
LJ         -0.491728         3.78401        -5.34024
LJ          -1.74157         2.33914       -0.923874
LJ           4.98523        -3.30406         6.00782
LJ           5.44351        -5.77798         3.35974
LJ          -6.43632         2.53743         5.51151
LJ           5.42222         5.10147        -2.77266
LJ           1.93377         1.13885         4.29444
LJ          -2.16054        -4.35158         5.14772
LJ          -2.69311        -3.83423       -0.352111
LJ           1.01211         3.59142         2.43711
LJ          -3.56846         1.73384        -3.20701
LJ           3.24628         4.57277         3.64751
LJ           6.25137         4.26023         4.63017
LJ           2.32986          5.0065        -5.96313
LJ          -2.22069         -2.3833        0.526489
LJ           5.06574         -2.6768        -5.03847
LJ          -5.87646        -5.74299        -6.45727
LJ          -3.02506         3.39264         4.72753
LJ           2.65647        -1.01491        0.909591
LJ           5.46266        -4.49107       0.0413892
LJ           2.49767        0.265406          4.5858
LJ          -4.77668        0.555919        -1.32891
LJ          -2.99717        -5.86965        -4.15344
LJ          -3.53202       -0.149041        -1.48874
LJ          0.600459         2.63762        -5.17374
