108
#Comment!
LJ           1.35088         2.70045         2.18313
LJ          0.977568        -4.46908        -1.76783
LJ         -0.484906           2.934         1.47357
LJ            3.7728        -5.02929         5.92405
LJ           1.74073        -5.14486        0.761145
LJ           5.27452         4.00594          6.0229
LJ            4.1372        -1.92314        -5.30662
LJ          -1.94974        0.641037        -1.21718
LJ          -4.63476         2.08473          -5.561
LJ          0.165294          2.1081         1.36016
LJ            2.0818        -4.35925        -3.46421
LJ          -2.20108         3.46073         2.60934
LJ          -2.02081        -6.25669         6.06614
LJ           2.24335         1.73333        -5.30394
LJ           4.62668        -2.53738         4.53493
LJ           2.64108        -0.39651         5.22377
LJ           1.59756     -0.00261897        -1.25586
LJ            1.9738         1.89859      -0.0525878
LJ            2.0769        -1.03633        -2.52932
LJ           4.14968       -0.865574        -5.36736
LJ          -5.98121        -4.07832          5.7678
LJ         -0.426683        -5.59568        -3.93927
LJ          -5.96064        -4.60576          -1.257
LJ          -5.81302        -1.94359        -2.89208
LJ          -0.23268         1.55316         2.69231
LJ          -2.58211         4.38069         5.14528
LJ           2.36145       -0.552075        -1.70858
LJ          -2.02441        -5.17246         4.31223
LJ          -5.01824        -2.77299        -0.91731
LJ           4.80161        -6.32332        -1.88954
LJ           1.05616        0.175472         1.55783
LJ          -5.44569         2.04101         1.92124
LJ        0.00759445         5.44185         3.41498
LJ          -3.26799         6.34837         2.76784
LJ           5.98112         5.27895        -6.46189
LJ           2.81275        -4.35258         4.41902
LJ          -1.39844      -0.0618736        -6.26129
LJ           5.50151         -5.3556         5.87041
LJ          -6.03642        -6.43532        -4.93005
LJ           1.81366         1.73557         2.65024
LJ           6.33099         5.28585        -1.77834
LJ           6.22866        -1.76943         5.79494
LJ           -5.5487        0.240045        -5.02627
LJ           1.14536         1.69051        0.720615
LJ          -4.49293         1.13583        -4.82739
LJ          0.215985         4.24699         5.69101
LJ          -6.00818         5.03969         1.14227
LJ          -1.29403        -6.34369        -2.24978
LJ         -0.302871         2.26269        -3.10887
LJ          -2.85015        -3.25719         1.32221
LJ         -0.520344         -3.9769         4.39151
LJ           4.19803        -5.05874        -5.67567
LJ            4.2583         2.43428         2.42892
LJ          -3.73769       0.0857999        -4.02814
LJ          -2.19364        -6.38195        -3.32997
LJ          -5.58208         3.36685          1.7415
LJ          -1.50568        0.166182        0.494864
LJ           1.21336         4.82505         2.70512
LJ          -5.59582        0.692397            4.23
LJ          -0.61526        -4.53795        -1.62872
LJ           4.69332         -4.8318         2.21594
LJ          -5.29977         2.73787        -5.31213
LJ           2.00687         4.65422        -3.80431
LJ            -2.042         -3.6468         4.01902
LJ          -2.91141        -2.93025         4.28345
LJ          -1.56061         3.56633         1.48816
LJ           2.18759        0.397502         0.98078
LJ           3.20752       -0.371707        -2.77047
LJ          0.289653         2.73783         3.22975
LJ          -1.21838       0.0169211         1.48632
LJ          -2.15559         1.62244         1.74305
LJ           5.53249        -4.61788          -4.616
LJ          0.762512         5.68703         1.32245
LJ           2.45268         3.54187        -3.14356
LJ          -2.03076          -0.802         5.78894
LJ           2.33283         2.11577        -2.50055
LJ          -3.01131        -4.68625         3.82833
LJ         -0.313322         3.04576         4.52308
LJ           1.79896         4.92166       -0.944966
LJ           1.69347        -1.11833       -0.496958
LJ           6.23832        -5.29242        -3.47104
LJ           1.09772      -0.0741279        -3.32406
LJ         -0.404024        -3.06781         1.61444
LJ         0.0722509          4.2824         2.80277
LJ          -3.13865        -3.52108        -4.50535
LJ           1.78185          3.3308         3.99468
LJ         -0.785828         5.58755         4.09217
LJ           1.33646         3.64629        -4.17183
LJ            5.4284         2.48116        -2.77759
LJ           1.99324         5.34031         5.98494
LJ          -3.33129         1.46398         4.23525
LJ          0.203144        -2.04238        -3.72678
LJ          -3.62103        -4.79051        -3.45435
LJ           5.12778         3.56606        -6.01146
LJ           4.98114        -5.10867         4.73581
LJ          -6.33112        -4.27331         1.40606
LJ           6.23186         6.42781        -1.49049
LJ           1.10573          5.9877        -3.76488
LJ          -4.60201        -5.18865        -3.48323
LJ          -4.09299         4.90531        -6.19369
LJ           1.23895         5.84575        -2.08472
LJ           4.75202         3.60407        -4.93057
LJ          -2.89672        -2.69086        -1.89299
LJ          -5.54056       -0.138824          6.0558
LJ           1.82138        -0.92333         1.55075
LJ           -1.6223        -6.39823         4.83222
LJ          -3.61262        -3.57154       -0.120876
LJ           5.60728         2.71103        -4.36319
