108
#Comment!
LJ          -3.50651         4.60245        -5.49051
LJ         -0.500544         5.64113        0.772941
LJ          -4.07708         2.00435         3.12093
LJ         -0.197912        -1.49888        0.668356
LJ          -4.53332        -1.18456       -0.408273
LJ          -3.61284         1.15907        -5.78592
LJ           2.39403        -6.17421        -4.90438
LJ          -5.23719       -0.558961        0.111748
LJ          -5.59335        -6.36273         1.71546
LJ              6.13         3.72305         5.40628
LJ          -6.10726        -2.75073        -0.37071
LJ           4.24509        -3.14432        -4.44602
LJ          -4.23275       -0.975394         5.45733
LJ          0.323119        0.395113          4.1732
LJ           2.57522         1.94799         -5.0582
LJ           6.20272         4.43969         1.19284
LJ          -6.32777         3.34169        -3.75651
LJ          -5.62442         6.39912        -0.36498
LJ          -1.16095         1.55797         1.08303
LJ          -4.05721          2.8511        -1.72224
LJ          -1.24998         4.03377          5.8666
LJ          0.898826         2.61643         2.65657
LJ           5.21074         -4.1898        -1.08331
LJ          -1.17409        -2.87114         4.26466
LJ          -6.17086        -3.60587         2.68052
LJ          -2.01992        -3.82024        -2.63987
LJ           5.82393         5.34808       -0.698699
LJ          -2.62099         5.05797         6.31149
LJ           2.62052         4.80273        0.229214
LJ          0.878661        -2.18839        0.431343
LJ            5.8119        -2.41119         -2.7899
LJ           3.02676      -0.0151709        -1.18459
LJ          -6.40795        0.113418        -2.95967
LJ           3.11713        -5.29716        -3.95339
LJ           6.23984       -0.617536          3.3508
LJ           -1.9987         5.54006       -0.615288
LJ          -4.14879         5.16043         5.16053
LJ           4.91747         3.52248        -6.13364
LJ           2.46559         3.91481         3.36784
LJ          -2.08202        -4.90821        -3.82626
LJ           3.20629        -1.15977          2.5273
LJ           0.69339        -4.98292         2.05566
LJ           2.78715       -0.179509        -5.23775
LJ           5.06231        0.166895         5.52283
LJ          -3.89104        -2.19934         3.73584
LJ            4.5021         2.69854        0.718527
LJ          -3.68894         4.02168         2.29287
LJ          -5.41576        -5.88529        -1.57293
LJ           2.59523        -2.35657         3.22017
LJ           4.64781         4.75403        -4.54998
LJ            3.3378        -4.28027          6.1405
LJ           1.34421        -0.43019           3.061
LJ          -5.09402         2.39389         1.88904
LJ          -5.71483        -5.82698        0.755074
LJ           0.94473         2.08855        -3.01286
LJ           4.24563      -0.0422611         3.42808
LJ           1.70905       -0.649708        -1.15263
LJ           4.90709        -4.61454        0.601843
LJ           4.78271         -5.8665       -0.254345
LJ           2.41293         6.44738        -6.17617
LJ          -3.07736       -0.572635        -6.12848
LJ            1.8119        -5.33019         4.46884
LJ          -1.70786        -6.34231         1.49449
LJ         -0.621164        -4.84999        -2.76004
LJ          -2.05231         3.60649        0.143212
LJ           4.32068        -2.58212        -5.45755
LJ           5.18248         1.17493        -6.26168
LJ            3.8307         -1.8076        -4.68647
LJ          -1.26629        0.713077         2.27867
LJ       -0.00974223        0.290224         2.72506
LJ           1.89117        -4.80678        -0.91164
LJ            6.3858       -0.115041        -1.74322
LJ           1.74509          4.6638        -6.09968
LJ         -0.292581         3.90182         2.79799
LJ           5.25592         4.81081         -1.8001
LJ           -6.0697          1.7955        -1.32174
LJ          -3.08148        -4.57718        -3.65415
LJ          -4.92875         5.12441         3.60877
LJ          -1.57539         1.26144         -3.6987
LJ          -3.44661        -1.21666        0.926654
LJ           4.21199         1.04928        -5.58642
LJ          -1.84335        -2.03209        -5.75152
LJ           2.97675         5.76877        -1.94719
LJ          -3.09774         1.97604         2.26474
LJ         0.0470521        -4.83417         1.37617
LJ          -4.15233        -3.36118         2.02622
LJ           3.30459         1.07807         5.32501
LJ           1.32782       -0.165582         6.37561
LJ          -5.02678       -0.903264        -4.73018
LJ          -4.98008         -5.0911         2.58014
LJ           1.04136        -1.04809         1.02922
LJ         -0.601088      -0.0378978         1.67091
LJ          -4.45732         6.24111        -5.99507
LJ           0.59171         6.23528        -3.39939
LJ          -5.09549         1.67066         1.03993
LJ          -5.05949         4.63003        -0.74093
LJ          -3.49489       -0.807482        -1.98615
LJ           3.50151        -5.18478          5.6629
LJ          -5.78429         5.27672        0.306108
LJ           5.76998         3.01252        -5.29194
LJ          0.514086         1.21645         2.69567
LJ          -1.58219         6.08878         4.45146
LJ           3.12602        -1.37724        -5.46577
LJ          -2.27689        -4.29464         6.12824
LJ          -0.69038       -0.912737        -2.87262
LJ           3.11593        -4.67959          4.0514
LJ          0.946382        -4.64987        -3.54791
LJ           5.29634         -3.2382          6.1264
