108
#Comment!
LJ         -0.374864         3.83624         1.80439
LJ           4.81792         2.15752        -4.85139
LJ           4.31733         0.65034         3.41153
LJ         -0.467426        0.666272         1.54632
LJ            1.7318        -1.15707         4.06531
LJ           4.00983        -2.23903        0.156284
LJ          -2.11222         1.89024        -3.82012
LJ          -1.85213         3.34385        -1.39344
LJ            5.3216         5.03934        0.502016
LJ          -2.57384         3.95032        -1.89115
LJ          -2.88773        -3.03419        -5.33016
LJ          -2.34647         4.17388        -6.25095
LJ           1.19173         4.65984         5.57216
LJ         -0.793685        -4.27919         -3.8638
LJ          0.529633        -6.29235        -1.57779
LJ          -2.33919         -5.1041         6.25556
LJ          0.970384        -2.45168         -1.5531
LJ             5.131        0.301438         4.73832
LJ          -4.45503        -2.02619        -3.70916
LJ          -4.66101       -0.953885        -6.25101
LJ          -6.18142        -4.59768         5.27591
LJ          -2.11117        0.974518        -1.32416
LJ           4.02084        -2.50157        -6.14504
LJ         -0.325444         3.05187        -2.88024
LJ          -5.49897         1.51902        -4.46503
LJ          0.555187       -0.971257         4.96306
LJ          -6.01489         3.56511         1.27069
LJ            6.4188         2.60038        -4.21761
LJ           1.44996         2.67567         5.35858
LJ          0.672287         -1.1485         3.95768
LJ          -5.02958         0.34839         1.06555
LJ           -1.7017        -5.16673          0.2655
LJ           3.24378        -1.41202        -5.95653
LJ           2.33631        -3.26218       -0.220937
LJ           1.50544        -3.11029        -3.57588
LJ          -5.41742        -1.83756        -6.24252
LJ         0.0160378         4.50639       -0.118604
LJ          -1.76679         5.88986        -5.52788
LJ          -1.67228         3.33904         2.54378
LJ          -3.83144        -5.95102        -3.02145
LJ           4.84035        -6.15207         4.78131
LJ          0.784204         -5.0982        -2.87171
LJ          -5.10981         2.16119         5.24075
LJ          -3.16385         1.05047        -3.84959
LJ          -2.22959        0.201249         4.61735
LJ           3.56225        -1.73499          3.8543
LJ           3.16457        -5.11681         2.59432
LJ            4.9582        -5.39297        0.509131
LJ           5.77654         3.22864         4.74914
LJ            4.4871         5.44946         3.38511
LJ          -1.37849        -5.68304          -5.809
LJ          -3.34768         3.03475        -1.11982
LJ          -4.37549        -4.92892        -1.80817
LJ           2.60191        -4.05704         2.94241
LJ           1.08569        -4.36768         4.88796
LJ           3.18851        -5.74628         3.34682
LJ           2.28863         5.43013         -2.4224
LJ          -3.22117        -4.57122         6.18094
LJ           2.48604         3.82275         2.58072
LJ          0.763316         4.27978        -1.84943
LJ          -2.55732          4.5091         4.35882
LJ           3.57688        0.197348         2.04873
LJ           1.23436       -0.672543         2.19938
LJ          -5.10997        -6.26409        0.132356
LJ           2.65744         4.82152         4.61081
LJ           4.17735          4.8604         4.43647
LJ          0.479766        0.958861        -4.38972
LJ          -3.75063        -2.87471         5.85121
LJ           4.60883         1.60132        -3.89268
LJ          -2.71053         6.24999        -6.22925
LJ          -3.78373         2.57087         3.06575
LJ           4.44515       -0.473567         3.70132
LJ          -4.12649       -0.871805         5.15865
LJ           3.96893         -6.0543        -4.95254
LJ          -1.49516         2.84516        -3.69964
LJ           -3.7447         1.45092         1.38492
LJ           5.81355          5.9916        -1.98986
LJ          -4.56408         2.93931          5.8283
LJ          -2.55655         2.13831        -2.77957
LJ          -1.05454        -5.19803        -1.57243
LJ          -4.99474         5.90568       -0.783548
LJ          -1.91647         3.55919         3.52523
LJ          -2.51743         -1.6433       -0.595739
LJ         -0.111934         4.23427        -5.04422
LJ           -2.3026         2.27338       -0.534466
LJ           4.94439        -3.54392         6.13101
LJ           5.16999        -5.85491         3.50956
LJ           6.27236         2.10829          5.1236
LJ           5.52757         4.76471        -2.78595
LJ           1.58994         1.05083         4.76987
LJ          -2.04384        -3.68593         4.79131
LJ          -2.44102        -3.71838       -0.264519
LJ           1.40837         3.84375         2.23172
LJ          -3.66372         1.48796        -2.47748
LJ           3.36147         5.05649         3.66333
LJ          -6.35334         4.58629         4.14923
LJ           2.29739         4.70017         6.45928
LJ          -2.64885        -2.08952        0.425138
LJ           4.79973        -2.63782        -4.81032
LJ          -5.58471        -5.52868         6.19431
LJ          -3.06305         3.94548         5.29171
LJ           2.57628        -1.50315         1.33474
LJ           5.27871        -4.16982        0.281256
LJ           2.56622         0.21086         4.42637
LJ          -4.80745        0.915787       -0.837316
LJ          -3.19298        -5.94138        -4.00521
LJ          -3.58246       -0.420404        -1.81487
LJ          0.473908         2.37951        -4.88672
