108
#Comment!
LJ          -1.48913         4.36657         2.47242
LJ           4.77048         2.60425        -2.58574
LJ           3.72164         1.92504         3.55866
LJ          -1.75451        -1.87988        0.993472
LJ           1.41047        -2.06958           6.352
LJ           5.68703        -2.32637       -0.393957
LJ          -1.57642       -0.329033        -4.20707
LJ          -1.45769           3.626       -0.598537
LJ            6.2696         5.34966       -0.276014
LJ          -2.00299         2.57329       -0.773611
LJ          -2.71226        -3.91216        -5.72243
LJ          -2.64159         4.68506          4.3069
LJ           0.70648         5.06477         -5.6414
LJ         -0.158965        -3.56489        -5.15084
LJ           4.26981          -5.908       -0.671268
LJ          -1.13488        -5.56016         5.61008
LJ         -0.951388        -4.84688        -1.82391
LJ           4.09355        0.102337         5.78001
LJ           -2.6985        -3.77164        -2.53172
LJ          -5.12878        -2.69647        -5.71586
LJ          -5.49893        -3.11713         2.91936
LJ          -5.27673         2.25772        -1.41241
LJ            2.5823        -3.04373        -4.28032
LJ          0.521056         4.21006        -2.86168
LJ          -3.57444           2.832        -5.61419
LJ         -0.694376         -1.1485         4.14196
LJ          -5.62223         5.47156         2.51693
LJ           4.88417         2.71661        -4.28491
LJ           1.68597          4.3127          4.2744
LJ          0.684566        -1.58681          2.7513
LJ          -4.44904        -1.17698        0.185773
LJ          -1.51405        -1.76453         2.22846
LJ          0.983241        -1.35106        -5.86266
LJ           2.21687        -1.65665         1.66144
LJ           1.36613        -3.15044        -2.07531
LJ          -5.71058        -3.25026        -4.94754
LJ           -1.3837          1.8034         1.14254
LJ          -2.50803          5.1135         5.84721
LJ          -1.64615         3.77899          1.5236
LJ          -1.83399         6.03059        -3.76222
LJ           4.81744         -6.2778           3.789
LJ           1.55433        -4.85387        -3.05364
LJ           5.34078         2.05412         4.22682
LJ          -2.28057         1.18505        -2.67625
LJ          0.252209         2.20219          3.1409
LJ           4.16081        -1.10771         3.15229
LJ           1.78926        -2.42252          2.1849
LJ           5.29329         -5.7922       -0.213749
LJ           4.24279          3.8657         4.73314
LJ           4.19985         5.34508         3.77372
LJ         -0.778866        -6.41436        -4.15934
LJ          -1.76163         3.90894        0.402955
LJ          -5.19955          -4.028        -2.42075
LJ           1.49136        -3.80697         4.79834
LJ          0.824113        -4.40956        -6.02203
LJ           1.04721         4.37524         2.73663
LJ           1.66646         3.52901        -2.34562
LJ          -3.93917        -4.84384          5.1479
LJ           1.63422         3.63438         3.43075
LJ           2.18031         5.53707       -0.746235
LJ          -2.53139         3.86104         3.36346
LJ           4.05145         1.64249          1.3722
LJ         -0.577723        -2.89586         2.96858
LJ          -4.84718        -5.66414        0.161285
LJ           3.04221        -5.98267         4.94901
LJ           3.65375         4.46442        -5.96246
LJ         -0.132224       -0.815814         -5.7216
LJ          -3.31597        -2.50884         5.40249
LJ           4.79425          3.1441        -1.19919
LJ          -1.38505         6.03333        -5.05281
LJ          -4.26493         2.27412         3.70628
LJ          -6.31251        -1.96757          2.9504
LJ          -4.13204       -0.666587         6.08853
LJ           2.92102        -5.43046        -4.10674
LJ          -1.23053         1.56896        -3.67614
LJ          -3.40614         1.85588       -0.330537
LJ          -6.24167         6.07788        -2.71085
LJ          -4.80451         2.28651         5.17833
LJ          -2.52614         2.08723        -4.25784
LJ          -1.07465        -2.75334        -1.50832
LJ          -5.92256        -5.38973        -0.91919
LJ          -1.35388         2.91761         3.47147
LJ          -2.11144       0.0815772       -0.637839
LJ          -1.24896         2.44474        -6.07813
LJ         -0.839757         2.20366        -1.89334
LJ           5.09342        -2.61179         5.88462
LJ           6.38905        -5.41878         2.29217
LJ           4.47441         3.63178         5.84248
LJ           5.20032         6.13408        -2.64303
LJ           2.95963         1.31086         3.20192
LJ          -2.16608        -5.22399         5.02957
LJ          -3.20774        -4.08683       -0.476906
LJ          0.555667         3.14301         3.11269
LJ          -3.07357         1.88767        -5.22207
LJ           3.13849         3.26251         3.11172
LJ           5.94082         3.56655         5.89268
LJ           2.27527         5.83528        -4.71546
LJ          -1.07664        -3.18666        0.802858
LJ           5.59914        -2.80513        -5.91153
LJ           6.26859        -6.29216        -5.74893
LJ          -2.72509         2.51451         2.87815
LJ           2.87218        0.231638        -0.19756
LJ           6.01143        -5.12146       -0.633082
LJ            2.3616        0.449316         4.80984
LJ          -4.00657       -0.429914        -2.41039
LJ          -2.33506        -6.05997        -4.23799
LJ          -3.90047         1.00303       -0.756666
LJ          0.642409         3.46833        -5.95148
