108
#Comment!
LJ          -1.24983        0.634671        -2.47848
LJ          -2.29983       -0.840177        0.882197
LJ          -5.75531        -2.22826         4.53204
LJ          -5.51265        -6.07659        -4.82031
LJ          -6.07603         6.04255        -2.62197
LJ          -2.30776        -3.75237         4.65315
LJ            -5.626        -5.45685        -4.01941
LJ           4.02175         6.18189       -0.758569
LJ           5.31189        -1.50177         2.98964
LJ           1.90963          3.0515         1.32154
LJ         -0.945164        -1.82598         1.98419
LJ           3.75682         1.64782         3.44099
LJ           3.56574         4.97739          1.0307
LJ          -1.26108        -2.48441         6.22391
LJ           5.74481         3.34198          4.8582
LJ          -5.86307        -1.96217        -5.20202
LJ          -1.76011         6.02731        0.250151
LJ           2.51189         1.33221          2.0749
LJ           3.56294        -4.51715         4.23057
LJ          -6.37283        -5.90418        -3.27456
LJ         -0.894551        0.444909        -5.59391
LJ           1.91243         1.50898        0.422393
LJ       -0.00434358         1.75769        -2.56813
LJ          -4.62497        0.928674         5.90188
LJ           1.20699       -0.597702        -4.32914
LJ           5.63205        -2.20727        0.744028
LJ           2.44001       -0.484215      0.00306109
LJ          -5.81382         1.18969        0.511917
LJ           1.46244         5.34754        -0.47366
LJ           2.17091         1.32278        -5.47529
LJ             1.488        -5.64816         2.48331
LJ          -1.98042        -5.92689        -3.68446
LJ          -5.72149        -4.40451        -4.54015
LJ           2.71444        -2.61692         3.90384
LJ          -3.61417         4.85217         5.93163
LJ           3.12975         4.58876         6.42228
LJ           1.89914       -0.215212        -2.03735
LJ           3.65588      -0.0516245       0.0958068
LJ          -5.25298         2.45144        -3.69483
LJ           2.73531         2.06832          4.0881
LJ          -1.74005          2.0265         4.11806
LJ           1.19025         4.44148         -2.2747
LJ          -3.93443        -4.13017         4.94056
LJ           3.27693         2.64361          3.3153
LJ           2.48621        0.570355        -2.44175
LJ           3.51652         5.91784         4.56611
LJ            1.4417       -0.498407         2.65927
LJ         -0.555402         3.51431        -2.64066
LJ           1.54836         5.46445         2.26003
LJ          0.997753         6.17199        -6.21996
LJ           3.32522         1.70192        -4.70286
LJ          -1.40397        -4.74017         3.48819
LJ          -3.42073         5.27712        -3.62094
LJ          -3.31837         -2.6357        -6.44449
LJ          -1.87326         1.20337         -3.5479
LJ          0.733357          4.5636          6.3244
LJ          -1.23428          2.1937         6.16654
LJ           4.90099        0.587031         5.61313
LJ          -4.97231        -5.84398         4.79447
LJ          -6.07029        -5.37042         4.31342
LJ           1.01384         1.71898       -0.304829
LJ           4.16952        0.522521        -3.75062
LJ          -6.35107         -3.6136          4.7563
LJ          -4.93595        0.230502         5.15189
LJ          -5.06389        0.785727         1.84128
LJ          -3.42287       0.0572989        0.147752
LJ           -1.6908        -2.30501        -3.89021
LJ         -0.352389         1.23103        -1.17577
LJ          -4.64506        -1.44623       -0.306212
LJ           1.61984         3.95342        0.100368
LJ          -4.30059          3.4812         5.10987
LJ           5.62346         1.73369        -3.84035
LJ           3.26016          -6.245         2.67751
LJ         -0.564887        -4.31744         6.38453
LJ          -3.48371         4.03759        -2.01152
LJ           2.38478         5.72062         3.18806
LJ          -4.64388         5.46031        -6.35301
LJ         -0.377394        -5.10395        -1.63303
LJ           2.51596        -1.61081        0.150163
LJ           1.80665        -6.28341         1.32699
LJ         -0.855151         -4.8466        -4.30128
LJ           6.17726        -5.06261        -3.90228
LJ          -1.47751         2.92384         -2.3604
LJ           1.03637        0.354249        -4.72475
LJ          0.995594        -3.52667         4.49537
LJ          -3.18682         1.13145         2.35867
LJ          -4.11222         1.59808        -5.54843
LJ           1.55606         2.95048         6.38579
LJ           2.61926        -1.87342        -2.16489
LJ          -5.51534        -3.56034        -5.40352
LJ           1.97483         1.34109          4.6002
LJ           3.28963        -4.63525         2.54635
LJ             1.973        -3.59873        -2.66754
LJ          -3.60644        0.161375        -3.81965
LJ          0.662587        0.549927        -2.00984
LJ           3.18474         1.23747         1.18699
LJ          -4.96146        -2.51296        -4.93159
LJ          -5.09562         3.69522        -3.48329
LJ          -0.43067        -6.04059       -0.902371
LJ          -3.60651        -1.57673        -5.16187
LJ          -1.23272          2.1962        -5.53817
LJ          -5.14183         2.74808         3.56938
LJ           6.07391        0.270557        -6.05773
LJ           5.42871         1.50415         3.81317
LJ          -1.60599         1.28239         2.19673
LJ          0.215464        -6.03089        -1.70182
LJ           3.36442        -1.31737         1.10163
LJ           4.60757         5.03916        -2.75516
