108
#Comment!
LJ           1.54787         4.37148        0.402467
LJ         -0.566881        -2.68005         -1.6468
LJ          -1.69198         4.51206         2.75022
LJ           5.32261        -4.70986        -6.26076
LJ         0.0509172        -6.09892        -1.42294
LJ           6.42875         1.97301         3.89907
LJ           4.70617        -2.41771        -4.54282
LJ           1.25472         2.63316        -1.78349
LJ          -3.34819         1.13367         5.43958
LJ          0.473817         1.58067        0.835592
LJ          0.392943        -4.71496        -3.76536
LJ          -3.91933         2.32282         3.29261
LJ          -1.97182         5.07981         3.62485
LJ           5.06433        0.117866        -5.78548
LJ          -5.91758        -4.39673         3.45308
LJ           4.30748         1.24044           6.434
LJ           0.82264        0.813496        0.213155
LJ           2.70419         2.30346        0.725317
LJ           3.46063         1.56698        -2.24134
LJ           5.61567        -2.10784        -5.21228
LJ          -4.15534        -5.86862         6.18877
LJ          0.557678        -3.15561        -3.12649
LJ          -4.43578        -3.11168        -1.99509
LJ           -5.5061       -0.990263        -3.66049
LJ          -1.03541         1.57195         2.82668
LJ          -6.09456         3.88464         4.60989
LJ           2.82042        0.234759        -0.68688
LJ          -2.44165        -3.74154         5.40324
LJ          -2.83947        -3.08699        -3.04558
LJ            5.4962         5.19749        -2.25771
LJ          0.143459        -1.13691         1.03287
LJ          -4.56632          2.5204         2.26494
LJ          0.722796         6.17379          3.8849
LJ          -4.77169        -6.26955         4.41029
LJ           5.58957         4.15595         4.90103
LJ           2.91574         -2.4892         4.74712
LJ          -1.69311       -0.131698        -5.05692
LJ          -4.78142        -3.77222         3.35462
LJ          -5.28215         6.44488        -3.93007
LJ           1.88235         2.55104         2.55284
LJ          -6.07586         5.03292        -2.92012
LJ           4.37069        -3.18196        -6.43184
LJ          -3.87368        0.182401        -4.85795
LJ           1.52273         2.13544        0.370237
LJ           6.24633         1.94081        -3.19779
LJ          0.353471         6.07297         5.83617
LJ           5.55307         2.02042        0.292079
LJ         -0.132903        -5.57771        -3.49623
LJ           1.60345         2.91828        -4.20209
LJ          -1.59619        -4.16452         2.75547
LJ          0.648426        -5.69059         6.44189
LJ            1.9519        -4.93587         -6.4588
LJ           3.77061         5.85187        0.760574
LJ          -4.59702       -0.783139        -4.12414
LJ           -1.6722         -5.6504        -3.12141
LJ          -3.93663         3.21647          2.7252
LJ          -1.25538        0.892179       -0.401043
LJ           -1.1046         4.49926         3.99962
LJ          -4.98917        0.584703         4.91984
LJ          -2.04957        -5.56681        -4.43781
LJ          -5.45813         -6.0821         3.75431
LJ           6.05567         5.25955        -4.99334
LJ           2.64701         4.03416        -3.68185
LJ          -2.30355        -2.16427         4.34619
LJ          -3.00996        -3.04196          4.7928
LJ           -1.8355        0.375586        -1.53031
LJ            1.7949       -0.843721         1.95554
LJ            5.9737       -0.001612        -1.39598
LJ         0.0607118        0.942009         2.12279
LJ          -2.52028        -2.22766         1.53973
LJ           -2.0466         2.85773         2.59574
LJ           5.39196         6.10097        -4.02231
LJ         -0.359015         4.51371         2.94797
LJ           2.31416         5.09758        -2.71665
LJ          0.450684        -1.86001         3.77553
LJ           1.74138         3.33067        -2.74971
LJ          -3.46856        -4.37504        -5.06139
LJ          -1.03513         3.79685         2.02711
LJ            1.9423         5.10346         1.12348
LJ           1.03983        0.838569        -1.37492
LJ           4.88419         -4.2423        -2.69308
LJ         -0.816617       -0.929093        -2.53282
LJ           -1.9429        -4.30496        0.948245
LJ          0.367274         2.55064         1.77901
LJ           -3.5468        -3.52352        -4.22359
LJ         -0.323407         3.80604         6.35845
LJ          -1.99564          4.1201         5.61229
LJ           1.09423         3.57721        -5.14173
LJ           5.91211        0.860789        -3.11324
LJ           2.56529         4.20074        -5.60689
LJ          -4.83898         1.86832         4.54622
LJ         -0.218402        -2.37966        -2.56229
LJ          -4.10815       -0.984427        -2.62508
LJ           5.61984         2.73754        -5.61203
LJ            1.5248           5.886         4.98762
LJ           5.39055        -3.47378          1.8979
LJ           6.07285          -5.649        -2.70321
LJ         -0.361357         6.38934        -2.76661
LJ          -4.81761        -4.99258        -2.78036
LJ           -3.6887        -5.78919        -4.23322
LJ          -1.08197        -5.04629        -1.97003
LJ           4.52646         2.25675        -5.97299
LJ          -3.71523        -5.97377        -3.08175
LJ           6.26121        0.629563         5.51703
LJ           5.28768        -2.52016         1.01208
LJ          -0.66918        -6.06417         2.95104
LJ          -2.21241        -4.03772        -1.33752
LJ            4.8456          4.5362         -4.7766
