108
#Comment!
LJ           5.34368        -3.19623         4.92452
LJ           5.57474        -5.69708        -4.77878
LJ          -1.27495       -0.477453          1.9172
LJ           1.39863       -0.263819         3.38902
LJ           3.19704        0.757961         3.83664
LJ          -1.35044        0.343132         2.72331
LJ          -2.62705        -6.10774        -4.22167
LJ           4.40551          5.8203        -3.95502
LJ          -1.67064         3.35791         4.66495
LJ           1.48654        -5.66282         6.35249
LJ          -5.59169         2.52876        -5.25665
LJ        -0.0547425        -3.17107        -5.76105
LJ           2.25863         4.51141         -4.8782
LJ         -0.658296        -4.26759         1.43581
LJ          -1.15327          1.2681         1.14151
LJ          -6.01401         3.85175         4.58508
LJ          -0.64373         3.67557        -3.89311
LJ           -1.4636         -3.5456         -5.9854
LJ         -0.846867       -0.663816         4.00168
LJ           4.23364         2.91641         4.21574
LJ           3.43783         5.49443         1.47156
LJ         -0.519102         2.88225        -5.42129
LJ           5.02051        -4.34234        -5.42342
LJ          0.751121        -4.48535          4.4326
LJ          -1.09527         5.51653         5.33555
LJ          0.902784         2.94063         -1.1817
LJ          -5.16709        -3.50876         6.20244
LJ          -1.69113         5.18656       -0.813841
LJ          -4.75957         6.15801        -1.58029
LJ          -2.00581        -4.14728        -1.65771
LJ         -0.441534         2.73399       -0.945855
LJ          -5.07516         5.91721         3.58423
LJ          -2.57438        -5.90242        0.395056
LJ          -4.57676        -4.25375        -6.39144
LJ           1.41623         3.97183        -2.29442
LJ           3.29096         5.56966         2.51016
LJ           2.69373         5.65372        -4.80457
LJ           1.02855        -4.77931        0.857346
LJ          -2.15403        -2.26715         5.62986
LJ          -5.58937        -1.86078         4.08891
LJ          0.409743         -3.2397        0.186497
LJ           1.84753        -4.67987         1.90944
LJ          -6.23771         3.56953        -5.02316
LJ         -0.266058         6.14084         2.45486
LJ          -2.28469         2.35585          6.4293
LJ          -1.84534        0.428855         1.18161
LJ           3.04854        -4.76805        0.672815
LJ          -3.57196         6.07115         5.62648
LJ          0.922384        -2.70511        -4.71083
LJ           3.72965         5.15761        -3.20186
LJ          -3.89181        -3.21385        -5.64752
LJ           4.44971       -0.753406         1.93468
LJ          -3.22972        -1.57992         3.60331
LJ          -2.37915         3.90255       0.0896715
LJ           4.79365        -5.67398        -5.57577
LJ          -1.78255        -1.28594         3.14804
LJ            5.1188        -0.28267        -3.24588
LJ          -1.06402        -4.04908        -3.84501
LJ          -3.55119         4.32982        -5.75429
LJ          -3.50857         1.03709        -5.03627
LJ           -4.5623       -0.651022         3.34764
LJ          0.605462         2.16182        -5.65934
LJ          -3.55427        -6.03333        -6.10555
LJ          -1.81951       -0.762315        -5.29011
LJ           6.25316        -2.33314        -4.77276
LJ          -3.20093         5.57307        -5.96658
LJ           2.86659         4.28638         1.35984
LJ            2.0205          4.6165         5.98656
LJ            5.4517        -1.67543        -6.15004
LJ           2.71327      -0.0180434        -5.87054
LJ          0.377804       -0.714403         4.32551
LJ         -0.112038         1.32074         2.66078
LJ          -4.42604         -6.3003        -4.74141
LJ           5.78813         2.22737        -2.23609
LJ           2.83083        0.660679         5.91679
LJ            5.7122         4.05666         4.56212
LJ           -3.9756        -5.41108        -2.06455
LJ          -5.30814         4.88795        -4.93229
LJ           4.01347         2.86059        -2.27725
LJ          -1.42311        -4.64139        -2.91431
LJ         -0.901249        -2.21759        -4.94645
LJ          0.583902        0.690066         6.25557
LJ          0.572472        -4.22358         2.34379
LJ          -3.24131        -4.42269          2.4882
LJ           4.83248        0.459305        -2.57646
LJ           0.45183        -0.96409        -6.30032
LJ           3.35718        -4.30822         4.93588
LJ           5.45582        -6.23131         -3.2579
LJ           5.16991          3.0408        -4.89307
LJ           4.22546        -6.18067         -4.2988
LJ           1.45608        -3.49964        0.827179
LJ           1.09345        -1.46669        0.945462
LJ           5.45444        -4.35854         5.47369
LJ           3.59756       -0.383024         5.42432
LJ          -2.22293       0.0810701        -3.86468
LJ          -4.54567        -1.47809         3.97962
LJ          -4.84122        -5.14676        -1.06176
LJ          -4.15514        -2.82927         3.54224
LJ           -4.7455        -4.26942        -5.12736
LJ             4.459         2.02811         3.58361
LJ           -3.3886        0.295534        0.794807
LJ         -0.574745         1.60009        -4.94904
LJ         -0.407613       -0.394878        0.315372
LJ          -1.46067         2.16376         1.73671
LJ           6.04169       -0.120619         5.19418
LJ          0.399195          5.8654           1.004
LJ           -4.5168         3.09512         1.62393
LJ           5.91423        -3.54284        -4.33499
