108
#Comment!
LJ           5.24519        -3.49906          5.0818
LJ           6.40559        -5.94278        -4.76188
LJ          -1.18546        0.131578         1.90649
LJ           2.27226       -0.745924         3.42757
LJ           3.13573        -1.05385         2.52594
LJ          -1.78929        0.146865         3.03116
LJ          -3.73506        -5.59217        -4.05044
LJ           4.84634         5.44325        -5.29075
LJ           -2.0875         3.29769         4.19978
LJ           1.43996        -5.95182        -6.19611
LJ          -5.46284         2.29988        -5.23992
LJ         -0.908081        -3.27245        -5.46767
LJ            2.3699         4.89096        -4.62009
LJ         -0.971701        -3.41609          1.0655
LJ         0.0217058         1.10785          1.4344
LJ          -6.19638         3.63136         4.24012
LJ       -0.00631117         3.22122        -2.75245
LJ          -2.05677        -3.31995        -6.15621
LJ           -1.0023        0.562382         3.81328
LJ           3.46123         2.62975         3.23421
LJ           2.91065         4.82408        0.624255
LJ           0.10966         2.40381        -5.60795
LJ           -6.4503        -4.47105        -5.49407
LJ          0.710631        -3.65623         2.68752
LJ          -1.61298         5.59673         5.20628
LJ           1.53701         3.49539       -0.180754
LJ          -5.67658        -2.22847          5.8085
LJ          -1.78926         5.70118       -0.886568
LJ          -3.77575         5.59556        -1.31281
LJ         -0.921337        -5.10417        -1.96874
LJ          0.633401         2.54245      -0.0684836
LJ           -5.2926         6.12167         3.05213
LJ           -2.3775        -5.96922        0.409282
LJ          -3.92091        -4.35666        -5.96544
LJ           1.08407         4.73324        -2.86181
LJ           2.92418         5.73618         2.51564
LJ           2.84235         5.92673        -4.73119
LJ          0.211564         -3.5979         1.80992
LJ          -3.00664        -3.21742         6.21325
LJ          -5.15098        -1.64312         3.83989
LJ         0.0703596        -2.39515       -0.282728
LJ           2.45299        -4.12586         1.26324
LJ          -6.30824         4.09544        -4.83425
LJ         -0.489685         5.91501          1.5608
LJ          -2.02125         2.43975        -6.34334
LJ         -0.173602         0.15146        0.758214
LJ           3.32633           -3.57         1.61791
LJ          -2.74486        -6.37239         5.01237
LJ          0.936024        -3.95108        -4.95021
LJ           2.55068         5.16008        -3.55039
LJ           -2.5403        -3.83566        -4.28331
LJ           4.76323        -1.32766         1.17241
LJ          -3.26384        -1.73324         2.93312
LJ          -1.44442         4.56444        0.551002
LJ           5.16369        -4.95225        -5.47252
LJ        -0.0427425        -2.10365         4.77492
LJ            5.8326        -1.61309        -2.84389
LJ         -0.821395        -3.64051         -4.3103
LJ          -4.36317          5.0356        -4.71775
LJ           -3.7688       -0.372613        -4.87461
LJ          -4.26931       -0.424182         2.06216
LJ          0.877057         1.18079        -4.81614
LJ          -4.60778        -5.66706          -6.265
LJ          -1.50758       -0.907453        -5.77736
LJ           6.15947       -0.929493        -4.64066
LJ          -3.33288         5.39387        -4.25496
LJ           1.36836         4.36809        0.352101
LJ           2.82066         5.40347        -6.18468
LJ           5.59619       -0.797085         -6.0625
LJ           2.26329        0.982516        -5.21873
LJ        -0.0550346       -0.850367         4.97162
LJ         -0.392177        0.849913         2.55667
LJ          -4.51021        -5.26438        -4.88372
LJ            4.4078         2.40636        -1.01889
LJ           1.39078        0.346743        -6.36462
LJ           5.46048         4.20958         4.05635
LJ          -3.44828        -4.83553        -1.62814
LJ          -5.13212         4.96202        -5.55959
LJ           3.39645         2.99473        -2.88543
LJ          -1.39128        -4.14537         -3.3476
LJ           0.20479        -3.39891        -4.46502
LJ         -0.313121         1.33152         5.75749
LJ           1.33773        -4.53229         2.37612
LJ          -4.00299        -2.65451         2.74909
LJ           4.75723         0.85826        -1.97827
LJ         -0.125615       -0.397817         5.88538
LJ           3.68639        -4.35258         5.52851
LJ            6.4235        -5.93556        -3.19244
LJ           5.87497         2.12104        -5.54612
LJ           3.83574        -6.09931        -3.45157
LJ           1.26097        -3.79982         1.00919
LJ           1.63252        -2.12431        0.540035
LJ           5.38612         -4.6037         5.64346
LJ           2.56938        0.315619         6.28656
LJ          -2.88245        0.181638        -3.29403
LJ          -3.99451        -2.90391          4.4289
LJ          -4.29304        -6.11119        -1.62018
LJ          -4.50702        -3.35772         3.56294
LJ          -5.15742        -4.43653        -5.08481
LJ           4.17559         1.64296         2.45361
LJ          -4.47069       -0.541173        0.707577
LJ          -1.60758         1.06863        -5.89507
LJ         -0.538577       -0.628102       -0.804853
LJ          -1.58312         2.14844          2.1838
LJ           5.83092       -0.111652         5.75786
LJ          0.518774         5.55999         1.39409
LJ          -4.53987         2.40677         2.13975
LJ           5.06575        -3.60956        -4.95344
