108
#Comment!
LJ           4.79334        -1.10162         4.08226
LJ           4.61327        -5.79103        -2.24402
LJ          -3.43304         1.49099          1.1899
LJ         -0.584125         2.05622         2.88913
LJ            4.1761         5.50753        -5.07861
LJ          -1.74295       -0.394881         2.67439
LJ           1.52442         4.29454        -5.08698
LJ           3.56993        -5.80389        -5.95159
LJ          -2.08314         3.16821        -6.10427
LJ           4.92325         -6.0573        -5.14584
LJ          -4.57833      -0.0340043         6.04772
LJ          0.365754        -2.55997        -4.22021
LJ           3.60981         6.03104        -3.88518
LJ          -1.29719         6.44833         4.82364
LJ          -2.67873        -1.69361         1.82707
LJ          -4.47282         3.86866         6.03263
LJ         0.0480539         3.95237         -4.0834
LJ           2.03661        -3.01209        -4.90429
LJ         -0.115429        -4.44576         3.76314
LJ           6.24436         2.55586        -4.63877
LJ           4.95963        -6.10718         2.09962
LJ          -2.11986         2.71984        -5.26497
LJ        -0.0767697        -5.63297         6.00572
LJ          -2.41009        -6.12147        -5.17499
LJ        -0.0974649         4.55415         5.62295
LJ         -0.766309         2.74446        -4.54357
LJ           5.73388        -2.75241         6.17822
LJ          -1.98328         2.61596       -0.162924
LJ            4.1183        -3.60306        -2.13615
LJ          -6.21854        -1.08037        0.523579
LJ          -2.71006         3.29723        -4.40676
LJ          -3.83085         6.38535         5.78078
LJ          -3.21743         -5.6639        0.465246
LJ          -2.02258         4.71107        -4.28554
LJ          0.761334       -0.144079      0.00727499
LJ           6.13015           4.054         4.39441
LJ           2.03908         3.43975        -4.95784
LJ           1.54951        -5.98487        0.815745
LJ          0.302798         1.26889         4.68915
LJ          -5.50323        -3.25264         3.49338
LJ           2.50669        -4.64581        -1.29401
LJ           1.11646        -5.48894       -0.179608
LJ           5.66414         5.23647         -3.4672
LJ           2.64607         4.79852         5.72715
LJ            -4.002         2.43667         5.81748
LJ          -1.32607        -1.05837         5.45334
LJ           3.60547         2.67346        -2.46163
LJ           3.92337        -6.05697         4.78685
LJ          -1.24241       0.0167037        -3.23165
LJ           4.37443         2.18356         2.01693
LJ            6.2072        -1.80485        -6.16005
LJ            3.6918         1.15083         5.19816
LJ          -2.84835        -3.54518        -5.78908
LJ          -5.52334         1.91898        -1.78168
LJ           4.38438        -5.32136          3.4046
LJ           4.83239         0.79716        -3.82374
LJ           4.32446       -0.142712         4.26999
LJ          -1.68595        -5.20746        -2.69779
LJ         -0.123854         3.94297         4.01155
LJ          -2.33051        -6.44601          -6.266
LJ           6.20248         4.28428          3.0747
LJ          0.816776         4.06343         5.89952
LJ          -3.14722        -6.17621         4.69253
LJ          -2.97977       0.0511831        -3.41677
LJ          -6.45129        -6.07483         5.31711
LJ          -0.26683         4.92898         4.41735
LJ           5.48539        -5.56792         5.11087
LJ           1.23113         4.72148        0.875864
LJ           5.56732        -4.78314         6.34973
LJ            5.2847        -2.86461         3.71628
LJ           0.27288        0.417216         2.58109
LJ          -1.67245         1.70815         3.77825
LJ          -4.14563         2.17034        -5.47715
LJ          -3.05877         1.81894         -6.3968
LJ          -6.28158        0.737254         2.26429
LJ          -5.89519         4.19761         6.29083
LJ           -6.2338         5.64624        -3.06721
LJ           6.13745         4.04519        -4.07801
LJ           6.32619         2.33042        -0.10763
LJ          -1.64152        -6.26479        -2.60167
LJ          -3.15303        -1.13812         4.30473
LJ           4.46378        -1.26314        -4.59068
LJ          -3.32963        -4.58063         1.53943
LJ          -1.02934          4.1543         1.32134
LJ           3.24842         4.37611        -1.07086
LJ           4.16567        -1.82563        -5.56767
LJ           2.29314         -4.3602         2.72725
LJ           5.05351        -3.37417        -3.53117
LJ           5.66726         3.58777        -3.07379
LJ           1.29378        -5.32184        -3.98187
LJ           1.87789        -5.38641         3.44605
LJ           1.22187       -0.611393         1.46061
LJ           2.52266         6.36572          4.6727
LJ          -6.01801       -0.157191         3.12381
LJ         -0.372233         1.23786        -5.44333
LJ          -4.60679        -3.09109         4.27585
LJ          -6.21407        -2.78125       -0.239304
LJ          -3.76206         1.40904         3.40634
LJ          -2.79329        -3.36827         5.69527
LJ           4.12884         4.97001        -3.88068
LJ          -3.12585         4.49294         -1.3434
LJ           1.98969         3.95407        -3.54926
LJ          -2.02073       -0.460742         3.76982
LJ          -1.73993          2.4291         1.32889
LJ          -5.65167        -1.29203         3.40172
LJ          0.191904        -4.90327        0.692868
LJ          -4.23339         5.49853       -0.444965
LJ          -3.98046        -3.77762      -0.0200413
