108
#Comment!
LJ           5.30258        -3.46894         5.06107
LJ           6.03256        -5.56641         -4.9015
LJ          -1.22303       -0.233494         1.89119
LJ           1.97366       -0.552067         3.36409
LJ           3.09961        -0.29296         3.11486
LJ          -1.71356         0.27923           2.936
LJ          -3.38899        -5.76992        -4.19515
LJ           4.61352          5.5176        -4.67637
LJ          -1.91416         3.32317         4.39095
LJ             1.457        -5.82897        -6.35514
LJ          -5.55247         2.47462        -5.22761
LJ         -0.511229        -3.25233        -5.68158
LJ           2.34906         4.78784        -5.17789
LJ         -0.658877        -3.51866        0.905464
LJ         -0.434562         1.27758         1.41545
LJ          -6.05644         3.70215         4.38939
LJ         -0.279854          3.4076        -3.22722
LJ          -1.83293         -3.4512        -6.08394
LJ         -0.956139    -0.000924832         3.92444
LJ           3.75361         2.80032         3.68258
LJ           3.17832         5.12962        0.948965
LJ        -0.0568931         2.56647        -5.52901
LJ           5.90609        -4.65279        -5.29639
LJ          0.710359        -3.98189           3.479
LJ          -1.38552         5.55926         5.26072
LJ            1.1729         3.19173       -0.591339
LJ          -5.44252        -2.79022          5.9872
LJ          -1.74332         5.49604       -0.873015
LJ          -4.17907         5.77907        -1.42388
LJ          -1.35059        -4.71274         -1.9253
LJ          0.281162         2.67934       -0.451183
LJ          -5.20204         6.03739         3.27269
LJ          -2.46155        -5.93735        0.408412
LJ          -4.25171        -4.26454        -6.09921
LJ            1.2258         4.42275        -2.62423
LJ           3.07557         5.67734          2.5501
LJ           2.79578         5.74027        -4.55214
LJ          0.535034        -4.12173         1.40788
LJ          -2.68509        -2.79402          5.9301
LJ           -5.4018        -1.70625         3.93665
LJ        -0.0651774        -2.96332        0.182512
LJ           2.03454        -4.35695         1.62604
LJ          -6.23532         3.78112        -4.92171
LJ         -0.428917         6.02097         1.97564
LJ          -2.14405         2.41662        -6.41526
LJ         -0.904459        0.237965        0.835746
LJ           3.28004        -4.05895         1.20359
LJ          -3.09364         6.35213         5.25164
LJ           1.00044        -3.45473        -4.84849
LJ           3.08817         5.29716        -3.63285
LJ          -3.09588        -3.55752        -4.83126
LJ           4.63453        -1.08914         1.48813
LJ          -3.39684        -1.48685         3.12044
LJ           -1.8379         4.27446        0.371219
LJ           5.01756        -5.23322        -5.51962
LJ         -0.703656        -1.62933         4.16412
LJ           5.52061        -1.02725        -2.97556
LJ         -0.973992        -3.87774        -4.02925
LJ          -4.00665         4.68304        -5.15454
LJ          -3.67198        0.216164        -4.95245
LJ          -4.20094       -0.705501         2.69912
LJ          0.695178         1.66804        -5.15963
LJ          -4.16785        -5.84388         -6.2412
LJ          -1.64129        -0.84948        -5.57421
LJ           6.21657        -1.51424        -4.67695
LJ          -3.23356         5.49026        -4.96318
LJ           1.95809         4.30547        0.774712
LJ           2.44047         4.98038          -6.108
LJ           5.51806        -1.16759        -6.10805
LJ           2.45311        0.587958        -5.50288
LJ          0.119105       -0.890771         4.71276
LJ         -0.209238         1.08559         2.54951
LJ          -4.40805        -5.67944        -4.70614
LJ           4.99456         2.33827        -1.51453
LJ           2.04144         0.45873         6.31655
LJ           5.50419         4.16876         4.26289
LJ          -3.66836        -5.05871        -1.80456
LJ          -5.23847         4.96458        -5.30503
LJ           3.64399         2.94229        -2.63767
LJ          -1.39538        -4.32335        -3.12154
LJ          -0.25996        -2.80701        -4.58922
LJ         0.0597427         1.07858         5.94641
LJ           1.15885        -4.45254         2.28867
LJ          -3.65371        -3.42122         2.58676
LJ           4.79923        0.650203        -2.25899
LJ           0.12019        -0.67253         6.17035
LJ           3.53172        -4.33643         5.27999
LJ           6.02925        -6.06288        -3.19163
LJ           5.55148         2.49118        -5.27749
LJ           3.98974        -6.08716        -3.78174
LJ           1.42208        -3.68104        0.918393
LJ            1.4182         -1.8311        0.709613
LJ           5.41211        -4.40186         5.51428
LJ           2.96442       0.0167785         5.91808
LJ          -2.60066         0.13949        -3.51618
LJ          -4.19648        -2.23185         4.29708
LJ          -4.53506        -5.67506        -1.39091
LJ          -4.40102        -3.21074         3.54997
LJ          -4.92747        -4.40538        -5.15434
LJ           4.32215           1.753         2.88343
LJ          -4.02252       -0.191219        0.732404
LJ          -1.20265         1.25427        -5.48123
LJ         -0.471802       -0.550202       -0.375212
LJ          -1.54752         2.15634         1.97877
LJ           5.92359       -0.101401         5.50637
LJ          0.496944         5.67848         1.19287
LJ          -4.53089         2.69388         1.92455
LJ           5.39406        -3.63647        -4.74592
