108
#Comment!
LJ          -1.80527         4.20085         2.96355
LJ             4.787         3.17268       -0.876145
LJ           2.76482         3.22656         3.43286
LJ          -1.59629        -4.21042         1.82893
LJ           1.14297        -2.88754        -5.01239
LJ           -6.0926        -2.40894       -0.763321
LJ          -1.32666        -1.56264        -4.29441
LJ           -1.8813         3.08567     -0.00759628
LJ          -6.07952         5.79943       -0.727425
LJ         -0.981076         2.19603        0.329679
LJ          -2.60416        -4.52895        -6.05695
LJ          -3.04717         5.34189         3.07076
LJ           1.67069         3.97656        -5.43463
LJ          0.641646        -3.29006        -6.02151
LJ           4.69087        -5.83862        -1.08498
LJ          -0.59333        -5.54605         4.81071
LJ          -2.59423        -6.12753         -2.1254
LJ           3.29357      -0.0117487          6.3767
LJ          -1.78153        -4.65306        -1.40566
LJ          -5.57504        -3.98877        -5.27928
LJ          -4.22744        -3.16862        0.895357
LJ           5.67512         2.92054        -1.43258
LJ           1.56871        -3.29523        -3.03239
LJ           1.43446         4.70211        -2.67642
LJ          -2.03969         3.44379        -6.18189
LJ          -1.39325        -1.25054          3.1502
LJ          -5.38404        -6.10322         3.33813
LJ            3.7437         2.77056        -3.98775
LJ          0.805252         5.32887         4.20486
LJ          -0.94907        -1.60065         2.30442
LJ          -4.01795        -2.18524       -0.452215
LJ          -1.20596        0.436682         3.01601
LJ          0.470688        -1.71591        -5.88241
LJ           2.48185       0.0405157         2.62612
LJ           1.22096        -3.30923        -1.08631
LJ          -5.84318        -4.04771         -4.2176
LJ          -2.12476        -0.24348         1.58837
LJ          -3.02172         4.76877         4.33956
LJ          -1.96049         4.31891         1.78827
LJ          -1.14839         5.62409        -3.03458
LJ           4.84474        -6.12658         3.37166
LJ           1.83474        -4.41529        -2.80797
LJ           4.05332         2.02477         4.00009
LJ          -1.31815         1.76007        -2.46426
LJ           1.86203         1.49361         2.41377
LJ           4.43005       -0.759103         2.69202
LJ           1.75385         -1.7362         1.82985
LJ          -5.95185         5.93598        0.915624
LJ           3.22828         4.04781         4.03219
LJ            3.9615         4.98478         3.93788
LJ         -0.913525        -5.81613        -1.89321
LJ         -0.366083         4.09697        0.387548
LJ          -5.50813        -2.77428        -3.32883
LJ           1.16086        -3.38809         5.24889
LJ        -0.0156103        -4.24758        -3.78906
LJ         -0.581452         3.91199         1.44738
LJ          0.715491         2.55464        -2.32405
LJ          -4.53421        -5.03839         4.58426
LJ           1.93885         2.71678         4.59553
LJ           3.26145         6.36841       -0.168999
LJ          -3.38693           3.364         2.63963
LJ           4.27243         2.63074         1.14371
LJ          -1.71555        -3.96414         3.63376
LJ          -4.41085        -5.25277        0.246975
LJ           3.44785        -4.63161         5.03628
LJ           3.01521         4.30464        -4.16683
LJ          -1.76196        -1.59851         6.33993
LJ          -3.05002        -2.26954          5.1784
LJ           4.93318         3.99788        0.152176
LJ          -0.76036         4.95554        -5.54944
LJ          -5.42893          1.9532         3.73415
LJ          -5.56747        -1.79958         2.84941
LJ          -4.13788        -0.64031        -6.15761
LJ           2.42913        -5.24255        -3.93198
LJ          -1.67526        0.773525        -3.22083
LJ          -2.50933          2.5894        -1.46287
LJ          -6.18735         6.21413        -3.09965
LJ          -4.00354         1.83364         5.13767
LJ          -2.48834         1.57321        -5.74158
LJ         -0.774198         -1.3139        -1.50985
LJ          -5.62855        -5.26031         -1.0129
LJ        -0.0912146         2.78259         3.01388
LJ          -2.40142         1.59884        -1.60067
LJ          -1.55471         1.03479         6.19943
LJ         -0.430772         2.27301        -2.71729
LJ           5.14249        -1.86757         5.83488
LJ           -5.6819        -5.17112         1.31923
LJ           2.99906         4.70994        -6.33681
LJ           5.52758        -5.85806        -2.49249
LJ           3.85842          1.0016         2.37591
LJ          -1.74201        -5.97978         4.95738
LJ          -3.67034        -4.33178       -0.617076
LJ        -0.0280753         3.15267         4.20128
LJ          -2.62811         2.38495         6.41028
LJ           3.64662         2.24936         1.85087
LJ           4.95057         2.68586        -5.81534
LJ           2.16722        -6.35195        -3.49766
LJ          -0.49453        -3.52639         1.48572
LJ           6.27684        -3.03933         6.18615
LJ           5.53361         6.12049        -5.07885
LJ          -1.97051         2.68003         1.40071
LJ           3.08333         1.38903        -1.20166
LJ           5.81888        -4.59936        -1.69058
LJ           2.32383        0.796086         4.82407
LJ          -3.01067        -1.22472        -3.19615
LJ          -1.25643         6.28534        -4.12017
LJ          -4.79188         1.65409       -0.459416
LJ          0.522026          4.4235         6.24484
