108
#Comment!
LJ           1.20138         2.59761         2.35013
LJ            1.1643        -4.58919        -1.67625
LJ         -0.440107         2.86646         1.33867
LJ           3.60589        -5.08828         5.82383
LJ           1.93545        -5.03034         1.00971
LJ            5.1399         4.21044         6.05837
LJ           4.10259        -1.90293        -5.42269
LJ          -2.39714        0.447054        -1.18879
LJ          -4.40651         2.02663        -5.78186
LJ          0.263065          1.9752         1.27893
LJ           2.49387         -4.3075        -3.64397
LJ          -2.03733         3.54037         2.55006
LJ          -2.07719        -6.09752        -6.43822
LJ           1.91539         1.92203        -5.24213
LJ           4.37382        -2.33029         4.67933
LJ           2.43737       -0.577359         5.08206
LJ           1.56318       -0.118014        -1.24542
LJ           1.83214         1.68333      -0.0969477
LJ           2.11835        -1.51963         -2.6009
LJ           3.94364        -0.68309        -5.37603
LJ          -6.22358         -3.8698         5.70034
LJ         -0.553626        -5.92496          -3.913
LJ          -6.18223        -4.81526        -1.17103
LJ          -5.83255        -2.05648         -2.8018
LJ        0.00576487         1.59017         2.60245
LJ          -2.15866         4.44282         5.20725
LJ           2.58005       -0.634655         -1.8243
LJ          -2.08251        -5.07945         4.11773
LJ          -5.21567        -2.65177       -0.687732
LJ           4.72613        -6.16939        -1.83438
LJ            1.1234        0.330055         1.62943
LJ           -5.5432         2.02825         1.88624
LJ         0.0517822         5.37234          3.2848
LJ          -3.08502           6.317         2.57839
LJ           6.05097         5.52692        -6.20271
LJ           2.81244        -4.58247         4.38913
LJ          -1.39126      -0.0902624        -6.45188
LJ           5.40713        -5.52149         6.43802
LJ           -6.0307        -6.45379         -5.0398
LJ           1.91641         1.53298           2.802
LJ           6.29652         5.14887        -1.70141
LJ           6.44717        -1.59768         5.71682
LJ          -5.62579        0.332794        -4.97166
LJ           1.14326         1.74156        0.823557
LJ          -4.56748         1.17579        -4.99945
LJ           0.20096         4.01144         5.63179
LJ          -5.83381         5.38492         1.25514
LJ          -1.41477        -6.38268        -2.12913
LJ         -0.494662         2.20956        -3.00062
LJ          -2.99489        -3.14864         1.14566
LJ         -0.701906        -3.78204         4.13439
LJ           4.50077        -5.06977        -5.63842
LJ           4.38631         2.02118         2.64427
LJ          -3.46718       -0.203278        -3.83152
LJ          -2.16372        -6.43567        -3.30678
LJ          -5.77434         3.34688         1.62728
LJ          -1.57906        0.108087        0.499116
LJ           1.33035          4.9017         2.35829
LJ          -5.62836        0.718822         4.14599
LJ         -0.652203        -4.52281         -1.3447
LJ           4.37534        -4.66356         2.03192
LJ          -5.49467         2.77102        -5.20185
LJ           1.94507          4.6378        -3.73902
LJ          -2.04569        -3.92245         4.00712
LJ          -2.86911        -2.94161         4.20737
LJ          -1.37179         3.91507         1.86255
LJ           2.27917        0.537178        0.837318
LJ           2.77338       -0.443622        -2.88838
LJ           0.22108         3.03355          3.2446
LJ          -1.02177        0.313978           1.545
LJ          -2.11399         1.52162         1.67173
LJ           5.47235         -4.3313        -4.60452
LJ          0.885011         5.78056         1.19252
LJ           2.36558          3.3553        -3.33993
LJ          -2.30693       -0.643272         6.07413
LJ           2.43956         1.98189         -2.3334
LJ          -2.90377        -4.69662         3.34688
LJ           -0.1807         3.09339         4.86795
LJ           1.68574         4.90028        -1.22913
LJ           1.77262        -1.26335       -0.414451
LJ           6.39251        -5.44191        -3.64271
LJ           1.10849       0.0677804        -3.49548
LJ         -0.236326        -2.91951          1.6839
LJ        -0.0841725         4.43942         3.00896
LJ          -3.11779        -3.52473        -4.44713
LJ           2.06933         3.11544         3.85359
LJ         -0.702998         5.85013         3.98528
LJ           1.36753         3.72907        -4.09926
LJ           5.38012         2.68134         -2.7717
LJ           1.91061         5.47114         5.82488
LJ           -3.1612         1.40581         4.19748
LJ          0.264689        -2.00008        -3.85176
LJ          -3.47667        -5.26192        -3.57279
LJ           4.98113         3.54155        -5.86572
LJ           5.11993        -4.85231         4.51398
LJ          -6.19679        -4.37735         1.35839
LJ           6.21626        -6.38861        -1.32465
LJ           1.26226         5.92663        -3.92733
LJ          -4.65772        -5.19357        -3.56234
LJ           -4.1449         4.64007        -6.42746
LJ           1.45024         5.55489        -2.01558
LJ           4.91166          3.7834        -4.83922
LJ          -2.79081        -2.36486        -1.75766
LJ          -5.42629       -0.223741         6.13725
LJ           1.37297       -0.641155         1.59268
LJ          -1.61599         6.29764         4.89933
LJ          -3.79712         -3.4966     0.000932124
LJ            5.6436         2.50813        -4.28318
