108
#Comment!
LJ           3.70573       -0.613602         3.08517
LJ           3.88789        -3.51252         1.01578
LJ          -5.41174         3.17553        0.399319
LJ           1.08617        -1.32333         2.88166
LJ           5.08776         5.18469        -1.60721
LJ          -2.51558        -1.82771          3.4799
LJ           4.77646         3.13646         -5.7096
LJ             5.446        -2.75475         3.34968
LJ          -4.52596          4.1612         3.89478
LJ          -5.32335         5.42149        -3.25495
LJ          -4.30516       -0.252371         5.17352
LJ          0.237097        -3.52611        -2.83706
LJ           3.70534        -2.59894       -0.760747
LJ          -3.78674         4.39066        -5.08543
LJ          -2.34426        -2.67681         5.09418
LJ          -3.44176         1.91395        -5.65862
LJ           3.64677         2.81367        -3.08418
LJ           4.37794        -1.58562        -2.43137
LJ           1.61294         4.97933         4.41529
LJ          -5.42227         2.18004       -0.277757
LJ           3.98067        0.874581       -0.474574
LJ          -4.45726        0.112508        -3.29776
LJ          -2.09856        -4.78091         5.02364
LJ          -5.92441         5.05606        -4.21861
LJ           1.18027         2.95393         1.61563
LJ           2.42371        0.967084        -4.60923
LJ           6.05779       -0.456894         -4.0731
LJ           -3.2882        0.115881       -0.565565
LJ          0.564614        -1.31915        -2.46293
LJ           3.25507        0.710812          2.5914
LJ          -3.27954         5.19895        -6.13253
LJ          -1.96031        -2.43431        -4.77088
LJ          -3.40354        -3.69407         2.18074
LJ          0.160494        0.158006        -3.49804
LJ           1.11268         -2.7147         3.56467
LJ          -4.27774         2.04753         5.68153
LJ           1.70681        0.826539        -3.52326
LJ         0.0397483        -5.96502      -0.0123772
LJ          0.785145         3.25435         3.85352
LJ          -4.86558        -4.51929        0.805816
LJ           3.46309        -5.40891        -3.20173
LJ          0.853568        -6.07889       -0.792154
LJ             3.899         4.58168        -3.04544
LJ           4.32406         3.10653        -3.76544
LJ          -3.67448         1.30937         6.21937
LJ         -0.483413        -2.68783        -6.37677
LJ          -5.08764        -1.73397        -2.40667
LJ           3.75764        -5.38787         3.09237
LJ          -2.50403         1.17143       -0.938318
LJ            4.8965       -0.876257         -6.3396
LJ          -5.21779        -1.67778        -6.22236
LJ           4.52651         1.94378        -4.99912
LJ          -2.87734         6.16911        -5.45159
LJ           4.12485        0.172188        -3.44278
LJ            2.9368        -4.44327         1.74656
LJ          -1.30864         3.29143         3.22866
LJ            3.0266         2.18647       -0.538117
LJ           -1.7929        -5.44888        -2.57653
LJ           2.43448         5.08932         3.42616
LJ          -2.73237        -2.16043        -6.13924
LJ          -4.75878         3.23318           5.613
LJ           2.27126        -6.34837         4.54689
LJ          -5.25423        -6.33355         3.55417
LJ           -4.3785         1.35511        -2.21432
LJ           5.18986         4.21808         2.29667
LJ          0.390688         4.43352         4.99084
LJ           4.20142         4.73811         2.45819
LJ          0.238469        -4.67051        -2.62968
LJ           5.68679        -2.12547       -0.908002
LJ          -3.77522        -4.33591        0.133589
LJ         -0.992515         1.99526         2.31574
LJ          -5.77028       -0.586049         5.93466
LJ          -2.77724        -1.43652         4.36744
LJ          -5.10345         3.16506         4.25503
LJ          -4.31453         0.17986      -0.0210336
LJ          -5.42086         3.45452        -6.45788
LJ            6.0297          4.6771        -3.70793
LJ           4.09067         4.58803        -4.25737
LJ          -4.07941         1.86133          1.5792
LJ          -2.93296        -6.28574        -2.29656
LJ          -4.41584        -4.70745         4.04131
LJ          -5.50559        -2.94528        -5.54855
LJ          -5.94092        -4.70537       0.0899504
LJ          0.251968        -5.70277        -1.71649
LJ           3.63373        -4.41975       -0.607315
LJ           4.27903        -3.03151        -5.17521
LJ          0.814496        -5.95887         1.13829
LJ           5.14093         -2.2607        -1.91971
LJ           6.05886         3.36704        -1.65992
LJ          -1.95846        -3.57505        -3.27807
LJ         -0.627626         5.63461         3.96764
LJ          0.421272        -1.11966        0.721657
LJ           2.85767         4.14792         3.90333
LJ          -3.16101        0.479141         0.99903
LJ          0.781496         3.96626         6.38492
LJ          -4.83426        -4.55862         2.61643
LJ           5.40537       -0.198939        0.820242
LJ          -4.57726        -6.02506         1.33821
LJ          0.137367        -1.58106         6.23984
LJ           5.48082        -6.15957        0.248095
LJ          -3.04036        -6.09714        -3.73494
LJ            1.2529         4.92841        -6.17816
LJ          -4.16598        -1.53081         3.78912
LJ          -1.82119         1.02499         1.63817
LJ          -4.52409        0.115674         1.06934
LJ           2.58672        -4.75362       -0.623433
LJ            -3.905        -5.42645        -2.28513
LJ          -2.25212        -6.12091          3.5411
