108
#Comment!
LJ           1.43875         5.70967       -0.162964
LJ          -1.55555         -1.5552         -1.3287
LJ          -2.01706         4.90372         3.54146
LJ           6.05298        -4.44946        -5.84844
LJ         -0.710181        -6.40866        -2.15629
LJ          -5.64465        0.766984         2.90748
LJ           5.23191        -2.58471        -4.33228
LJ           2.07866         2.91639       -0.988775
LJ          -2.90057        0.766725         4.00956
LJ          0.766985         2.05449        0.319795
LJ          0.326564        -4.16453        -4.79177
LJ          -5.21522         1.54324         3.55566
LJ          -3.59609         5.78487         3.19192
LJ          -6.22202       -0.692399        -5.94915
LJ          -3.88547         -5.5991         2.94067
LJ           5.09125        0.683086          6.2658
LJ          0.987409       -0.716075        0.325082
LJ           3.05857          2.0503         0.94157
LJ           4.29711         3.01709        -1.66797
LJ           6.21257        -2.98778        -5.05852
LJ          -3.11912         6.06621         6.34121
LJ           1.19206        -2.29186        -2.30064
LJ           -3.8981        -2.25314        -1.53077
LJ          -5.89323       -0.510458         -3.6627
LJ         -0.702813         1.39858         2.10108
LJ           6.32905         3.14227         3.95044
LJ            2.7985        0.851953       -0.345821
LJ          -2.24267        -3.33291          6.4205
LJ          -2.02054        -2.84705        -4.33772
LJ            5.6466         4.72257        -2.63612
LJ         -0.194842        -1.72278        0.813416
LJ          -3.85415         2.75742         2.82497
LJ           1.57987         6.09515         4.59698
LJ          -4.41517        -6.35566        -6.23806
LJ           3.99412          4.0034         4.45802
LJ           2.98839        -1.46109         4.94876
LJ          -1.98307       -0.173365        -4.37485
LJ          -3.94175        -3.12177         2.06554
LJ          -4.53437         6.41898        -3.24414
LJ           2.31701         2.75514         2.65283
LJ          -5.57791          4.9561        -3.70889
LJ           3.39911        -3.99799        -5.90732
LJ          -2.97518       -0.226746        -4.27846
LJ           1.87367          2.6111        0.781167
LJ           4.90781         2.21085        -2.35587
LJ          0.836633        -6.12964         5.63778
LJ           4.79821        0.309262       -0.182838
LJ         -0.205523        -5.56131        -3.18253
LJ           1.95218         3.33583        -4.04888
LJ         -0.947624         -4.7188           3.511
LJ           1.38739         6.23554        -5.79067
LJ          0.519645        -4.94174         6.13799
LJ           4.69553        -5.22482        0.132088
LJ           -4.0122        -1.03054        -4.61616
LJ          -1.05587        -3.89047        -3.45892
LJ          -2.86629         3.01448         3.31245
LJ          -1.35461         1.40121        -1.41232
LJ          -1.88701         3.62878         4.81027
LJ          -4.41537          1.2613         4.96849
LJ          -3.81414         6.45621         -5.4072
LJ          -4.97883        -6.03257         3.33257
LJ           5.25883        -6.14535        -4.49066
LJ            3.1683         4.14808        -3.88617
LJ          -2.65035        -1.52818         4.70218
LJ          -3.34468        -2.47664         4.50385
LJ          -1.99568       -0.678472        -2.16816
LJ           1.34679        -1.45681         2.33486
LJ          -5.46339        0.276098       -0.705254
LJ         -0.715988        0.332625         1.61048
LJ          -3.20863        -3.53094         1.51545
LJ          -2.31279         3.98499         3.20739
LJ           5.06524         4.85467        -3.95578
LJ         -0.425079         3.76579         3.06145
LJ           2.25675          5.3799        -3.09771
LJ           1.87408        -2.54974         2.66519
LJ           1.68578         4.36286        -3.41196
LJ          -3.54456        -5.36921        -4.57953
LJ          -1.20553         4.48917         1.23896
LJ          0.667232         5.02737         1.83274
LJ          0.829222         2.38571        -1.31965
LJ           4.24596        -3.86071        -2.33533
LJ          -1.93461        -2.59998         -2.4507
LJ          -2.75585        -4.93918        0.611469
LJ        -0.0284935         1.47815        0.970286
LJ          -3.22563        -2.62891        -3.45174
LJ           -1.4304          3.8225        -4.93323
LJ          -2.38896         3.42164         6.23945
LJ           1.11786         3.63159        -5.83895
LJ           6.21426      -0.0758812        -3.26249
LJ           3.44392          4.1928         -5.4866
LJ          -5.64369         1.56314          4.4945
LJ         -0.283022        -2.27476         -2.0077
LJ          -4.55042        0.846836        -2.32401
LJ           6.08274         2.33438        -5.27356
LJ         -0.818698          5.2626         5.08966
LJ           4.84332        -2.72663         1.81349
LJ           5.94954        -5.25456        -3.52489
LJ          -1.24353        -6.21774        -3.12101
LJ          -4.89961        -4.92589        -2.55323
LJ          -3.49673        -4.65512        -2.65397
LJ          -2.08961        -5.76499        -2.68812
LJ            4.6242          3.0882        -6.11571
LJ           -3.7464         4.88341        -3.97099
LJ           5.55704         1.07242         5.43273
LJ          -5.84849        -3.68483         1.12388
LJ          -0.75409        -5.72586         1.87477
LJ          -1.84453        -3.32753        -1.84739
LJ           4.10711         5.41007        -4.60224
