108
#Comment!
LJ           5.13811        -3.76811         5.24386
LJ          -5.93696        -6.42081        -4.48435
LJ          -1.38111        0.673902         1.81178
LJ           2.63747        -1.09135         3.54013
LJ           3.30481        -2.15777         1.49473
LJ          -1.49279        0.137521         3.05195
LJ          -4.17465        -5.32588        -3.85759
LJ           5.20146         5.33676        -6.26243
LJ          -2.35985         3.25009         3.89129
LJ           1.43214        -6.14773        -5.92061
LJ           -5.4388         2.02229        -5.28752
LJ          -1.68686        -3.23664         -5.3695
LJ           2.36166         4.87444        -4.33336
LJ          -1.64783        -3.33907         1.19913
LJ          0.602759        0.881025         1.43455
LJ            6.3464         3.58962         3.97841
LJ          0.451902         2.94607        -1.99305
LJ          -2.40361        -3.10398        -6.26603
LJ          -1.26376         1.41603         3.41923
LJ           3.10356         2.22046         2.40558
LJ            2.4307         4.40122       0.0844371
LJ          0.403415         2.04417          -5.721
LJ           6.44159        -4.49319        -6.14609
LJ           1.41208        -3.32658         2.16236
LJ           -2.0867         5.76568         5.09077
LJ           2.05221         3.40269         0.34458
LJ          -6.05119        -1.32592         5.50889
LJ          -1.90331         6.03597       -0.859943
LJ          -3.17582         5.50695        -1.18476
LJ          -0.25461        -5.70139        -2.08855
LJ           1.33861         2.49001        0.535436
LJ          -5.43787         6.25496         2.70118
LJ          -2.22534        -6.05451        0.374732
LJ          -3.56491        -4.72469         -5.5597
LJ          0.753971         5.22547        -3.30345
LJ           2.67677         5.82313         2.44243
LJ           2.94243         6.28443         -5.1539
LJ         -0.481893         -2.6352         1.60109
LJ          -3.49885        -3.86205        -6.27344
LJ           -4.9237        -1.43792         4.12263
LJ          0.275757        -1.45812       -0.986285
LJ           3.04922        -3.75902        0.849345
LJ          -6.35297           4.629        -4.74218
LJ         -0.581186         5.97842         1.00871
LJ          -1.77449         2.32643        -6.21085
LJ          0.945505      -0.0638994        0.668389
LJ           3.34315        -2.91167         2.29562
LJ            -2.083        -6.15854         4.66163
LJ           1.11849        -5.01527        -5.36595
LJ           1.85705         5.02792        -2.75068
LJ          -2.31209         -4.2576        -3.88096
LJ           4.95217        -1.71106        0.679264
LJ          -3.04643        -2.09562          2.6334
LJ         -0.866042         4.84354        0.749913
LJ           5.64342        -4.32183        -5.37675
LJ           0.89402        -2.95968         5.66087
LJ           6.33525        -2.54349        -2.65487
LJ         -0.587685        -3.45239        -4.32205
LJ          -4.77663         5.63099         -4.0024
LJ          -3.90574        -1.30754        -4.72961
LJ          -4.36318      -0.0211139        0.966011
LJ           1.29524         0.46251        -4.42817
LJ          -5.23485        -5.20472        -6.03711
LJ          -1.26706        -0.96672        -6.13036
LJ           6.01672      0.00963157        -4.69939
LJ          -3.71836         5.22671        -3.22447
LJ          0.358908         4.84649      -0.0932257
LJ           3.40973         6.13551        -6.14883
LJ           5.76679       -0.283648         -5.6296
LJ           1.74724         1.50168        -4.90119
LJ         -0.182941        -1.03175         4.59029
LJ         -0.508088        0.461944          2.9879
LJ          -4.25548        -5.33161        -5.20418
LJ           3.46584         2.49273       -0.250424
LJ          0.416875        0.258615        -5.89903
LJ           5.54952         4.20264         3.74706
LJ           -3.1609        -4.58258        -1.34152
LJ          -4.98423          4.9489        -5.83498
LJ           3.00043         3.08332        -3.27601
LJ         -0.585013        -3.86494        -3.31594
LJ          0.582718        -4.04919         -4.1312
LJ         -0.929503         1.65742         5.52674
LJ           1.56322        -4.43887         2.29651
LJ          -4.44822        -1.73346         2.73089
LJ           4.68237         1.21925        -1.51323
LJ         -0.530367        0.501348         6.36235
LJ           4.07302        -4.37086         5.92059
LJ           -5.8689        -5.74546        -3.33509
LJ          -6.42075         1.55131        -5.94199
LJ           3.56894        -6.15242        -2.95752
LJ          0.871285        -3.90884         1.42302
LJ           1.93555        -2.65876         0.28436
LJ           5.24368        -4.71367         5.80905
LJ           1.79175        0.812518        -5.92372
LJ          -3.34548        0.240409        -2.96528
LJ          -3.73718        -3.93724         4.53073
LJ          -3.74434         6.01995        -1.95021
LJ          -4.57736        -3.41722         3.54424
LJ          -5.26917        -3.54969        -4.90928
LJ           3.83109         1.60389         1.87603
LJ          -5.17219        -1.09735        0.782055
LJ          -2.22023        0.895541         6.31044
LJ         -0.608681       -0.782606        -1.42605
LJ          -1.58139         2.03382         2.54033
LJ           5.69603       -0.063987         5.93324
LJ          0.625564         5.31045         1.61197
LJ          -4.55223         1.94466         2.48506
LJ           4.61424        -3.75503        -5.37223
