108
#Comment!
LJ           5.39433        -3.13904         4.89826
LJ           5.33876        -5.81447        -4.53414
LJ          -1.44028        -0.53565         1.90021
LJ          0.973447       0.0640603         3.35256
LJ           3.28666         1.66032         4.47897
LJ         -0.941593        0.381159         2.46853
LJ          -2.02542        -6.39882        -4.27508
LJ           4.57661         5.77271         -3.8241
LJ          -1.46353         3.38712         4.91159
LJ           1.50915        -5.51584         6.15543
LJ          -5.41584         2.20718         -5.3663
LJ          0.223637        -3.02512        -5.69617
LJ           2.25152         4.45021        -4.60778
LJ         -0.605658        -4.98082         2.03407
LJ          -1.59524        0.947376        0.797742
LJ             -5.93         4.00053         4.74281
LJ          -0.94724         3.86608        -4.51936
LJ          -1.03136        -3.54946        -5.86955
LJ         -0.557671        -1.03089         4.10286
LJ           4.65868         3.17557         4.77535
LJ           3.64444         5.63797         1.49006
LJ         -0.987026         3.11765         -5.2728
LJ           4.28422        -4.33949        -5.61509
LJ           0.79598        -4.92435         5.23258
LJ         -0.854281         5.47588         5.40032
LJ          0.562345         2.75914         -1.7105
LJ          -5.49012        -3.37672         6.07565
LJ            -1.665         4.88942       -0.734017
LJ          -5.21721        -6.33071        -1.72547
LJ          -2.56549        -3.69485        -1.34345
LJ         -0.918767         2.80514        -1.39214
LJ          -4.96612         5.81077         3.85638
LJ          -2.66898        -5.87396        0.379851
LJ          -4.19555        -4.91233        -6.19193
LJ           1.54136         3.52953        -1.96649
LJ           3.40368         5.44764         2.86985
LJ           2.60204         5.40506         -5.0014
LJ           1.57704        -5.12133         0.57162
LJ          -1.68742         -1.8298         5.39113
LJ            -5.755        -2.01586         4.20769
LJ          0.795598        -3.40573     -0.00719597
LJ           1.55254        -4.87575         1.90885
LJ           6.45013         3.79743        -5.01527
LJ         -0.083923         6.23343         2.79217
LJ           -2.3928         2.30843         6.36665
LJ          -2.38444        0.440686         1.80959
LJ           2.76401        -5.36779        0.260394
LJ          -4.19799         6.03517         5.80655
LJ          0.753504        -2.08014        -4.67031
LJ           3.78243          4.7782        -2.43443
LJ          -4.69436        -3.08377        -6.38185
LJ           4.28965       -0.464083         2.32042
LJ          -3.11868        -1.82702         4.09419
LJ          -2.82182         3.61514       -0.175243
LJ           4.62765        -5.87843        -5.83686
LJ           -2.7555        -1.09757         2.19497
LJ           5.02708       -0.277007        -3.97855
LJ          -1.14598        -4.16937        -3.68939
LJ          -3.13177         4.23398        -6.29227
LJ          -3.35024         1.73664        -5.10157
LJ          -4.99478        0.268073         3.19703
LJ          0.501285         2.44928        -6.01564
LJ          -3.04812        -6.38597        -6.01757
LJ          -1.95256       -0.698144        -4.99412
LJ            6.2634         -2.9499        -5.01199
LJ           -3.0478         5.46267          6.3885
LJ           3.72753         4.47255         1.89592
LJ           1.66412         4.30745         5.30145
LJ            5.4193        -2.12951        -6.15685
LJ           2.96954       -0.496984        -6.22813
LJ          0.366771       -0.614946         4.00846
LJ         -0.146343         1.46576         2.69421
LJ          -4.37004         6.09969        -4.83103
LJ           6.43629         2.12666        -2.86387
LJ           3.57318        0.666696         5.50077
LJ           5.81914          3.9238         4.82276
LJ          -4.33844        -5.73831         -2.1818
LJ          -5.36573         4.77194        -4.62579
LJ           4.35338         2.78255        -1.96885
LJ           -1.4469        -4.89252        -2.85028
LJ          -1.41221        -1.79029        -5.34949
LJ           1.03541        0.329485        -6.37158
LJ         0.0463509        -4.08746         2.27688
LJ          -2.90336        -5.26184         2.42395
LJ           4.61626        0.946689        -2.34798
LJ          0.734752        -1.17471        -5.92259
LJ           3.22274        -4.28194         4.64532
LJ           5.10771        -6.08471        -3.27821
LJ           4.91841         3.53733        -4.56664
LJ           4.19084        -5.97905        -4.67958
LJ             1.566        -3.58017        0.968438
LJ          0.788991        -1.16695         1.13978
LJ           5.46412        -4.14375         5.37297
LJ           4.02531       -0.583714         5.08125
LJ           -1.8971      0.00481865        -4.23337
LJ          -4.61707        -1.73394         4.24924
LJ          -5.03251        -4.78046       -0.878285
LJ          -3.93209        -2.28667         3.59767
LJ          -4.55583        -4.11781        -5.20917
LJ           4.55408         2.09228         4.09469
LJ          -2.96813        0.744043        0.703839
LJ         0.0458059         2.07193        -4.60221
LJ         -0.390012       -0.242807        0.979836
LJ          -1.52012         2.36286         1.70561
LJ           6.13883        -0.14767         4.93041
LJ           0.27738         6.04814        0.913315
LJ          -4.50198         3.43877         1.36555
LJ            6.3399         -3.4466         -3.8079
