108
#Comment!
LJ           5.41339        -3.12448         4.89456
LJ           5.36259        -5.84144        -4.43001
LJ          -1.51974       -0.532466         1.87777
LJ          0.917038        0.254258         3.24523
LJ           3.34445         1.95893          4.7035
LJ         -0.801856        0.414525         2.37254
LJ           -1.8274         6.43239        -4.29522
LJ           4.52368         5.63404        -3.88212
LJ          -1.39548         3.39685          4.9972
LJ           1.51155        -5.46038         6.07947
LJ          -5.36106          2.1086        -5.40051
LJ          0.292454        -2.96816        -5.66085
LJ            2.2442         4.41471        -4.50957
LJ         -0.566217        -5.20719         2.24317
LJ          -1.77473        0.829075        0.722087
LJ          -5.84553         4.04704         4.79401
LJ          -1.04194         3.98465        -4.68479
LJ         -0.857023        -3.53162        -5.82314
LJ         -0.562412        -1.20161         4.14658
LJ           4.81297         3.28128         4.96958
LJ           3.71093         5.63807         1.50076
LJ          -1.13124         3.11579        -5.26481
LJ           4.04471        -4.36418        -5.67744
LJ          0.816784        -5.07682         5.50917
LJ         -0.775213         5.46089         5.42214
LJ          0.453645         2.72448        -1.89489
LJ          -5.77868        -3.40835          5.9316
LJ          -1.66047         4.78431       -0.704331
LJ          -5.36016        -6.16394        -1.77594
LJ           -2.7505        -3.54673        -1.24199
LJ          -1.05492         2.83039        -1.54484
LJ          -4.92961         5.77425         3.94959
LJ          -2.70034          -5.864        0.375749
LJ          -4.08165        -5.09894        -6.08889
LJ           1.55461         3.35618        -1.84484
LJ           3.44474         5.39246         2.97793
LJ           2.58026         5.33884         -5.0737
LJ           1.78184        -5.20746        0.514808
LJ          -1.53139        -1.68268         5.30871
LJ          -5.79605        -2.06637         4.24831
LJ          0.869977        -3.45356        -0.11365
LJ           1.43673        -4.93274         1.86255
LJ           6.37542         3.87566        -5.00666
LJ        -0.0220058          6.2673          2.8972
LJ          -2.42852         2.29568         6.34989
LJ          -2.41132        0.411393         2.10183
LJ           2.64584        -5.56414        0.130235
LJ          -4.47668         6.08709         5.78367
LJ            0.6842        -1.87736        -4.68538
LJ           3.80546         4.65647        -2.18663
LJ          -4.78098        -2.99911         6.41968
LJ           4.23618       -0.367418         2.44974
LJ          -3.06609        -1.89467         4.28061
LJ           -2.9644         3.52399       -0.265607
LJ            4.6317        -5.90076        -6.04377
LJ          -3.05769        -1.01366         1.87288
LJ           4.99438       -0.268902        -4.21583
LJ          -1.16513        -4.19267        -3.66211
LJ          -2.98837         4.24326         6.44523
LJ          -3.29506         1.97136        -5.12695
LJ           -5.1378         0.56581         3.15167
LJ          0.446426         2.54131        -6.11214
LJ          -2.89469         6.37359        -6.01141
LJ          -1.99257       -0.773057        -4.96508
LJ            6.2704        -3.10898        -5.13599
LJ          -2.92248         5.37239         6.32393
LJ           4.01264         4.59774         2.08182
LJ           1.54516         4.20445         5.07388
LJ           5.41451        -2.28839         -6.1534
LJ           3.05795       -0.648365        -6.36129
LJ          0.368539        -0.60999         3.98221
LJ         -0.180656         1.48656         2.69821
LJ          -4.34911         5.91863        -4.86845
LJ          -6.27793         2.09248        -3.07345
LJ           3.82697        0.644577         5.34468
LJ           5.77808         3.86985         4.90949
LJ          -4.47418        -5.85462        -2.20572
LJ          -5.39249         4.72776        -4.52948
LJ           4.46832         2.75432        -1.86823
LJ          -1.46606        -4.99206        -2.80477
LJ          -1.59141        -1.62637        -5.48227
LJ           1.18491        0.197577        -6.26698
LJ         -0.133245        -4.06198          2.2373
LJ          -2.78949        -5.54178         2.40093
LJ           4.54758         1.10825        -2.27877
LJ          0.829717        -1.24265        -5.78928
LJ           3.17914        -4.27313         4.54959
LJ           5.09372        -5.88707        -3.24502
LJ           4.84875         3.70673        -4.46029
LJ           4.01436        -5.97712        -4.64523
LJ           1.65616        -3.65117         1.06855
LJ          0.672963        -1.05799         1.20311
LJ           5.46596        -4.06535         5.33952
LJ           4.15467       -0.619953         4.98026
LJ          -1.77653       0.0454097        -4.29566
LJ          -4.63225        -1.82401         4.33429
LJ          -5.08976        -4.67171       -0.830992
LJ           -3.8894        -2.10546         3.59017
LJ          -4.48147         -4.0714        -5.29099
LJ           4.56857         2.09533         4.26612
LJ          -2.90113        0.908848        0.592579
LJ           0.25185         2.25421        -4.51476
LJ         -0.398025       -0.195652         1.22832
LJ          -1.53659         2.40459          1.6864
LJ           6.17012       -0.158533         4.84193
LJ          0.235922         6.11255         0.88938
LJ           -4.4959         3.55327         1.27875
LJ          -6.45343        -3.45854        -3.60025
