108
#Comment!
LJ           1.13457         1.74337         1.79716
LJ           5.03886        0.430475          4.6012
LJ           5.51609         2.17149          1.1683
LJ            2.0288         5.55324         2.63713
LJ            4.0511         1.96916         2.15735
LJ          0.728615        -2.34191          1.5878
LJ          -5.85757         2.37634        -3.08546
LJ          -4.32928         1.31126       -0.696454
LJ            5.0925         4.71831          1.8863
LJ          -3.69065         4.27205        -3.75663
LJ          -3.55021        -2.32506         -5.5686
LJ          -1.36747         2.68696        -3.50766
LJ           2.99099         2.05876         1.51052
LJ          -2.94319        -5.77386        -1.13533
LJ         -0.811635        -6.40402         -4.8402
LJ           -3.1636         -1.9308         6.35314
LJ           3.59414         1.70073        -1.12137
LJ            5.3949       -0.386757          1.4679
LJ           5.42376         1.11475        -5.86695
LJ          -4.01677         1.00733         4.16942
LJ           4.91809         6.33371        -3.62013
LJ           3.73503       -0.714733        -1.16982
LJ          -5.71701        -2.10188         4.71372
LJ          -3.18788         3.34504        -3.03691
LJ           4.23859         1.20067        -2.41634
LJ           2.18648       -0.188483        -6.20741
LJ            -5.925        0.352923       -0.831688
LJ          -3.80574         0.52529        -3.65559
LJ         -0.290568         0.47862        -4.67989
LJ           1.26652        -0.43825         4.19492
LJ          -4.33817         2.86015         3.59344
LJ          -2.12305         2.66301        -1.91018
LJ          -5.22339        -2.60997         6.08775
LJ           2.57848        -3.28597        -2.76237
LJ           1.58881        -3.25839        -6.01167
LJ          -4.86418         1.18435         5.31833
LJ           1.08347        -3.94703        -2.63053
LJ          -1.38744        -6.04811        -3.36275
LJ         -0.695831         3.49115         3.25526
LJ          -4.51322        -4.40062        -1.94486
LJ           4.16827        -5.33112        -5.76894
LJ         -0.296621         -5.6902        -2.33753
LJ          -0.71357         4.06465        -4.68408
LJ           -4.9974         3.32734        -4.36498
LJ          -4.42139        -2.10031         6.39553
LJ           1.21934        -2.29136         5.08625
LJ          -5.68244        -5.75901       -0.320705
LJ            4.2967        -5.13917          1.8584
LJ          -4.63498        0.738215           3.254
LJ           5.42858         -4.0084       -0.802079
LJ            -2.395        -3.15534         -5.3452
LJ          -4.79504         2.08622        -3.65305
LJ          -2.62072        -5.62727        -3.05793
LJ            3.0909        -4.49284        -1.44919
LJ          0.708091        -4.61682         3.16995
LJ           6.07752        -6.21134        -4.00216
LJ           3.97348         6.07712        -3.13015
LJ          -3.67393        -3.74765        -5.17564
LJ           3.36238         4.30585         2.96287
LJ           -1.8608         1.19646        -3.69467
LJ          -3.69282         3.52535         5.77868
LJ           2.93143        -2.46234         3.61121
LJ            4.2569         2.68111         3.18297
LJ          -5.17355         3.74815        -1.22771
LJ           4.17331         2.19649        0.989959
LJ           2.17615         5.06899          3.9904
LJ           2.17544         2.07364       -0.529787
LJ          -4.25064        -5.01002        -5.03243
LJ           4.71027       -0.202928         3.60737
LJ          -3.15141         6.14266        -3.50762
LJ          -3.41157         2.64407         1.97373
LJ           4.13438       -0.778531         5.66223
LJ          -3.75226        -1.33954         4.51691
LJ           5.84198         5.43622         6.24055
LJ          -1.96448          1.4888        -2.20149
LJ          -5.76132         1.72619         3.39901
LJ            4.4427         4.29618        -1.61785
LJ          0.331669         3.87549        -5.54033
LJ           -2.3459         1.11992       -0.403133
LJ          -3.48594        -4.70503        -2.03364
LJ          -4.61579         4.52754         1.61096
LJ          -3.52702        -6.23289         5.13207
LJ          -4.38367        -4.00365        -0.87109
LJ           2.29635        -5.92156        -2.91517
LJ           5.97939         1.62869        0.182555
LJ           4.40907        -4.14398        -5.88828
LJ           2.72709         6.12677         3.71103
LJ           5.71911       -0.477706         2.72763
LJ           6.10056         3.91991        -1.94723
LJ         -0.689441        -1.31996        -5.69005
LJ          -1.49525         0.52797         2.81349
LJ          -1.06648        -2.56639        0.134653
LJ           2.66817         4.62635         2.18491
LJ          -1.97783         2.09128       0.0427066
LJ           2.22073         5.45943         5.02983
LJ          -4.61789         6.31365         1.13509
LJ           3.23928         2.72374         2.80051
LJ           -5.2778       -0.753428       -0.483244
LJ           2.73725        -2.17421        -4.36411
LJ          -5.52572        -5.37374         3.74216
LJ          -2.89065          5.9665        -4.79822
LJ           2.21375        -4.45994           4.032
LJ           6.04393        -2.96129         1.98658
LJ           0.65974        0.202446         2.79756
LJ          -4.49803         2.43277         1.13924
LJ          -6.16315        -5.64983        -2.33819
LJ          -3.85424        -1.88628        -3.80541
LJ          -1.02701         3.29793        -5.97242
