108
#Comment!
LJ           -4.7749         1.81162        -6.23362
LJ        -0.0231288         3.33175        -2.48821
LJ          -4.70771          2.1921         3.07976
LJ          -1.65756         1.84704         1.01187
LJ          -6.05867         1.33149       -0.700366
LJ          -6.04987         1.47204          2.6105
LJ           1.75074         5.20333         -5.5521
LJ           4.86773         2.01894        -4.13845
LJ           4.55601        -4.86468         1.79181
LJ          -4.21306         3.69642         3.38013
LJ           5.75738         1.67903        -2.88723
LJ           1.80669       -0.109375        -4.31314
LJ          -1.87019         1.06652         6.38686
LJ           3.29167         1.68082         5.13524
LJ          0.860247         4.56894        -6.36033
LJ          -4.80171         4.73957        0.233627
LJ          -2.82228         0.74528        -2.93685
LJ          -3.29314        -6.08286        -1.65314
LJ          -3.13496        0.811307         3.28239
LJ          -3.09771         4.97149        -1.49534
LJ          0.429785         5.62325         -5.2462
LJ         -0.942622         3.53854         3.92415
LJ           3.27818        -4.15616         1.84234
LJ          -3.40418        -4.81239        -4.34586
LJ          -5.99558        -2.22908         2.20445
LJ           -1.5551         1.95054        -5.15921
LJ           3.23092        -5.77742        -3.86643
LJ          -2.46104         5.33436         3.88575
LJ           6.01993         5.98566       -0.592584
LJ          -1.71167        -1.82543        0.149879
LJ           3.50228        -3.78725        -2.25533
LJ           1.91541        0.906082       -0.320003
LJ          -3.92259        -1.40705        -3.31659
LJ           1.27384        -6.33195         -5.0272
LJ           6.27798       -0.803152          0.2754
LJ          -2.10936         4.68092        -0.22593
LJ          -2.21791         3.48832         4.87876
LJ           2.78124        -5.79415        -4.79609
LJ           2.15785         5.07564          3.1446
LJ          -1.20238         6.20136         6.34035
LJ           4.07419      -0.0927923         2.72539
LJ           0.45573         -5.9755          3.7483
LJ           4.55387        -0.37156        -2.68716
LJ           4.31371         -2.3732        -2.06532
LJ          -2.37121         -4.8788        -0.84912
LJ            5.2942       -0.780837       0.0050131
LJ           6.06974         2.95667         1.74395
LJ          -5.15518        -5.83414        -1.84868
LJ           3.66585        0.458376         1.73115
LJ            5.4005         3.21718        -2.24584
LJ           1.47287           1.007         -3.8773
LJ          -4.08685        -2.14228         4.32306
LJ          -2.85503         1.12735        0.318006
LJ          -5.03248         3.65257        0.265749
LJ         -0.568826        -5.33145        -0.93821
LJ           4.20548       -0.933912         1.82983
LJ           1.26695       0.0316435         1.23044
LJ           5.83722        -5.41117         3.44505
LJ          -5.61003         5.51846        0.642714
LJ           2.35912         4.50906         6.45484
LJ          0.868963        -3.69681        -4.51079
LJ          -2.37602        -2.16345        -4.42776
LJ          -2.69811         2.51448        0.335358
LJ          -1.02007        -4.39522        -2.99373
LJ          -1.32071         4.64688         2.09082
LJ           5.63644         -2.3956        -4.17985
LJ          -5.77655         1.25051         5.12485
LJ           2.22707        -3.20884        -3.37337
LJ          -1.49006        -2.09795         3.49239
LJ         -0.769755      -0.0917696        0.813818
LJ           4.64783         6.24673        -4.86243
LJ          -5.98002          1.3869        -3.14172
LJ           1.40571         5.46833        -3.15352
LJ         -0.331896         3.02991         5.11689
LJ          -4.62297         5.65308        -1.39299
LJ            6.1105        -1.52136        -3.35198
LJ          0.158431        -4.56718        -2.46766
LJ           4.76881         6.08343        -2.86086
LJ          0.604262         3.87859         -5.4152
LJ          -3.95544        -2.34583       -0.509657
LJ           1.70726        -3.19659        -4.75072
LJ          -1.32276        -1.47402        -5.57439
LJ           4.84718        -2.64275        -3.12899
LJ          0.189752        -2.42378          3.5399
LJ          -1.31949        -5.30386        0.335525
LJ          -1.56044       -0.890699         2.22332
LJ           6.21669      -0.0368729        -4.62245
LJ            1.9147        0.217118         6.30847
LJ           -5.8463        -2.81042        -4.97902
LJ           5.43556         -4.4938        0.788019
LJ          -1.02563        -1.99643         1.53711
LJ         -0.543368        0.649306         3.43238
LJ          -3.44871        -5.00776         6.46243
LJ              2.23        -6.44366        -4.00458
LJ          -2.25635        -1.15664        0.738635
LJ          -2.85091         3.97029        -1.87294
LJ         -0.455159       -0.414592        -1.08521
LJ           2.71383         5.55161         6.03811
LJ          -3.24909        -4.89419        -1.50738
LJ           5.60423         2.84871        -3.66949
LJ          -0.40374         1.39609         4.13114
LJ          -2.07573         5.66151         2.67041
LJ         -0.297248        -5.00318         -4.2567
LJ       -0.00590937         6.07343        -6.15563
LJ           -2.5193         1.29324         -5.4492
LJ           1.83475        -3.13956         3.42105
LJ            1.6638         3.99883        -5.98555
LJ          0.178893       -0.940372         6.24049
