108
#Comment!
LJ          0.438162         2.60175         1.53778
LJ           5.05467         1.41882         5.96696
LJ           4.64412         1.51573         2.25542
LJ           1.34931         3.33034         2.88028
LJ           2.65866        0.632592         2.37659
LJ           1.98868        -2.26252        0.967363
LJ          -4.27592         2.86788        -3.16266
LJ          -3.14726         2.76655        -1.69504
LJ           4.31046         4.80384          1.4099
LJ          -2.72836         4.35409        -2.94703
LJ          -3.32499        -2.38042        -5.38081
LJ          -2.18647         3.86155        -4.17749
LJ           2.70067          3.1849         2.92047
LJ          -1.53418        -5.21242         -2.2561
LJ         -0.712009         5.47907        -3.55921
LJ          -3.55369        -3.75492         5.86616
LJ           2.80591        0.169386        -1.28932
LJ           5.25707      -0.0480133          2.5474
LJ          -6.33778       -0.109329        -5.02909
LJ          -3.96458        0.500619         5.33532
LJ           5.54462        -6.05916        -5.09187
LJ           1.30512       -0.189227        -1.20501
LJ           5.99367        -2.22268         5.13143
LJ          -1.92304         2.56058        -3.29823
LJ           5.37633         1.15371         -3.1546
LJ           1.86774       -0.442557         5.98765
LJ           -6.2688         1.44476      -0.0775966
LJ          -4.95174         1.20408        -4.03869
LJ          0.393145         1.22426        -5.82868
LJ          0.732954       -0.844884         4.17378
LJ           -4.7294         2.28325         2.32284
LJ          -2.25949         3.79754        -1.60492
LJ           5.97006        -2.05568        -6.19024
LJ           2.53566        -4.49043        -2.09799
LJ           1.53446        -3.21149        -5.08169
LJ          -5.15001       0.0141824         5.35611
LJ           1.54376        -5.70337        -1.89379
LJ          -1.84616        -6.25896        -4.35314
LJ          -1.10202         3.42069         2.99017
LJ          -4.89807        -4.57437        -2.31078
LJ           4.30806        -5.94484        -6.45123
LJ         -0.159686        -5.37181        -2.57531
LJ          -2.46816         3.27526         -5.9395
LJ          -4.25713         2.60904         -4.2506
LJ          -3.96441         -2.1712         6.22438
LJ           2.10307        -2.26574         4.68469
LJ           5.44522        -6.21081        0.395295
LJ           4.44873        -5.04347          1.4396
LJ          -5.55252         1.66381         4.36555
LJ           5.55734        -5.17451         1.03069
LJ          -1.87178        -4.27582        -5.54594
LJ          -4.09418          1.7907        -2.56223
LJ          -3.41575          -5.387        -2.52346
LJ           3.45125        -4.09188         0.18156
LJ          0.790849        -4.55372         3.83525
LJ           6.16162        -5.16514         6.45893
LJ            2.5525        -5.82537        -2.23514
LJ          -3.55509          -3.852        -5.43933
LJ           3.18586         4.12621         2.70796
LJ         -0.911379         2.53569        -3.50517
LJ          -3.31071         3.96276          5.5231
LJ           3.00838        -1.25943         3.27252
LJ           3.73464         1.44939         2.69762
LJ          -5.23851         5.09405        -0.79867
LJ           3.72589         2.95333         2.63519
LJ           3.03525         4.81997         4.14139
LJ           1.48407         1.79467        -2.09012
LJ          -4.72243        -4.02688        -6.24207
LJ           4.64354        0.282212         5.68708
LJ          -2.84848         6.10529        -4.60816
LJ          -3.54889         2.70713         2.40625
LJ           3.23511       -0.683652         5.43224
LJ          -4.05351        -1.20742         4.70996
LJ           5.19605         6.11764        -6.02386
LJ          -1.43862         3.37593        -2.32148
LJ          -4.92913         1.12641         2.70006
LJ           4.83326         5.10461        -1.65469
LJ          -1.53202         3.66181        -6.31024
LJ          -2.18145         1.14179        -1.57121
LJ          -2.67627        -5.03605        -1.47427
LJ          -4.60834         4.21069        0.759252
LJ          -2.89026         5.60185         4.43118
LJ          -3.39605        -3.51736        -1.14882
LJ           1.36688         5.91945        -3.80345
LJ          -5.04753         2.15014       -0.288689
LJ           4.58106        -3.88911        -6.20036
LJ           3.70969        -6.35021         3.75748
LJ           5.93582           0.423         3.70095
LJ           5.98772         4.08491        -2.39505
LJ          0.868679       -0.329205         6.20832
LJ           -1.7018        -1.09877         3.55748
LJ          -1.51868        -3.04549       0.0455997
LJ           2.83094         4.68862         1.62632
LJ          -2.72448         1.89026       -0.571178
LJ           2.59239         5.86529         4.45638
LJ          -5.28048         5.67275         2.31285
LJ           2.33797         3.50332         4.02003
LJ          -4.29372        -1.22507      -0.0550169
LJ           3.53683        -2.36036        -4.45672
LJ          -4.85847        -5.11833         4.87485
LJ          -2.96332         5.38005        -6.06224
LJ           2.36658        -3.36381         2.99796
LJ           5.13745        -3.38711         1.36944
LJ           1.88395       -0.101856          3.3749
LJ          -4.59693         2.49821        0.899397
LJ          -4.71704        -5.92175        -2.96162
LJ          -3.75288         -1.3276        -3.03675
LJ         -0.531106         2.69007        -4.58402
