108
#Comment!
LJ          -4.61486         2.15873          -6.281
LJ         -0.142986         3.48571        -2.31184
LJ          -4.64998         2.19274         3.05727
LJ          -1.60176         1.71667         1.00769
LJ          -5.96453         1.20507       -0.673112
LJ          -5.96883         1.42607         2.83064
LJ           1.80129         5.34988        -5.63235
LJ           5.01634         1.90229        -3.92053
LJ           4.62457        -4.99364         1.80712
LJ           -4.3421         3.72124         3.48674
LJ           5.80939         1.47638        -2.73116
LJ           1.95813       -0.283764        -4.30922
LJ          -1.95211        0.957217         6.31921
LJ           3.14582         1.61147         5.05468
LJ          0.803569         4.83719        -6.37984
LJ          -4.84524         4.80532        0.354951
LJ          -3.00037        0.800262        -2.96697
LJ          -3.27762        -6.15085        -1.61126
LJ          -3.01142        0.930768         3.18203
LJ          -3.06191         4.98168        -1.48093
LJ          0.287099         5.43205        -5.23046
LJ          -1.00445         3.59775         4.03738
LJ            3.3467        -4.14118           1.716
LJ          -3.34226        -4.78495        -4.60818
LJ          -6.03577        -2.34017         2.20959
LJ          -1.49039         1.63342        -4.98208
LJ           3.31812        -5.84283        -3.73153
LJ          -2.44368         5.30687         4.00359
LJ           5.95832         5.91749       -0.600123
LJ          -1.80409         -1.8285        0.188505
LJ           3.54038        -3.69115         -2.3298
LJ           1.96972        0.875035       -0.384868
LJ           -4.0318        -1.26113        -3.30129
LJ           1.47391         -6.3932        -4.99299
LJ            6.2774       -0.805299        0.421254
LJ          -2.10673         4.73107       -0.307637
LJ          -2.16797         3.54101          4.7795
LJ           2.94023        -5.94767         -4.7446
LJ           2.17497         5.02002         3.15368
LJ          -1.26027         6.28764        -6.46113
LJ            3.9943      -0.0968461         2.64653
LJ           0.46307        -5.93472          3.7215
LJ           4.43602        -0.38599        -2.80957
LJ           4.39258        -2.20874        -2.26791
LJ          -2.43267        -4.75012       -0.583573
LJ            5.2648       -0.603108       0.0331924
LJ             6.284         3.07043         1.69763
LJ          -5.18442        -5.81216        -1.84588
LJ           3.51864        0.301193         1.77581
LJ           5.35768         3.31225        -2.33373
LJ           1.50418        0.797015        -3.99141
LJ          -3.84292        -2.10209         4.31089
LJ          -2.73304        0.992843        0.421249
LJ          -5.05888          3.7806        0.292211
LJ         -0.470243        -5.62746        -1.15088
LJ           4.26565       -0.899947         1.95269
LJ           1.35742      -0.0269606         1.19625
LJ            5.8796        -5.30897         3.30246
LJ          -5.81235          5.6323        0.586007
LJ           2.38153         4.62192        -6.28908
LJ          0.774459        -3.45826        -4.66575
LJ          -2.29525        -2.46017        -4.68864
LJ          -2.78308         2.70711        0.394821
LJ           -1.0507        -4.49398        -3.04489
LJ          -1.33651         4.50541         2.02039
LJ           5.48058        -2.49293        -4.10976
LJ          -5.86776         1.24188         5.19962
LJ           2.32139        -3.14962        -3.33707
LJ          -1.55333        -1.88987         3.44307
LJ          -0.95282       -0.059892        0.829263
LJ           4.49839         6.33804        -4.71891
LJ          -5.94841         1.28864        -3.07635
LJ           1.38951         5.42436        -3.24061
LJ         -0.412571         3.15212         4.94191
LJ          -4.87101         5.58611        -1.37528
LJ            6.0997        -1.34428        -3.29302
LJ         0.0453735        -4.46515        -2.42963
LJ             4.952         6.02677         -3.1492
LJ          0.635304         3.87623        -5.35342
LJ          -3.74259        -2.24102       -0.368971
LJ           1.78669        -3.03032        -4.86404
LJ          -1.38913        -1.50719        -5.56771
LJ           4.84946        -2.84165        -3.28258
LJ         0.0453608        -2.31075         3.42948
LJ          -1.22692        -5.20754        0.385114
LJ          -1.70999       -0.990481         2.26597
LJ           6.06939       0.0236744        -4.78232
LJ            1.8833        0.208171         6.30972
LJ          -5.79822        -2.72369        -4.97416
LJ           5.58579        -4.59898        0.864291
LJ         -0.900858        -1.96675         1.49204
LJ         -0.554256        0.626847          3.2661
LJ          -3.43447        -5.09351        -6.42384
LJ            2.0234         6.45003        -4.01404
LJ          -2.28625        -1.03357        0.699528
LJ          -3.02408         3.92136        -1.82861
LJ         -0.595131       -0.431312        -1.13915
LJ           2.71141         5.69624         5.99504
LJ          -3.33477        -5.11642        -1.38046
LJ           5.52601         2.86438        -3.82278
LJ         -0.366441         1.45571         4.08635
LJ          -1.99351         5.57067         2.88857
LJ         -0.153724        -4.85956        -4.31208
LJ          0.123575         5.92241         -6.2181
LJ          -2.53177         1.23802        -5.34296
LJ           1.89281        -3.16764         3.52641
LJ           1.59092         4.05614        -5.70711
LJ          0.402275        -1.11738         6.14949
