108
#Comment!
LJ           1.00905         2.57384         2.96923
LJ           1.63933        -4.91021         -1.4308
LJ         -0.372087         2.72808         1.09847
LJ           3.16746        -5.22783         5.50228
LJ           2.47277        -4.72314         1.67544
LJ           4.78328         4.67335         6.30091
LJ            3.9712        -1.65302        -5.71733
LJ          -3.57795      -0.0796615        -1.09636
LJ          -3.72575         1.60151        -6.29165
LJ          0.127343         1.68506         1.19434
LJ           3.59505        -4.16956        -4.12242
LJ           -2.0852         3.51033         3.03425
LJ          -2.21727        -5.68506        -5.34662
LJ           1.04428         2.44354        -5.05378
LJ           3.69901        -1.77844         5.06999
LJ           1.89927        -1.06171         4.70416
LJ           1.66669       -0.617951        -1.21632
LJ           1.45761         1.00648       -0.197164
LJ           2.29779        -2.59531        -2.83647
LJ            3.4328       -0.395097        -5.41533
LJ           6.04067        -3.31832         5.51536
LJ         -0.963608         6.10797        -3.79508
LJ           6.16714        -5.17965        -0.94224
LJ           -5.8818        -2.36038        -2.55508
LJ          0.374645          1.3797         2.43184
LJ          -1.00997         4.67558         5.35159
LJ           2.95068       -0.828068        -2.03167
LJ          -2.39462        -5.48608         3.43566
LJ          -5.70804        -2.35307      -0.0667579
LJ           4.61308        -5.77141        -1.65984
LJ           1.24784         1.40201         1.80157
LJ          -5.84749         2.19678         1.74903
LJ          0.291159         6.11855         3.22343
LJ          -2.58791         6.25278         2.08757
LJ           6.19949         5.83905        -5.68184
LJ           2.85772        -5.21537         4.39432
LJ          -1.51791       -0.224525         5.94988
LJ           5.45793        -6.22163         -5.2714
LJ          -5.85914        -6.34112        -5.17501
LJ           2.03607         1.13822         3.09906
LJ           6.19255         4.90456        -1.46683
LJ          -5.85107        -1.08928         5.54013
LJ          -5.64602        0.722495        -4.88333
LJ           1.69396          1.7308        0.863531
LJ          -4.88863         1.28157        -5.56083
LJ          0.438129         4.13504         5.96313
LJ          -5.36865          6.2975         1.55618
LJ          -1.82109         6.44337        -2.00555
LJ          -1.00057         2.06736        -2.71281
LJ          -3.32986        -2.83701        0.654996
LJ           -1.3357          -3.278         3.41845
LJ            4.8756        -4.56073        -5.15246
LJ           4.72216        0.919988         3.21857
LJ          -2.75401       -0.967079        -3.31239
LJ          -1.99985         6.41305        -3.12763
LJ          -6.24344         3.10008         1.36816
LJ          -1.73969        0.030214        0.569124
LJ           1.52258         5.12763         1.42058
LJ          -5.71215        0.787392         3.92792
LJ         -0.729447        -4.49174       -0.596753
LJ           3.50883        -4.22159         1.54073
LJ          -6.17492         2.96277        -4.83675
LJ           1.87298         4.84255        -3.45947
LJ          -2.06521        -3.96016         3.92047
LJ          -2.66724        -3.07809         3.96869
LJ         -0.221449         5.03592         2.23541
LJ           2.29432         1.00673        0.523967
LJ            1.5007       -0.755827        -3.15299
LJ          0.376524         3.30777         3.24403
LJ         -0.573452         1.17441         1.68415
LJ          -1.87534         1.17809         1.46205
LJ           5.27282         -3.6672         -4.6339
LJ           1.23149          5.9896        0.921783
LJ           2.12476         2.89201        -3.89452
LJ          -2.90286       -0.158432         -6.0757
LJ           2.71494         1.64722        -1.90747
LJ          -2.37629        -4.70541         2.34671
LJ         -0.100347         2.48829         5.22621
LJ           1.55876          4.1331        -1.14943
LJ           1.97292        -1.48949       -0.326331
LJ          -6.08615        -5.84596        -4.17157
LJ           1.20231        0.394426        -3.90488
LJ          0.209504        -2.52201         1.87184
LJ         -0.859031         4.29349          3.1213
LJ          -3.06781        -3.55155         -4.2823
LJ           2.77988         2.49868         3.42359
LJ         -0.605721        -6.38579         3.82696
LJ           1.29002         3.79687        -3.98513
LJ           5.26936         3.19829        -2.86166
LJ           1.68385          5.8153         5.39612
LJ          -2.70767         1.25102         4.09575
LJ          0.440948        -1.87764        -4.17714
LJ          -3.01137         6.42149         -3.8598
LJ           4.67954          3.5566        -5.81912
LJ            5.4853        -4.16609         3.95754
LJ          -5.83886        -4.65589         1.22583
LJ           6.08976        -6.39193       -0.944811
LJ           1.74001         5.59667        -4.27942
LJ           -4.8474        -5.26579        -3.78715
LJ          -4.28226          3.9295         5.87626
LJ           1.84228         5.47737        -2.73625
LJ           5.31638         4.22964        -4.34052
LJ          -2.51437        -1.49266        -1.39244
LJ          -5.16964       -0.488514         6.34389
LJ            0.3328        -0.38367         1.65338
LJ          -1.49251         5.62288         4.97943
LJ          -4.37355        -3.29849        0.328492
LJ           5.71028         2.06461        -4.02655
