108
#Comment!
LJ           6.28857         3.38495        0.415721
LJ         -0.644395         0.40551         5.14597
LJ          -2.82935         4.71402         2.29733
LJ           5.11956        -4.89629         2.91382
LJ          -3.57328        -3.87944        0.840172
LJ          -1.25159       -0.153041        -4.28288
LJ           2.96761        -4.44452        -3.00235
LJ           5.92526        -1.62262         4.69919
LJ         0.0583635         5.12634         2.01874
LJ           5.69992         5.50823        -6.43274
LJ          -5.04244         5.12853        -3.99641
LJ          -4.98174        -3.99897         6.00581
LJ          -1.15066        0.199317         3.32084
LJ          -1.50402         1.87089        -4.04266
LJ          -6.38577        -2.14693        -1.42616
LJ           3.81797         2.82902         0.82341
LJ            3.9845        -5.56551        -3.16472
LJ           3.10056        -4.69356          6.4272
LJ         -0.746919        -3.24472         1.99485
LJ           3.57763         1.68817        0.890989
LJ          -2.29878          1.3298         2.61017
LJ          -5.27405        -2.44826         3.06217
LJ          -4.16791        -5.02254        -4.97777
LJ           4.16982         1.74675          -2.523
LJ          -1.97821         -5.4887         4.44434
LJ            2.4491         1.25874        -4.85364
LJ           6.21082       -0.480743       -0.878989
LJ          -5.51988        -3.50013        -3.78182
LJ          -1.37564        -4.72998        0.371466
LJ           4.68899        0.524244        -1.09557
LJ          -6.29716        -5.48381        -4.33328
LJ           5.48215        -3.51113        -1.37666
LJ           4.21419         1.46793       -0.981263
LJ              3.66        -3.02458        -2.23776
LJ          -4.66661        0.479127         4.77469
LJ          -0.66235         5.22483        -1.19553
LJ            4.4029        -6.28759        -5.25485
LJ          -2.91006         5.03688         4.53084
LJ           1.41353        0.299468         3.49272
LJ          -2.54212        -5.98067       -0.484577
LJ           2.89335        -3.83301         5.10568
LJ           5.40513        -2.96796         1.54712
LJ           1.57146          1.7974        -1.08717
LJ           5.52716         4.40685        -1.61668
LJ           5.20222         3.13665         6.23736
LJ           2.32794          2.0113        -0.01805
LJ         -0.373597        -1.76482        -5.82586
LJ           5.73497        -3.96606        -3.98775
LJ           2.63381        -3.84451         3.69897
LJ           3.69725        -4.44131         5.53656
LJ           4.31953        -4.93919        -6.17341
LJ           4.17515         2.81026         1.85908
LJ             2.431         4.62118        0.995987
LJ           -2.8448          5.4503        -4.76062
LJ              4.33       -0.178658        -3.25972
LJ          0.621843          3.1848          4.2401
LJ         -0.423839         -5.5436         -4.5295
LJ           4.93753        -5.86269         -1.6631
LJ          0.964474        -6.17324        -3.86501
LJ           4.63919        -3.62535        -2.67157
LJ          -3.43892         3.85858        -4.26741
LJ           4.05012         3.07518        -4.15439
LJ           6.21611        -5.27967         5.41374
LJ         -0.707199        -1.92152        -3.98564
LJ          0.487114        -5.40875         2.92697
LJ           2.82405        -2.87944        -5.04507
LJ          -5.74928        -5.41456         4.40594
LJ          -2.74838        -6.24699         4.83449
LJ           1.71023         3.09597        -3.71421
LJ          -2.52241          1.9562         3.58767
LJ          -1.48708        -2.52008         5.92871
LJ           5.17967        0.286091        0.596874
LJ           5.62328         2.72471       -0.843996
LJ          -2.07001        -2.33994        -2.08758
LJ           1.72075        -5.74887        0.904094
LJ          -0.58462         4.10832         0.41871
LJ           3.21028        -6.27212        -6.01693
LJ          -3.98243         4.88017         -4.0178
LJ           4.12775        -4.51766        -3.86729
LJ           1.42735        -5.09714        -1.91499
LJ           3.31866         5.72515        -1.48175
LJ          -1.78528       -0.772785         5.20128
LJ           1.72156        -0.68347         4.94846
LJ          -5.08209         3.10391         4.37072
LJ          -5.54841        -6.31083        -2.78258
LJ           -6.1297       -0.489726         5.03474
LJ          -1.44964         1.89759         1.22984
LJ           1.60056          0.5716        -6.01625
LJ          -4.07826         1.91762       -0.791711
LJ          -4.45359        -5.21008         4.53299
LJ           3.32905        -1.03137         2.17278
LJ           1.75137        -2.79682       -0.467864
LJ           2.97734          4.6167         4.32859
LJ         -0.703901         5.94647        -2.76312
LJ           1.83294         6.29099        -1.00803
LJ          -6.17238         5.29965        -2.18109
LJ           5.69132       -0.889691        -2.07356
LJ          -3.72597        -6.21395        0.582216
LJ          -2.01365         2.83604       -0.189816
LJ          -1.91239         3.46561         5.43679
LJ           5.16925         3.43079         2.09453
LJ          -3.89029         4.99361         3.93868
LJ           4.80376         4.12813         3.70805
LJ           4.28184       -0.424676        -6.44434
LJ           3.95232        -5.61736         2.47223
LJ          -2.74835         5.81685        -5.73625
LJ          -3.40937        -1.21573        -0.95356
LJ             1.285        -4.78982        -3.24741
