108
#Comment!
LJ          0.192017        -2.08568        -1.47162
LJ          -2.68689       -0.560947         -1.2179
LJ          -4.49576        -4.20666         4.36164
LJ          -5.26455        -5.93812        -5.48336
LJ          -3.90755        -6.27598        -3.95305
LJ          -4.32254         -1.8177         5.56787
LJ          -5.19203         -3.8017        -3.97249
LJ           3.40191         4.59954       -0.121177
LJ           1.21477        -1.30586         1.98364
LJ           2.34758         2.95058          1.5506
LJ          -1.93772        -2.85395           4.773
LJ           4.24603        -1.49612         2.83411
LJ           5.42333         5.36532         1.80446
LJ          -2.23881        -1.75488         6.44336
LJ          -5.06979         4.39197         3.31721
LJ          -5.26976        -1.78109         6.06772
LJ         -0.170162        -5.30023       -0.241313
LJ           2.60884         1.84355         1.34073
LJ           4.19038        -2.55719         2.78139
LJ           6.22422        -5.46351        -3.49785
LJ         -0.674437         2.14264        -5.72251
LJ           1.69705        0.206122        0.574741
LJ          -1.98595        0.932661        -1.33242
LJ          -4.87848        0.404004        -5.82182
LJ           1.34683       -0.297554        -2.22749
LJ           5.98336       -0.435103         1.75114
LJ           2.68192         0.67411       -0.727569
LJ          -4.08922       -0.590426        -2.69694
LJ          0.224529         2.40441        -2.57688
LJ           4.17867         2.56759        -5.55094
LJ           1.05674         -4.1136        0.862463
LJ          -1.77379         4.08276         -5.9359
LJ           5.02911        -6.46136        -5.81387
LJ           2.50929        -4.38947         4.57244
LJ          -1.93986         4.29194         5.04997
LJ           3.33692         2.47947         5.71874
LJ        -0.0754306      -0.0802049        -2.43456
LJ          -5.54452        0.364983        0.143191
LJ          -4.08318         5.44681        -3.87373
LJ           2.74063         2.99026         3.39328
LJ          -3.21042         3.35143         5.99216
LJ           1.23954         5.81492        -3.59886
LJ          -2.74205        -3.14559         5.49386
LJ           2.33675         2.36097         2.64132
LJ            3.1486        0.906761        -1.69237
LJ           2.47739         5.32735         5.25136
LJ           2.49178        -3.84386        0.685716
LJ          -1.06349         5.66994        -2.30962
LJ           1.51574         4.65112      -0.0207133
LJ           0.49781        -6.15599         5.77765
LJ           3.04172         3.01235        -4.49758
LJ          0.214139        -3.93895         5.16208
LJ          -4.94227         1.58763        -2.20641
LJ          -3.81882        -1.41773        -5.62153
LJ          -1.79528         1.67897        -5.65075
LJ         -0.828378         2.57261         5.98274
LJ          -1.66628         3.24189        -5.32834
LJ           -6.0543         1.49052         5.43186
LJ          -3.94761         5.34834          4.5728
LJ          -4.52788         6.32037         1.30698
LJ         -0.847281        -1.21702         1.38091
LJ           3.58647        -1.29555        -3.75641
LJ           5.63126        -5.33366         5.78118
LJ           -4.5609       -0.622452         5.30917
LJ          -4.29917     -0.00204372         3.69264
LJ          -2.63286       -0.585422       0.0251252
LJ         -0.738331        -2.28776        0.211947
LJ          -1.24342          1.0173       0.0144343
LJ          -3.66241        -1.30237        0.712444
LJ          0.153264         4.75096        0.777962
LJ          -4.70547         3.99113         4.91468
LJ           4.38871         2.28756        -4.57499
LJ           2.29181         5.57172         2.37619
LJ           1.30396        -5.08324        -5.27947
LJ          -5.92425         6.25013       -0.392848
LJ             1.303         5.43122         5.45843
LJ          -4.50178         6.11358        -4.67115
LJ         -0.944682         -6.3854       -0.898917
LJ          0.830909          0.4663         1.98257
LJ           2.20771        -4.92975        0.740187
LJ          0.434127         -4.8136        -2.02847
LJ          -5.52652          -4.686        -3.17916
LJ          -3.45954         4.25588        -1.64901
LJ          0.596809         0.59516        -2.86745
LJ          0.505163        -1.90022         2.86542
LJ          -4.15345        0.886706        0.174071
LJ          -2.96288         1.79648        -5.71886
LJ           1.75591         3.85583         5.91114
LJ           3.97943        -1.28256        -2.19346
LJ          -6.18256        -5.31272        -4.90034
LJ           3.57647        0.954119         5.00877
LJ           1.48432        -2.55917         1.95024
LJ           5.04848        -6.12513        -2.03534
LJ          -4.75605         1.04656        -4.09065
LJ           4.75435         2.58519        -3.35357
LJ           3.12221    -4.66004e-05         1.00116
LJ          -5.58887        -2.58258        -5.94705
LJ          -4.44151         4.27021          -3.305
LJ          -2.66502        -5.65139        -1.71784
LJ          -3.94113        -1.87239         3.69654
LJ          -1.94277         3.60279        -4.10442
LJ           6.05779         3.44486         5.47374
LJ          -4.32918       -0.982556        -6.37042
LJ            5.4749         1.72882         4.30382
LJ           -2.5136         4.12694         1.84794
LJ        -0.0382196        -5.40697         -1.3326
LJ           1.19279        -2.17127        0.851953
LJ           4.23848         5.34731         -3.2226
