108
#Comment!
LJ          -5.91015       -0.625019        -5.94266
LJ          0.513196         2.50128        -3.79288
LJ          -5.13707         2.24162         3.22187
LJ          -1.73752         2.71221         1.50176
LJ           6.18609         2.23973       -0.938371
LJ            6.2845         1.95069           1.103
LJ           1.29067           4.355        -5.72463
LJ           4.06839         2.93981        -5.42682
LJ           3.81938        -3.76977         1.65519
LJ          -3.36033         3.39541         2.62121
LJ            5.3819         1.46656        -3.26346
LJ          0.670651         1.57961        -4.12024
LJ          -0.90499         1.95659         -6.3068
LJ           4.29687         2.16731         5.70956
LJ          0.731854         4.05669         6.18283
LJ          -4.54394          4.0492       -0.496921
LJ          -1.61147        0.308061        -2.74464
LJ            -3.189        -5.42551         -1.8026
LJ          -4.01362     -0.00263187         3.98122
LJ           -3.1867         4.76861        -1.57916
LJ           1.01358         5.33335        -5.92589
LJ         -0.529299         3.05333         3.32676
LJ           3.24501        -4.35411         2.56484
LJ          -3.82249        -4.93763        -2.46014
LJ          -5.71686        -1.44575         2.16466
LJ          -2.31842         3.61104         6.35375
LJ           3.48238        -4.90017        -3.57504
LJ          -2.64939         5.57422         2.59251
LJ          -6.42731          6.4543       -0.530833
LJ         -0.739068        -2.20973       -0.218467
LJ           3.31045        -4.25945        -1.77552
LJ           1.48004          1.0653        0.212567
LJ          -2.96578        -2.34913        -3.48987
LJ          0.481767        -4.75097        -4.63536
LJ          -6.05331       -0.875999       -0.532553
LJ          -2.22566         4.33328        0.226403
LJ          -2.45697         3.08433         5.49152
LJ           1.13765        -5.04076        -6.12918
LJ           2.02802         5.47215         3.09152
LJ           -0.4926         5.66474         5.71535
LJ            4.5298      -0.0488895         2.55845
LJ          0.406255        -6.27345         3.93744
LJ           5.45812       -0.284334        -1.84319
LJ            3.8852        -3.64718        -1.04278
LJ          -2.07204        -5.86225         -2.5564
LJ            4.8803        -1.93212        -0.39723
LJ           4.68511         2.03935         2.08286
LJ          -4.71676        -6.11968         -1.8051
LJ           4.85089         1.09704         1.79097
LJ           5.83817         2.33873        -2.19385
LJ           1.63008         1.77026        -3.26039
LJ          -5.79434         -2.4198         4.39953
LJ           -4.0929         1.30859       -0.442179
LJ          -4.78001         3.12446      -0.0101394
LJ          -1.58074        -3.46147        0.736954
LJ           3.78548       -0.718308         1.26827
LJ          0.616858        0.548805         1.44335
LJ           5.53145        -6.12137          4.4301
LJ          -4.18292         4.62064        0.899753
LJ           2.31944         3.20198         5.15163
LJ          0.364431        -6.18779        -3.84827
LJ          -3.06227       -0.100479        -2.55804
LJ          -2.02863         1.98405       -0.499645
LJ         -0.261813        -4.02556        -2.62275
LJ          -1.40731         5.99889         2.59756
LJ           6.44029        -2.12843        -5.35976
LJ          -5.10313         1.32418         4.61503
LJ           1.50306        -3.69135        -3.14717
LJ         -0.952309        -3.51794         3.76595
LJ            0.3826       -0.516624        0.689277
LJ           5.64987         5.62233        -5.83535
LJ          -6.33415         2.18325        -3.56817
LJ           1.58746         5.87503         -2.6621
LJ         0.0797085         2.14026         6.15321
LJ          -2.77548         -6.4013        -1.58908
LJ           6.20959        -2.32551          -2.923
LJ           0.35984         -4.9732        -2.32367
LJ           3.46998        -6.42892       -0.874192
LJ          0.129187         3.30691        -5.45698
LJ           -5.4341        -3.07835        -1.49723
LJ           2.30971        -3.82479        -4.70977
LJ         -0.796696        -1.04237        -5.73584
LJ           4.90535        -1.22315        -1.91585
LJ           1.35508        -3.26911         4.11677
LJ          -1.80595        -5.73115       -0.397452
LJ         -0.468426       -0.590331         1.51526
LJ          -5.69871       -0.490035        -3.45193
LJ           2.11898        0.283147         6.30911
LJ          -6.27023        -3.43819        -4.90154
LJ           4.18517        -3.84104        0.455765
LJ          -1.61564        -2.07258         2.18478
LJ          -0.59005         0.26367         4.06588
LJ          -3.54545        -4.40679         6.19436
LJ            3.1361        -6.44142        -4.36915
LJ          -2.48916        -1.21216         1.11004
LJ          -1.85572         4.49785        -2.02152
LJ           0.50364       -0.294157       -0.548553
LJ           2.96236         5.59093         6.27556
LJ          -2.81095        -3.89635        -2.53263
LJ           5.93864         4.28615          -2.974
LJ         -0.539757         1.65229         5.07121
LJ          -2.38549         5.82768         1.60246
LJ          -1.07981         -5.8189        -3.69784
LJ         -0.846629        -5.99956        -5.75506
LJ          -2.43807          2.1494        -5.82026
LJ           1.18751        -2.88325         2.85258
LJ           2.20392         2.79726         6.14766
LJ          -1.47774        0.128854        -5.89469
