108
#Comment!
LJ          -1.62289         4.35678         2.53574
LJ           4.77786         2.66253        -2.38869
LJ            3.6819         2.08219         3.59131
LJ          -1.79211        -2.17001         1.10389
LJ           1.37197        -2.13587        -6.34304
LJ           5.83866        -2.33626       -0.443194
LJ          -1.54441       -0.497437        -4.21691
LJ          -1.53756         3.58219        -0.54209
LJ           6.35482         5.38752       -0.347724
LJ          -1.84175         2.49158       -0.619184
LJ          -2.69811        -3.99402        -5.76534
LJ          -2.64992         4.71164         4.06856
LJ          0.830442          4.9275        -5.61647
LJ        -0.0926872         -3.5082        -5.27514
LJ           4.51296        -5.88452        -0.63364
LJ           -1.0591        -5.55835         5.50329
LJ          -1.16863        -5.03548        -1.84555
LJ           3.99132       0.0855481         5.86424
LJ          -2.53654        -3.93233        -2.42082
LJ           -5.1892        -2.87782        -5.65587
LJ          -5.45082        -2.96589         2.70619
LJ          -5.54669         2.34849         -1.4111
LJ           2.45507        -3.08879        -4.11116
LJ          0.626955         4.30253        -2.84775
LJ          -3.36208         2.91487        -5.68093
LJ         -0.781345        -1.17532         4.03807
LJ          -5.58863         5.64739          2.6288
LJ           4.73311         2.72081        -4.24782
LJ           1.57103         4.48601         4.28848
LJ          0.655015        -1.67405         2.62439
LJ          -4.39134        -1.31053        0.100563
LJ          -1.48233        -1.44406         2.32463
LJ          0.755411        -1.35145        -5.88149
LJ           2.25376        -1.43705         1.80116
LJ           1.34645        -3.16879        -1.93856
LJ           -5.7233        -3.35235        -4.85592
LJ          -1.48275         1.52654         1.19733
LJ          -2.57791          5.0694         5.66899
LJ          -1.68433         3.88586         1.51549
LJ          -1.63561         5.98165        -3.91133
LJ           4.82949        -6.24258         3.73116
LJ           1.62673        -4.82021         -3.0686
LJ            5.1053         2.08115          4.1732
LJ          -2.19044         1.26945         -2.6137
LJ           0.46675         2.07637         3.03291
LJ           4.20049        -1.06316         3.09195
LJ           1.60285        -2.24068         2.19152
LJ           5.42244        -5.82362       -0.235725
LJ           4.10987         3.89557         4.61575
LJ           4.15303         5.28187         3.78979
LJ         -0.857268        -6.29358        -3.80743
LJ          -1.55541         3.94635        0.509028
LJ          -5.23808        -3.85694        -2.53437
LJ           1.44805        -3.75166         4.85589
LJ          0.731676         -4.4283        -5.71953
LJ           0.80495          4.1758         2.65225
LJ           1.56283         3.37383        -2.33024
LJ          -4.02238         -4.8696         5.07235
LJ           1.56657           3.466         3.54767
LJ           2.32196         5.64685       -0.668213
LJ           -2.6221         3.86979         3.29594
LJ           4.09184         1.77278          1.3238
LJ         -0.730014        -3.04665         3.06387
LJ          -4.84814        -5.60495         0.11316
LJ           3.09482        -5.80145         4.96233
LJ           3.56365         4.44975        -5.70746
LJ         -0.166872       -0.988905        -5.84559
LJ          -3.28003        -2.47752         5.37062
LJ           4.81261         3.27446       -0.990141
LJ          -1.35833         5.88789        -4.89431
LJ          -4.41051         2.22825         3.78555
LJ          -6.09159         -2.1025         2.88179
LJ          -4.13413       -0.661035         6.18017
LJ           2.81755        -5.37677        -4.02856
LJ          -1.25003         1.44163        -3.66461
LJ           -3.3396         1.92356       -0.502477
LJ          -6.20501         6.08798        -2.77017
LJ          -4.71114         2.22766         5.09721
LJ          -2.52117         2.01687        -4.39085
LJ          -1.03413        -2.55948         -1.5086
LJ          -5.93264        -5.35539       -0.843232
LJ          -1.19861          2.8764         3.41599
LJ          -2.14772        0.257421       -0.756175
LJ          -1.32927         2.27623        -6.16409
LJ         -0.765867         2.22359        -2.00026
LJ           5.12622        -2.52765         5.92375
LJ          -6.42517        -5.37936         2.16587
LJ           4.27521         3.77266         5.95373
LJ           5.21575         6.26161        -2.62672
LJ           3.07018         1.28107          3.0659
LJ          -2.10907        -5.32559         5.01873
LJ          -3.26695        -4.11537       -0.494069
LJ          0.632688         3.33966          3.1961
LJ          -2.99663         1.94243        -5.48084
LJ           3.20692         3.10029         2.95331
LJ           5.82337         3.44539         6.05708
LJ           2.26363         5.94213        -4.56154
LJ         -0.945045        -3.26249        0.875541
LJ           5.65578        -2.81964        -6.07228
LJ           6.17071        -6.36068        -5.66048
LJ          -2.63789         2.49908         2.66819
LJ           2.89971        0.385075       -0.332481
LJ           5.99031        -5.19658       -0.703524
LJ           2.35011        0.494342         4.81219
LJ          -3.87584       -0.537281        -2.51603
LJ          -2.22406        -6.12279        -4.23199
LJ           -4.0016         1.12665         -0.6965
LJ          0.628691         3.58537        -6.04821
