108
#Comment!
LJ          -3.57181          4.4057         6.32388
LJ         -0.945874         4.51161        -1.15887
LJ          -4.43733         2.17868         2.98054
LJ          -1.16977        0.734666        0.961328
LJ          -5.37643        0.373989       -0.519543
LJ          -5.25585         1.27024         4.25469
LJ            1.6853         6.21202        -6.13229
LJ           6.14428         1.23751        -2.45636
LJ            5.2829        -5.61455         1.77824
LJ          -5.17718         3.75477         4.13145
LJ           6.15799       0.0682773        -1.86813
LJ           2.86675        -1.25505        -4.26186
LJ          -2.54113        0.303177         6.11232
LJ           2.18566         1.14529         4.54321
LJ           1.96233         4.24809        -6.06816
LJ          -5.38489          5.6169         1.05081
LJ          -4.17449         1.12282        -3.18007
LJ          -3.18755          5.9302        -1.36435
LJ          -2.19991         1.70741         2.49894
LJ          -3.12604         4.67944        -1.55829
LJ         -0.344808         4.68778        -5.70978
LJ         -0.941353         3.97867         3.42822
LJ           3.91894        -4.13227        0.916688
LJ          -2.77523         -4.2895        -6.12862
LJ           -6.3067        -3.06259         2.23314
LJ          -1.49453        -0.40682         -4.0541
LJ           4.20076        -6.37027        -2.45017
LJ          -2.36966         4.91324         4.90322
LJ           5.61208         5.37474       -0.667854
LJ           -1.4267        -2.24032        0.342553
LJ           4.08241        -2.97086        -2.92992
LJ           2.31059        0.644095       -0.758571
LJ          -4.73952       -0.271154        -3.19967
LJ           2.45555        -6.37726        -5.02284
LJ           6.37682       -0.774988         1.38073
LJ           -1.9841         5.04374        -0.78625
LJ          -2.73699         3.85954         4.66792
LJ           3.63805         5.64601        -5.00678
LJ           2.28142           4.662          3.2186
LJ          -1.40509        -6.15717        -5.61024
LJ           3.62105      -0.0430488         2.80257
LJ          0.510682        -5.67584         3.54974
LJ           3.78623       -0.690929         -3.6148
LJ           4.97278        -1.26412        -3.92732
LJ           -2.9015         -4.0717          1.0105
LJ           4.95912        0.509565        0.228673
LJ          -5.16973         3.81161         1.38132
LJ          -5.30172        -5.78698        -1.76349
LJ           2.56387       -0.706432         1.79683
LJ           5.10116          3.8318        -3.07943
LJ           1.82064       -0.771574        -4.78692
LJ          -2.21407         -1.8139         4.19421
LJ          -2.91044        0.974264         1.01818
LJ          -5.34644         4.47557        0.521529
LJ          0.147864         5.42032        -2.54206
LJ            4.6146       -0.814589         2.43436
LJ           1.86255       -0.339767        0.815753
LJ           6.03081        -4.62184         2.27022
LJ            6.1214         6.22379        0.185269
LJ           2.47721         5.46197        -5.48554
LJ         -0.310424        -2.27893        -5.49981
LJ          -1.74843        -4.31934        -6.42991
LJ           -3.2898         3.90313        0.792465
LJ          -0.84923        -5.02375        -3.19492
LJ          -1.50005         3.65779         1.65891
LJ           5.00807        -2.56746         -4.1793
LJ           -6.4442         1.19433         5.66164
LJ            2.8036        -2.74398        -3.19874
LJ          -1.64551       -0.659605         3.32539
LJ         -0.956756        -0.31804         1.16255
LJ           3.38229        -5.97703        -3.44521
LJ          -5.95189        0.688898        -2.66433
LJ           1.25688         4.96133        -3.88533
LJ         -0.307545         3.46021         4.54863
LJ            6.4583         5.25932        -1.19541
LJ           5.88043       -0.226469        -2.93173
LJ          -1.01497        -3.97201        -2.46692
LJ           5.98253         5.74179         -5.1464
LJ         0.0702724         3.45464         -4.6284
LJ          -2.94831        -1.33324        0.571696
LJ           2.75288        -1.67604        -5.60382
LJ          -1.87455        -1.84558        -5.46925
LJ           4.12414        -4.32383         -3.2971
LJ          -1.14564        -1.43803         2.66766
LJ         -0.724992        -4.55184        0.609583
LJ          -2.67421        -1.67546         2.05482
LJ           5.10999        0.415258        -5.77632
LJ           1.66493        0.123367         6.31939
LJ          -5.52646         -2.1485        -4.91371
LJ           6.35652        -5.43446         1.56345
LJ         -0.332585         -1.6192         1.24305
LJ         -0.614216        0.676116         2.37592
LJ          -3.42521        -5.91762        -6.34741
LJ           1.20435        -6.45534        -3.57134
LJ          -3.00691       -0.343252        0.710468
LJ          -3.99653         3.93767        -1.42512
LJ          -1.52589        -0.54427        -1.43907
LJ           2.62816         6.28681         6.04302
LJ          -3.75882        -6.02111       -0.324398
LJ            5.0322         2.88749        -4.56389
LJ         -0.203257         1.68604         3.58466
LJ          -1.57429         5.55564         4.11328
LJ          0.745404        -3.78913        -4.59242
LJ         -0.539252         -6.2618        -6.25508
LJ          -2.14041        0.791448        -4.65415
LJ           2.25513        -3.34233         4.20887
LJ           1.99491         5.26057        -4.63629
LJ            1.8743        -2.24031         5.58063
