108
#Comment!
LJ          -4.21108        -4.42462         2.57066
LJ          -1.96416         5.61532        -4.68902
LJ         -0.101916        -4.24727        0.301975
LJ          -5.70937        -6.22681         5.66706
LJ           -5.1371        -3.36439         -1.7335
LJ          -2.12492         2.24238         4.57006
LJ           5.12372        -2.82059        -3.39316
LJ          -5.34778         3.77284        -3.94741
LJ           4.66294          3.9085          2.1095
LJ          -6.26609         1.11794        -3.49954
LJ          -5.61632        -2.48619         2.25956
LJ          -2.16493        -5.15483         5.67094
LJ          0.383426         2.48597         3.70541
LJ          0.751587        -3.25576         0.22822
LJ          -3.20286        -2.78509       0.0762019
LJ           2.90897         3.93654         1.32284
LJ           4.59715        -1.94227         1.97443
LJ          -4.94812        -6.00716         4.76888
LJ          -2.31905         3.41088         1.98288
LJ          -2.41341         1.14151         1.57615
LJ            5.8548         2.53188        -1.71408
LJ          -1.70953         4.13451         5.31672
LJ          -5.07354         2.36655         5.89743
LJ          -5.67923         6.01709        -1.72279
LJ          0.671184         4.62407         6.10486
LJ           3.12517        -1.53089        -3.86177
LJ           5.33406         1.27004        -4.50077
LJ          -4.05299         2.84207        -2.07408
LJ          -2.41103      -0.0969153       -0.268038
LJ           -5.3268         2.16548        -1.37469
LJ          -4.18546         -5.8487         3.69995
LJ           5.52987         -4.8632        -1.00631
LJ          -3.05187       -0.240973        -3.83588
LJ           2.24318        -3.82637        -3.11142
LJ          -5.03185         5.80521         5.41649
LJ          -1.44387         -6.1962        0.395991
LJ           1.93639        -5.23209        -5.87222
LJ          -3.46984         3.28598      0.00164266
LJ           1.24278        -3.63414         4.90867
LJ            1.8091         2.54305        -1.06793
LJ           1.76284        -6.17607         5.13345
LJ           5.30187        -3.02369        0.548066
LJ          -4.93756      -0.0196259        -3.91402
LJ           2.91055        -5.56065       -0.925409
LJ           5.65585          5.7824         4.81943
LJ          -2.94658        0.379863        0.864986
LJ         -0.102846         3.96348         1.42704
LJ           2.92239        -4.66507        0.519036
LJ            1.8225        -4.50931         5.56455
LJ          -5.64151        -5.47861         3.50276
LJ          -5.83637         5.86331        -4.12668
LJ           4.92336         5.63769        0.212456
LJ         -0.082209        -5.25741        -1.18714
LJ           1.40902         5.16122        -0.88972
LJ          -5.39464        -2.06735        -6.07043
LJ           2.92528         4.45951         3.72962
LJ          -1.70831         4.71971         -4.1467
LJ           4.74287        -6.40408         1.00199
LJ           -2.6438        -4.18435         6.15492
LJ          -5.56721        -3.52653     -0.00581881
LJ           1.48118         4.66106        -2.11143
LJ           3.35152         0.84805          -4.696
LJ          -5.21439        -3.71588        -5.52869
LJ         -0.592347       -0.823482         6.37274
LJ          -4.34666         2.64284        0.210743
LJ           2.61592         2.02022        -3.19801
LJ          -1.80204         5.75306         1.63985
LJ          -3.97562        -5.42665       -0.780001
LJ           3.60357         3.14768         5.59364
LJ          -4.51918         2.67007        -1.16458
LJ          -1.67057       -0.633098       -0.765491
LJ           3.94364         -1.2043         2.27814
LJ         -0.270168        -3.62424          -3.791
LJ          -1.49506        -3.54568        -1.40898
LJ           6.26299         4.48613        -2.52333
LJ           4.46681         3.60554          1.0442
LJ          -2.36939        -3.90179         3.32789
LJ          -3.79351         5.24956        -6.15138
LJ           1.72654         -5.7142        -3.45699
LJ           3.62215         1.31223        -2.31338
LJ           1.77521        -5.56271        -2.30536
LJ          -3.37067        0.480306         5.06412
LJ          -3.42996        -1.86389         -3.1723
LJ           -3.5297         3.48312        -5.17859
LJ           3.48652         3.89312         4.73352
LJ           3.04536       -0.837703        -2.74448
LJ           5.85139         3.59954        -1.71154
LJ          -1.59294         4.11459        -6.08585
LJ           1.99069         1.80849         2.49358
LJ          -2.69615        -6.38917         2.43986
LJ          0.560999        -4.04962         5.93213
LJ            -6.402        -4.77094       -0.441261
LJ           4.14699        -6.19462         1.73267
LJ          0.332154         2.03534         2.09239
LJ          -3.03313        -3.31427        -4.79721
LJ           4.23818        -6.39722       -0.803414
LJ           2.58202        -5.31372        -5.07001
LJ          -2.32651        -4.68859         2.19713
LJ          0.260787         3.27756        -2.54899
LJ         -0.998978         3.05627         3.40913
LJ           3.08066         6.23031        -0.32352
LJ          -3.11522         2.41878         5.91935
LJ           5.48014        -4.72128         5.06611
LJ           6.24588         6.42285         4.17476
LJ           5.89036         2.54744         5.99201
LJ         -0.758103         2.65199        -1.42815
LJ          -4.59069        -1.76602         2.81415
LJ          0.808102        -6.40145        -2.77795
