108
#Comment!
LJ          -4.93556         1.46374        -6.18782
LJ         0.0967416         3.17797        -2.66479
LJ           -4.7692         2.19391         3.10154
LJ          -1.73208         1.97912         1.00403
LJ          -6.15319         1.45774       -0.728105
LJ           -6.1252         1.52366         2.39173
LJ            1.6782         5.02914        -5.50095
LJ           4.73515         2.14397        -4.34142
LJ           4.48761        -4.72482         1.76504
LJ          -4.08561         3.66477          3.2722
LJ           5.72056         1.89307         -3.0602
LJ           1.64887       0.0863445        -4.30934
LJ          -1.79776         1.18295        -6.44933
LJ           3.43708         1.74981         5.21611
LJ          0.842889         4.37786        -6.35373
LJ          -4.76672         4.70206        0.115678
LJ          -2.64429        0.690022        -2.90714
LJ          -3.30965        -6.00065        -1.69047
LJ           -3.2588        0.692608         3.38235
LJ          -3.13816         4.97734        -1.49931
LJ          0.599834         5.80341        -5.26361
LJ          -0.88144         3.47376         3.82771
LJ            3.2215        -4.17733         1.96834
LJ          -3.46585        -4.83982        -4.08436
LJ          -5.95559        -2.11773         2.19898
LJ          -1.63832         2.25229        -5.34663
LJ           3.21093        -5.71254        -3.82697
LJ          -2.47122         5.36501         3.74797
LJ           6.08467         6.05312       -0.583405
LJ           -1.5585        -1.89789       0.0595581
LJ           3.46611        -3.87543        -2.18378
LJ           1.86013        0.935739        -0.25287
LJ          -3.81199        -1.55326        -3.33283
LJ           1.08406        -6.28637        -5.05482
LJ            6.3909       -0.806888        0.162878
LJ          -2.11752         4.63084       -0.150903
LJ          -2.25917         3.43633         4.97239
LJ             2.529        -5.66354        -5.01289
LJ           2.14047         5.13146         3.13582
LJ          -1.12335         6.11259         6.22318
LJ           4.15053      -0.0944383         2.77448
LJ          0.448432         -6.0166         3.77517
LJ            4.6735       -0.359315        -2.56531
LJ           4.24242        -2.54716        -1.88503
LJ          -2.29083        -5.01637         -1.1029
LJ           5.21046       -0.952393      -0.0553393
LJ           5.85736         2.84093         1.79116
LJ          -5.11991        -5.86334        -1.84843
LJ           3.82281         0.59619         1.70149
LJ           5.44633         3.11362        -2.17265
LJ           1.44792         1.19565         -3.7717
LJ          -4.33059        -2.18238         4.33502
LJ          -2.96715         1.28104        0.219467
LJ          -5.00973         3.51111        0.239043
LJ         -0.676407        -5.03365       -0.717745
LJ           4.13973       -0.942886         1.72005
LJ           1.17607       0.0912972          1.2624
LJ           5.79413        -5.51302         3.58657
LJ          -5.39653         5.39188        0.690413
LJ           2.43619         4.48479         6.20031
LJ          0.787955        -4.03381        -4.30706
LJ          -2.45493        -1.86405        -4.16933
LJ          -2.60342         2.29983        0.283422
LJ         -0.965544        -4.30288        -2.93974
LJ          -1.31487         4.80041         2.16931
LJ            5.7919        -2.29113         -4.2268
LJ          -5.68403         1.25992         5.05115
LJ           2.12901        -3.27031        -3.42156
LJ          -1.42173        -2.30343         3.53657
LJ         -0.590958       -0.128615        0.799667
LJ           4.79368         6.15691        -5.00273
LJ          -6.03644         1.49141        -3.20298
LJ           1.42661         5.51912         -3.0739
LJ         -0.259776         2.91181         5.27841
LJ          -4.36964         5.72522        -1.41044
LJ           6.10981        -1.71146         -3.4217
LJ            0.2501        -4.66792        -2.51559
LJ           4.58444         6.14088        -2.57492
LJ          0.591529          3.8953        -5.49001
LJ          -4.16733        -2.45041       -0.650054
LJ            1.8068        -3.26816        -4.67011
LJ          -1.25791        -1.44219        -5.57887
LJ           4.84812        -2.43219        -2.96945
LJ          0.332212        -2.53695         3.64926
LJ          -1.41004        -5.39819        0.269925
LJ          -1.40531       -0.805605         2.16788
LJ           6.36371        -0.09824        -4.45986
LJ            1.9452        0.225707         6.30757
LJ           -5.8992         -2.8952        -4.98061
LJ           5.27381        -4.39335        0.724837
LJ          -1.16434        -2.00823          1.5808
LJ         -0.546081        0.599492         3.53169
LJ          -3.46274        -4.92192         6.42338
LJ           2.44176        -6.39876        -4.01487
LJ          -2.27341        -1.20273         0.84615
LJ           -2.6748          4.0084        -1.91929
LJ         -0.316079       -0.397935        -1.02832
LJ           2.71523         5.41932         6.08682
LJ           -3.1793        -4.68522        -1.64572
LJ           5.67294         2.81322        -3.50364
LJ         -0.428701         1.41103         4.24349
LJ          -2.15479         5.73427         2.46528
LJ         -0.440026        -5.14072        -4.19337
LJ           -0.1497         6.22475         -6.1047
LJ          -2.47877         1.35671        -5.56822
LJ           1.77339        -3.11018         3.31562
LJ           1.68996         3.80976        -6.12623
LJ        -0.0452499       -0.763139         6.33285
