108
#Comment!
LJ           1.42933         5.80452       -0.193068
LJ           -1.6196        -1.47506        -1.35856
LJ          -2.04164         4.96834         3.63646
LJ           6.10408        -4.42638        -5.81575
LJ         -0.767391        -6.41306        -2.21805
LJ          -5.56587        0.691652         2.85047
LJ            5.2979        -2.60272         -4.3385
LJ           2.11411         2.90874       -0.911697
LJ           -2.8792        0.742347         3.90872
LJ          0.791026         2.09225        0.303087
LJ          0.316419        -4.13333        -4.85679
LJ           -5.3049         1.49061         3.55773
LJ          -3.70037         5.83233         3.16558
LJ          -6.10657       -0.747452        -5.96195
LJ            -3.759        -5.70901         2.91558
LJ            5.1375        0.617143          6.2759
LJ          0.995333        -0.82831         0.33459
LJ           3.04952         2.03923        0.950062
LJ           4.28909         3.16826        -1.57349
LJ           6.22621        -3.04871        -5.02873
LJ          -3.04937         6.00105         6.37131
LJ           1.22738        -2.23393        -2.24257
LJ          -3.88982        -2.17438        -1.40208
LJ          -5.83711       -0.520557        -3.70196
LJ         -0.658576          1.3921         2.02514
LJ           6.31662         3.08011         3.89887
LJ           2.79583        0.900714       -0.318049
LJ          -2.23166        -3.29985        -6.43794
LJ          -1.98023        -2.83202        -4.41573
LJ           5.65561         4.69247        -2.68434
LJ         -0.212569        -1.75771        0.796488
LJ          -3.78206         2.77845          2.8922
LJ           1.62966         6.08891         4.66556
LJ          -4.43312        -6.35087        -6.14195
LJ           3.85904          3.9972         4.43182
LJ           2.99332         -1.3879         4.96286
LJ          -1.94426       -0.172869        -4.33086
LJ          -3.95407        -3.04762         2.02749
LJ          -4.49595         6.42331         -3.1979
LJ            2.3474         2.76851         2.65353
LJ          -5.54263         4.95782        -3.76409
LJ           3.33169        -4.05658        -5.86907
LJ           -2.9941       -0.281938        -4.23043
LJ            1.9107         2.62561        0.808321
LJ           4.87902         2.17894        -2.34983
LJ          0.879896        -6.17551         5.59537
LJ           4.74315        0.187292       -0.217775
LJ         -0.265378        -5.57378        -3.14157
LJ           1.93485         3.35603        -3.96024
LJ         -0.900241        -4.76305         3.56095
LJ           1.43397         6.17753        -5.76839
LJ          0.419802        -4.87484         6.15258
LJ           4.76156        -5.09256       0.0871102
LJ          -3.95067        -1.02621         -4.6459
LJ          -1.02931        -3.72634        -3.48629
LJ          -2.84819          2.9436         3.34752
LJ          -1.36047         1.43522        -1.48564
LJ           -1.9626         3.57116         4.86578
LJ          -4.38876         1.32383          4.9522
LJ          -3.90002         6.40188        -5.40873
LJ          -4.91988        -6.00336         3.28996
LJ           5.19207        -6.04795        -4.43313
LJ           3.21658         4.16093        -3.94116
LJ          -2.68496        -1.49682         4.72462
LJ          -3.35608        -2.42632         4.49021
LJ          -2.02522       -0.718956        -2.18112
LJ           1.30521        -1.46021         2.33797
LJ          -5.35678        0.296836       -0.658553
LJ         -0.787918        0.247447         1.58639
LJ          -3.18742        -3.66268         1.45977
LJ          -2.38879         4.04702          3.2271
LJ           5.02827          4.7723        -3.97223
LJ         -0.351456         3.75081         3.05724
LJ           2.28637         5.44505        -3.12051
LJ           1.98316        -2.63843         2.60732
LJ            1.6329         4.36661          -3.488
LJ          -3.54461        -5.45599        -4.56889
LJ          -1.20456         4.52094         1.18287
LJ           0.57563         5.02055         1.87341
LJ            0.8311         2.50888        -1.30322
LJ           4.20187        -3.83431        -2.31095
LJ          -2.06384        -2.65575        -2.53427
LJ          -2.81489        -4.98002        0.590291
LJ        -0.0411554         1.44524        0.901428
LJ          -3.14551        -2.58632        -3.50018
LJ           -1.5103         3.82349        -4.81991
LJ          -2.40931         3.37422         6.27626
LJ           1.13207         3.63399        -5.87704
LJ           6.15799      -0.0954547        -3.23395
LJ            3.5568         4.24246        -5.52017
LJ          -5.69144         1.52989         4.50182
LJ         -0.240658        -2.28242        -1.94098
LJ          -4.58517         0.97504        -2.30497
LJ           6.12459         2.31055        -5.24659
LJ         -0.983252         5.23285         5.09623
LJ           4.81263        -2.67106          1.7989
LJ           5.93847        -5.23133        -3.58925
LJ          -1.24574        -6.21604        -3.14206
LJ           -4.8868        -4.92564        -2.54729
LJ          -3.49599        -4.59318        -2.52222
LJ          -2.13949        -5.84752        -2.77161
LJ           4.62167         3.15322        -6.12347
LJ            -3.737         4.74023        -4.03337
LJ           5.52047         1.12041         5.40138
LJ          -5.72817        -3.77031          1.1408
LJ         -0.762107        -5.69803         1.80182
LJ          -1.81517        -3.33198        -1.79959
LJ           4.08159         5.46981        -4.56614
