108
#Comment!
LJ           5.82644         1.68895        -1.17241
LJ         -0.184979         -3.2861         4.64156
LJ          -2.85413         2.99971          2.6198
LJ           3.82177        -4.19834         2.07694
LJ          -3.43318        -3.18874        0.408257
LJ          -1.19685        -0.63641        -2.71264
LJ           3.95587        -5.00845        -3.60546
LJ           5.87877        -2.64955         2.84641
LJ          -1.45983          5.5432         1.76443
LJ           5.28134         6.09108         6.01893
LJ          -5.15186          5.5699         5.65796
LJ          -5.10702        -3.31848         6.23279
LJ           1.29832        -1.19357         3.16048
LJ          -1.02214         1.46663        -5.39882
LJ           -2.6721        -2.22081        -1.83163
LJ           5.04042         3.54061        0.618305
LJ           4.70458        -5.83943        -3.70963
LJ           3.08596        -5.33485         5.63202
LJ         -0.691519        -1.08434         1.24355
LJ           4.87636        0.628236        0.684035
LJ          -1.95961         2.48371         3.56025
LJ           5.55249       -0.185487         2.26693
LJ          -5.47629        -4.84026         6.45667
LJ           2.24867       -0.196157        -1.03697
LJ          -4.01994        -4.54221         4.22601
LJ          0.833607         3.62097        -3.35245
LJ           6.01202        0.636413         1.59184
LJ          -5.85479        -5.92307        -4.41958
LJ         -0.660215        -6.03327        0.540027
LJ           3.55362        0.568857        0.126459
LJ          -6.32174        -4.03966        -2.68251
LJ           4.23317         -2.2798        -1.76292
LJ           3.69405        0.758801        -1.01749
LJ           3.59898        -4.55924        -2.67442
LJ          -5.39163        -1.27702          5.8388
LJ          -1.17628         5.40019       -0.420772
LJ           5.84509        -5.60582        -3.85634
LJ          -4.30153          3.9638         5.34093
LJ           1.86045         1.74642         3.54205
LJ          -3.05752         -4.6794        -1.31493
LJ           2.32654        -3.42636         4.15833
LJ           5.11373        -3.13591         2.10776
LJ            1.8353         2.10569         0.87842
LJ            5.6145         2.92071       -0.513674
LJ          -6.24208         1.78298         6.19874
LJ           4.20201          2.9234        0.311101
LJ          0.775912        -4.37138         5.34969
LJ          -6.15081        -4.52475        -3.76474
LJ           3.56723        -3.58741         4.32724
LJ           1.73077        -4.78002          5.5281
LJ           4.02132        -4.06196         5.74685
LJ           4.51841         2.27669         2.13682
LJ            3.7558         4.00191         1.90883
LJ          -4.25677        -5.09432         6.43179
LJ           3.35734      -0.0791762        -2.78787
LJ          0.343087         1.71435         4.31256
LJ          0.647679        -3.72468        -4.05171
LJ           5.48104        -5.41406        -2.55867
LJ           2.08663         6.37873        -2.74131
LJ            3.3653         -3.9745        -3.84538
LJ          -4.32009         2.61693        -5.22242
LJ           3.23494         4.31642        -5.48541
LJ           4.23394        -5.33029         4.22808
LJ         -0.857172        -2.14046         -3.2512
LJ         -0.944913         6.23447          -6.202
LJ           3.26504        -3.80136        -5.27629
LJ          -6.07941        -4.06382         6.12605
LJ          -4.38042        -4.06941         5.30513
LJ           1.08575         2.32831        -2.04702
LJ          -1.02375         1.63364         3.85575
LJ         -0.623625         -3.1366         3.58435
LJ           4.98688        0.788397        -0.75862
LJ           3.98889          4.8823         1.02856
LJ           -1.2409         0.23161       -0.672344
LJ           2.75943         5.99471        -1.06067
LJ          -2.40254         3.62794        0.176268
LJ           4.93566         6.36245        -5.91951
LJ          -3.50833         4.76793        -2.55611
LJ           6.11773        -3.02958        -3.90461
LJ          -0.45557        -3.63186        -1.06817
LJ           2.86125         5.64874        -1.97398
LJ          -1.59593        -1.09438         5.67226
LJ           2.67381        0.621305         2.89185
LJ          -6.07508         2.96067         4.03688
LJ          -4.02598        -6.23101        -1.44541
LJ          -5.02317        -2.04508        -4.33082
LJ          0.405803         1.59641         2.39546
LJ           1.52312        0.236594         -6.1513
LJ          -4.48313          1.0517        -2.05556
LJ          -5.18753        -5.27956         5.59226
LJ           3.49112       -0.518824        0.557783
LJ         -0.151295        -2.00924        -1.01812
LJ           5.30911         4.64356         5.38181
LJ          0.248691         6.28159        -3.19242
LJ           3.91058         5.41849        0.116718
LJ          -5.92192          5.0937         -1.7705
LJ          -6.44827        0.159813        -2.15897
LJ          -5.66174         5.89469         1.61888
LJ          0.665916         3.75099        0.733093
LJ          -3.41039         3.45903         6.03541
LJ           4.98828         1.53178         1.47978
LJ          -2.51164         5.42921         2.82783
LJ           5.83541         2.69415         4.36334
LJ           6.13204       -0.803151         5.47323
LJ           2.48687        -4.20162        0.757872
LJ          -4.08634        -5.32952         5.26027
LJ          -3.16933        -1.17387        -2.13371
LJ          -1.61042        -4.27473        -4.00675
