108
#Comment!
LJ           -5.0665        -6.31851         1.80136
LJ          -1.62947         5.38752        -5.03431
LJ          -1.26851        -4.81362          1.3262
LJ          -5.37837        -6.00828         5.21119
LJ          -3.64438        -5.08235        0.220926
LJ          -1.60775         1.72695          5.8284
LJ           4.86162        -3.45822        -2.13029
LJ          -5.93292         1.77484        -5.52453
LJ           2.69364         4.27608         1.95232
LJ           6.24692         2.88435        -3.83176
LJ          -5.51062        -4.42225       0.0524801
LJ           -3.4949        -4.74083         5.77824
LJ         -0.398391          1.7723         3.18799
LJ         -0.165344        -1.01951        -1.13815
LJ           0.13572        -2.58137       -0.317729
LJ           2.86957         4.44027        0.274914
LJ           3.63545        -3.81519        0.145413
LJ           6.01177         -6.0306         4.71716
LJ          -1.88172         4.79788         1.41358
LJ          0.107615         1.47004         1.49621
LJ          -5.32225         1.95456       -0.428819
LJ          -2.71434         5.44193         4.90683
LJ           -3.8774         4.91651        -5.00372
LJ           -3.7427         4.13801        -1.50865
LJ           1.86518          5.3078         5.76515
LJ           3.07195       -0.678033        -4.73421
LJ           5.79921          0.3433        -3.53123
LJ          -5.16595         0.95363        -2.71872
LJ           -2.7161        -1.92372        0.279518
LJ          -6.04013        0.722396        -1.85812
LJ          -4.24119         6.44991         4.65915
LJ           5.67891         -3.9733        -1.56307
LJ          -4.17717          1.5448        -1.31096
LJ           3.93175        -3.82842        -3.23667
LJ          -4.72166         3.93806         4.42574
LJ          -1.65965         5.89188        -1.45986
LJ           2.76765        -6.17202        -6.21873
LJ          -2.86831         4.16468         1.49906
LJ           1.38514        -3.09711         4.11269
LJ          0.380805           4.051       -0.415889
LJ           2.45152        -4.65787         4.52219
LJ           5.45296        -2.75916        0.707366
LJ          -2.35976         1.06003        -3.32624
LJ           4.07982         6.27937        -1.68937
LJ           2.87789         5.25709         5.77235
LJ         -0.905153        0.767576        0.809796
LJ          -1.55542        0.938888        -1.02237
LJ           3.15785         -4.2445        -1.70598
LJ           1.58066        -4.44939         5.52363
LJ           6.05249        -4.97821         5.46317
LJ           5.82147        -5.94302        -5.18675
LJ           4.77169         4.58766          1.0329
LJ          0.925637         6.34303       -0.949914
LJ         -0.589101         3.65263        -1.88191
LJ          -6.35163        -1.21949        -4.71212
LJ           1.57248         4.04006         4.14035
LJ          -0.97987         4.78221        -4.10724
LJ           4.64858        -6.07213        0.105341
LJ          -1.16135        -4.77755        -5.66351
LJ           6.20443        -3.55214       -0.409994
LJ         -0.961899          4.4393        -2.86202
LJ           3.77666         1.63165        -4.38691
LJ          -5.79439        -4.10415         -6.1198
LJ         -0.893472       -0.958099        -6.05429
LJ          -1.87073        0.117284       0.0426448
LJ           2.34821        0.266215        -3.47231
LJ           -3.3764         6.23638          3.0701
LJ          -2.30283        -5.87907         1.11735
LJ           2.98226         3.73088        -6.40819
LJ          -3.94679         2.29987       -0.494316
LJ          -1.62169       -0.983249        -2.72786
LJ           4.92344        -0.93189         1.63548
LJ           -3.1874        -1.73284        -2.96439
LJ          -2.31835        -3.98772        -2.24926
LJ           4.66707         5.42169       -0.558348
LJ           2.79061         3.38276        0.890273
LJ         -0.534434         -4.7694         4.67333
LJ          -4.17451         5.60066        -6.17017
LJ           2.05288        -4.77491        -3.56964
LJ           3.12263         3.68216        -2.28746
LJ           2.38537         6.02863        -1.28331
LJ          -2.84867      -0.0232002         5.07515
LJ         -0.977173        -1.86133        -4.71654
LJ          -3.11969         4.28472          5.4604
LJ           4.87373         4.88923         -6.0146
LJ           3.85196       -0.379938      -0.0808982
LJ          -5.61597         3.25662       -0.804614
LJ         -0.105813         2.85751        -5.52413
LJ           5.17276         1.80653         1.55733
LJ          -4.32523        -5.36883         3.28277
LJ           1.87701        -2.56563         4.94017
LJ            5.2472        -4.22777       0.0129255
LJ           2.78986          6.3592         3.11341
LJ          -1.70492          4.0452       -0.325091
LJ          -1.11489        -4.44763        -3.36193
LJ           5.42066         6.31795         -1.9011
LJ           3.08645        -3.75526        -4.36353
LJ          -2.57908        -4.57565        0.930671
LJ          -2.83795         3.93858        -1.28095
LJ         -0.960465         3.46934         4.48095
LJ           3.82733         5.55214        0.763791
LJ          -4.17618         3.13712         5.95421
LJ           3.84942         6.43079         3.57575
LJ           4.95023        -3.69767          5.4438
LJ           5.52657         4.29935         4.83951
LJ         -0.821729         3.00535        -2.81836
LJ          -3.71824        -1.80376          1.1994
LJ           1.84411        -5.85643        -3.16015
