108
#Comment!
LJ           -2.6697         5.82572         5.92443
LJ         -0.840325         4.93341       -0.461438
LJ          -4.36578         2.14012         3.00485
LJ          -0.87672       0.0375568        0.893139
LJ          -5.00961       -0.208674       -0.461139
LJ          -4.70824         1.24313         5.21908
LJ            1.7141        -6.36773        -5.65336
LJ          -6.43034        0.879961        -1.46761
LJ           5.77371         -5.8763         1.87821
LJ          -5.73256         3.72657         4.55218
LJ          -6.40115       -0.810667        -1.56933
LJ           3.16183        -2.12374        -4.55654
LJ          -2.94834        -0.14439         6.02005
LJ           1.50958        0.805646         4.20371
LJ           2.99571         3.67784        -5.61423
LJ          -5.91901         5.80373         1.38565
LJ          -4.97935         1.55256        -3.35733
LJ          -3.47113         5.92363        -1.04215
LJ           -1.5843         2.20848          1.9502
LJ          -3.31108         3.96299        -1.73576
LJ         -0.752084         4.51139        -6.17103
LJ         -0.323622         3.34262          3.0405
LJ           4.35848        -4.15674         0.38185
LJ          -2.28124        -3.77545          5.9532
LJ          -6.39688        -3.44952         2.32568
LJ          -1.72127         -1.6402          -3.584
LJ           4.69428         6.22938        -1.89986
LJ          -2.15157          4.6467         5.42086
LJ           4.52745         5.12431       -0.335833
LJ         -0.499955        -2.52058         0.63542
LJ           4.79032        -2.72322        -3.08699
LJ           2.53261        0.446252       -0.959052
LJ          -5.18664        0.225273        -3.18829
LJ           2.70583        -6.08507        -4.77608
LJ           6.36876       -0.727455         2.02631
LJ          -2.33339         5.43139        -0.89931
LJ          -3.33785          4.2228         4.73189
LJ           3.91544         4.70117        -5.20966
LJ           2.35019         4.41531         3.26775
LJ          -1.70522         -5.7761        -4.93078
LJ           3.48977       -0.310171         2.67156
LJ          0.541959        -5.50048         3.43474
LJ           3.78708       -0.977926        -4.13963
LJ           5.17081        -0.70379        -5.11029
LJ          -3.20587        -3.61232         2.08983
LJ           4.80364         1.24473        0.395662
LJ          -4.26391         4.08719         1.50967
LJ          -5.36029        -5.81774         -1.6651
LJ           2.46725        -1.41492         2.26723
LJ            4.9239         4.13377        -3.69613
LJ           2.41763        -2.01297        -5.41338
LJ          -1.01175        -1.46453         3.95899
LJ          -3.63288         1.41354         1.38509
LJ          -5.49024         5.40738        0.412552
LJ          0.368292         4.05976        -3.24509
LJ           4.57547       -0.509741         2.84305
LJ           1.83276        -0.44872        0.183672
LJ           5.76181        -4.24699         1.65578
LJ           5.66219        -6.36627       0.0497987
LJ           2.66215         5.94645        -6.11915
LJ          -1.21269        -1.50642        -6.01861
LJ          -1.34518        -5.66233         5.35401
LJ          -3.52462         4.84841        0.974983
LJ         -0.680001        -5.05716        -3.06089
LJ          -1.64306          3.0493         1.47211
LJ           4.61564        -2.20363        -4.31849
LJ           6.10173         1.15729         5.94848
LJ           2.90292        -2.30385        -3.35927
LJ          -1.57345       -0.118707         3.24259
LJ          -0.28003       -0.464663         1.83131
LJ           2.74637        -5.58651        -2.39927
LJ          -6.01446       -0.181088        -2.26014
LJ            1.1241         4.72808         -4.2821
LJ         -0.337679         3.71975         4.09486
LJ           6.15334         4.98162        -1.47199
LJ           5.95138        0.741429        -2.41964
LJ          -1.74688        -3.97676        -2.76481
LJ          -6.28777         5.56379         6.38637
LJ         -0.196051         2.98658        -4.09018
LJ          -2.85256         -1.0924         1.16366
LJ           3.24905       -0.653283        -5.73841
LJ          -2.03588        -2.10436        -5.41071
LJ           3.48204        -5.25727        -3.19017
LJ          -2.17702       -0.659438         2.04656
LJ         -0.421747         -4.0678        0.754855
LJ          -3.24851          -2.097         1.77419
LJ           4.45944        0.685348        -6.45419
LJ           1.52808       0.0374143           6.335
LJ          -5.35459        -1.74272        -4.85936
LJ          -5.82669        -6.05911         1.70051
LJ        -0.0296126        -1.66893         1.00818
LJ         -0.711327        0.778693         1.87559
LJ          -3.54145         6.38221        -6.43026
LJ          0.822179         6.40113        -3.43573
LJ          -3.72246         0.41649        0.768103
LJ          -4.53673         4.18303        -1.07726
LJ          -2.18044       -0.628085        -1.61928
LJ           2.92017        -6.35136         6.06066
LJ          -3.96764         6.11884        0.250628
LJ           4.69164         2.91428        -4.95448
LJ         -0.163507         1.76518         3.09197
LJ          -1.80075         6.21121         5.10188
LJ           1.34523         -2.9881        -4.78693
LJ         -0.971005        -5.60676        -6.34775
LJ          -1.65597        0.263798          -4.071
LJ            2.4288        -3.61117         4.50499
LJ           2.18631         6.34095        -3.95826
LJ           2.98072        -2.84776         5.39713
