108
#Comment!
LJ           5.02581        -1.45572         4.11463
LJ           4.79679        -5.91665         -2.6927
LJ          -3.08897         1.13798         1.36204
LJ         -0.758966         2.63137          2.4311
LJ            4.0893          4.9485        -5.65373
LJ          -1.37763      0.00598477          2.4173
LJ           0.88914         4.80164        -4.93996
LJ           3.37987        -6.38251        -5.28395
LJ          -1.74663         3.43006         6.41107
LJ           4.45876         -5.8584        -5.55056
LJ          -4.72528        0.417879        -6.46144
LJ          0.404976        -2.42113        -4.49107
LJ           3.25194         5.69446        -4.02745
LJ          -1.09059        -6.28366         4.34451
LJ          -2.54647        -1.30849         1.43452
LJ           -4.7753         4.08099         5.73533
LJ         -0.430281         4.28774        -4.37197
LJ           1.55676        -3.21705        -5.13971
LJ         -0.232049        -3.82662         3.87225
LJ           5.97446         2.67836        -5.26953
LJ           5.26313         5.63165         2.30353
LJ          -2.19463         2.50055        -5.16263
LJ          0.697773        -5.33287         6.24917
LJ          -1.74791        -5.84404          -5.567
LJ        -0.0247439         4.93745         5.73954
LJ         -0.900151         2.65871        -4.26821
LJ           5.96077        -2.79564         5.92376
LJ          -1.81248         3.05662       -0.291321
LJ           4.77666        -4.03771        -2.17458
LJ           -5.5187        -1.50125        0.201231
LJ          -2.41782         3.17017        -3.86862
LJ          -4.21992         6.05859         5.47968
LJ           -3.1247        -5.72623        0.419707
LJ          -2.46144         5.37284        -4.50224
LJ          0.930887        0.545204       -0.356751
LJ           5.47653         4.29411         4.12458
LJ           2.15759         3.73814        -5.11991
LJ            1.7967        -5.82532        0.828784
LJ         0.0106905        0.709263         4.84189
LJ          -5.62774        -2.61953          3.8499
LJ           2.20027        -4.37886         -1.1125
LJ           1.01517         -5.3148        0.183111
LJ           5.79368         5.06705        -3.93262
LJ           2.09925         5.15915         5.12536
LJ           -3.6299         2.41669         5.87686
LJ          -1.60516       -0.789579         5.02423
LJ           2.94619         3.63508        -2.51689
LJ           4.61888        -6.27892         5.14475
LJ          -0.90303       -0.186039        -3.58677
LJ            4.2471          2.6864         1.23921
LJ          -6.31666        -2.00669         6.43239
LJ           3.69904        0.953672         4.61001
LJ          -2.71617        -3.01623        -6.16323
LJ           -5.0224          2.1978        -1.49381
LJ           4.46271        -5.55045         4.06789
LJ           5.80404        0.441189        -2.71869
LJ           4.48534       -0.179059         5.20751
LJ          -1.58501        -4.91119        -2.89969
LJ         -0.657461         3.80856         4.22614
LJ           -2.5043         5.52206         -6.0914
LJ           5.94284         4.47119         2.68691
LJ          0.577458         3.68221         6.00942
LJ          -2.78068        -6.43279         5.32543
LJ          -2.86164       -0.161977        -3.71898
LJ          -6.32996        -5.56769         5.84624
LJ         -0.969638         4.86364         4.83655
LJ           5.67827        -5.76267           4.695
LJ           1.02011         4.26042         1.70469
LJ           5.42481        -4.53998         6.18944
LJ           4.64401         -2.6499         4.37757
LJ          0.404231        0.201375         2.90598
LJ         -0.999533         2.10063         3.56627
LJ          -4.27718         2.98109        -5.31304
LJ          -3.12657         1.94352        -5.66333
LJ           6.35371        0.725921         2.83777
LJ          -6.02892         4.15008         5.98555
LJ          -5.82143         5.94388        -2.87746
LJ          -6.45197         4.16645        -3.99789
LJ           6.01017         2.38161       -0.441924
LJ          -1.60643        -6.10766         -2.6136
LJ          -3.12519       -0.936352         4.50776
LJ           3.81663       -0.997809        -4.85476
LJ          -2.70813        -4.43777         1.70051
LJ          -1.09151          3.4621         1.91459
LJ           3.53296         3.71609        -1.21428
LJ           3.38157        -1.82481        -5.59646
LJ           2.53027        -4.24968         3.14557
LJ           5.03436        -3.78147        -3.30798
LJ           5.37489         3.66992        -3.29149
LJ           1.89612        -5.57578        -4.09842
LJ           1.85533        -5.13544         2.89598
LJ           1.07066       -0.683495         1.40005
LJ           2.98906        -5.85717         4.85076
LJ           6.27505        -0.20875         3.47672
LJ         -0.528589        0.886692        -5.14642
LJ           -4.6891        -2.87329         4.37888
LJ          -6.00851        -3.18168       -0.389654
LJ          -3.59796        0.422946          3.7595
LJ          -3.24533        -3.67025         5.95674
LJ           4.15356         4.16296        -4.94779
LJ          -3.16641         3.80568        -1.02323
LJ            2.2206         3.81705         -3.2535
LJ          -1.72802       -0.622509         3.37815
LJ          -1.63316         2.71064         1.48016
LJ          -5.81509        -1.49527         3.73164
LJ         0.0565497        -5.36764        0.720428
LJ          -4.30928         5.14218      -0.0895134
LJ          -4.46081        -3.72103       -0.694434
