108
#Comment!
LJ          -4.00391           4.058        -4.83585
LJ         -0.473815         6.03866         1.34236
LJ          -3.81467         1.99114          3.0664
LJ          0.366905         -2.1381        0.808243
LJ          -4.26281        -1.61525       -0.431664
LJ          -3.11041          1.0505         -4.9447
LJ           2.74027        -6.03587        -4.68714
LJ          -4.77338         -1.2006        0.819045
LJ          -4.85001        -6.44838          1.4914
LJ           5.71904         3.85544         5.71459
LJ          -5.95343        -3.55501        0.141556
LJ           4.65382        -3.03436        -4.64685
LJ          -5.09459        -1.29179          4.9337
LJ          0.083108        0.566987         4.74651
LJ           1.95944         1.12906        -4.85593
LJ           5.97467         4.02598        0.948053
LJ           5.96645         4.10758        -3.97885
LJ          -6.40959         6.21257        0.138658
LJ          -1.31368         1.21177        0.660561
LJ          -4.43946          2.3776        -1.68018
LJ          -1.34582         3.80457         5.54733
LJ           1.30805         2.25109          2.5897
LJ           5.50117        -4.22591        -1.89466
LJ         -0.685377        -2.47769         3.52601
LJ          -6.02116        -3.72396           2.811
LJ          -1.94197        -4.65518        -2.22036
LJ           6.32686         4.79258       -0.440552
LJ          -3.12626         5.28272        -6.23299
LJ            1.7895         4.67148        0.465563
LJ           1.53341        -1.77022        0.249398
LJ           6.24754        -2.26055        -2.67551
LJ           3.24255       -0.194279        -1.34049
LJ           5.94008       0.0474337        -2.67233
LJ           3.16167         -5.0771        -3.60376
LJ            6.1368       -0.555712         3.95254
LJ          -1.82601         5.56641       -0.424588
LJ          -4.51467         5.60867         5.37068
LJ           5.40995         2.86201         6.33476
LJ           2.49669         3.67866         3.40499
LJ          -2.00496        -4.51243        -3.30315
LJ           3.08265        -1.68187         2.66359
LJ           1.65234        -4.84249         1.73248
LJ           2.32276        0.754211        -5.82814
LJ           4.84426        0.380294         4.47542
LJ            -4.248        -1.50818         4.32988
LJ           4.37894         3.35309        0.860705
LJ          -3.47024         4.11149         2.65576
LJ          -5.50085         -5.7368        -1.87605
LJ           2.77058        -2.53365         3.53705
LJ           4.63062         5.02747        -4.69235
LJ           3.57712        -4.10377         6.26268
LJ           2.26368       0.0692801         2.50301
LJ          -5.67365         2.89416         2.17816
LJ          -5.97213        -5.26114         1.29415
LJ           1.29801         1.32382        -2.82964
LJ           3.98826       0.0881813         3.62707
LJ           1.63943       -0.779428        -1.66477
LJ            4.6554        -4.86816        0.301935
LJ           4.43032        -5.62133       -0.442144
LJ           2.33245        -6.15083        -5.98472
LJ          -3.58657       -0.285344        -5.85112
LJ           1.93854        -5.81176         4.87805
LJ          -0.71619        -5.74733         1.75659
LJ         -0.690363        -4.69788         -2.7152
LJ          -2.22484         3.87019       -0.436813
LJ           4.05636        -3.08849        -5.73749
LJ           5.30593          1.3977        -6.32903
LJ            4.7119        -2.08106        -5.07591
LJ         -0.828706         1.10747         1.61613
LJ         -0.185701        0.406286         2.96778
LJ           1.53595         -4.4962       -0.321879
LJ           6.18654       0.0384467        -1.56961
LJ           2.04759         4.69519         6.02147
LJ         -0.179979         3.84017         2.14012
LJ           4.89015          4.9422        -1.72438
LJ          -5.59262         2.13705       -0.832479
LJ          -3.94127        -5.03765        -4.06264
LJ          -4.22215          4.8571         2.41244
LJ          -2.28224        0.377848        -3.61565
LJ          -3.78768        -1.33287        0.679391
LJ           4.11618         1.75404          -5.145
LJ          -1.79017         -1.8956        -5.97045
LJ           2.95303         4.98467        -1.23994
LJ          -3.57563         3.05658          2.5737
LJ         -0.602624        -5.24889         0.84242
LJ           -4.5532        -3.94901          2.3123
LJ           2.86177          1.1949         4.90875
LJ           1.28727       -0.247571         6.41698
LJ          -4.87539       -0.518404        -4.67235
LJ          -4.68928        -4.74293         2.85168
LJ           1.20807       -0.716845        0.989994
LJ         -0.818369       -0.556688         1.10083
LJ          -4.76809         6.08036        -5.83809
LJ          0.556288         6.24812        -3.39834
LJ          -5.68778          2.1328         1.02877
LJ          -5.24674         4.66261       -0.877127
LJ          -4.10371       -0.896937        -2.11261
LJ           3.87849        -5.84114         4.82285
LJ            6.0734         5.38952        0.821409
LJ           -6.4315         3.08946        -5.42552
LJ           1.24339         1.05978         2.77789
LJ           -1.4891         5.93052         4.08583
LJ           3.76567       -0.940982        -6.13173
LJ          -2.86025        -3.70975         5.91588
LJ          -0.26678        -1.43409        -2.33824
LJ            4.8136        -4.44683         3.68389
LJ           0.13027        -3.91785        -3.54229
LJ           6.23253        -3.40708        -6.40214
