108
#Comment!
LJ           0.95906         2.43484         2.69114
LJ           1.46273         -4.7898        -1.52309
LJ         -0.423021         2.82072         1.17146
LJ           3.34003         -5.1795         5.64743
LJ           2.26093        -4.84124         1.42455
LJ           4.91892         4.52394         6.18106
LJ           4.02969        -1.77897        -5.61087
LJ          -3.13734        0.120572        -1.13185
LJ          -3.95581         1.77929        -6.12632
LJ          0.185114         1.74726         1.38249
LJ           3.18004        -4.22148        -3.94206
LJ          -2.08351         3.51434         2.85674
LJ          -2.16472        -5.83879        -5.75701
LJ           1.36873          2.2425        -5.13158
LJ           3.95306        -1.98589         4.92246
LJ           2.09947       -0.879475         4.84591
LJ           1.59813       -0.403373        -1.23248
LJ            1.6113          1.2642       -0.143809
LJ           2.22699        -2.21922        -2.75012
LJ           3.61531       -0.470183        -5.39611
LJ           6.29149        -3.52431         5.58689
LJ         -0.786989         6.44342        -3.85245
LJ           6.36148        -5.20762        -1.03215
LJ          -5.86365        -2.24605        -2.64849
LJ          0.394195         1.62661         2.34919
LJ          -1.44367         4.56439         5.30515
LJ           2.85343       -0.755333        -1.94369
LJ          -2.26286         -5.2837         3.72469
LJ          -5.52979        -2.46076       -0.301279
LJ           4.64241        -5.91935        -1.73018
LJ            1.1918         1.03914         1.70744
LJ          -5.72421         2.10128         1.80917
LJ          0.232024         5.84028         3.23242
LJ          -2.77612         6.27252         2.26856
LJ           6.16637         5.95723         -5.7525
LJ           2.82976        -4.97382         4.36665
LJ          -1.43886       -0.168106         6.13942
LJ           5.47727        -6.03327        -5.70985
LJ          -6.05225           6.439        -5.23119
LJ           2.01489         1.26619         3.00617
LJ           6.23259         4.98628        -1.55702
LJ          -6.10146        -1.29542         5.59421
LJ          -5.67101        0.551431        -4.90009
LJ           1.46304         1.69986        0.917176
LJ          -4.75738         1.24716        -5.33756
LJ           0.31659         3.99378         5.77686
LJ          -5.54295         5.95494         1.44364
LJ           -1.6557        -6.44491        -2.01103
LJ         -0.811588          2.1208        -2.82059
LJ          -3.27712        -2.98634        0.797235
LJ          -1.11074        -3.48286         3.70014
LJ           4.79597        -4.83943        -5.40743
LJ           4.59705         1.33268         3.00318
LJ          -3.02133       -0.680417        -3.50802
LJ          -2.07052         6.42901        -3.20825
LJ          -6.07667         3.22474         1.45604
LJ          -1.68652       0.0441545        0.525339
LJ           1.45214         5.05906         1.76247
LJ          -5.68092        0.761881          4.0092
LJ         -0.701798        -4.50243       -0.876321
LJ           3.84445        -4.38361         1.72578
LJ          -5.91469         2.89753        -4.97661
LJ           1.89376         4.71987        -3.56528
LJ          -2.05665        -3.94976         3.96006
LJ          -2.72437         -3.0581         4.05936
LJ         -0.659402         4.61416         2.10088
LJ           2.29914        0.817238        0.612993
LJ           1.98132       -0.634714        -3.06951
LJ          0.233959         3.35198         3.23686
LJ         -0.718849        0.839583         1.62996
LJ          -1.99863         1.32444         1.54513
LJ            5.3602        -3.89274        -4.60509
LJ           1.10675         5.89611         1.02754
LJ           2.16327         3.10064        -3.70788
LJ          -2.70943       -0.347449        -6.35971
LJ           2.61355          1.7726        -2.06633
LJ          -2.59792        -4.69332         2.66986
LJ        -0.0945322         2.80534         5.16131
LJ           1.59781         4.44771        -1.21023
LJ           1.90282        -1.43079       -0.336623
LJ          -6.26786        -5.68877        -3.95579
LJ           1.15212        0.287704        -3.76384
LJ         0.0425203        -2.67184         1.80078
LJ         -0.487843          4.2208         3.08781
LJ          -3.08603        -3.54001        -4.34469
LJ           2.52356          2.7404         3.59299
LJ         -0.649936          6.3019         3.88825
LJ           1.39211         3.75207        -3.99222
LJ           5.30733         3.00936        -2.81126
LJ           1.76986         5.68685         5.55722
LJ          -2.87795         1.30887         4.13398
LJ          0.372391        -1.92532        -4.05677
LJ          -3.20117        -6.03323        -3.76468
LJ           4.78214         3.51587        -5.83584
LJ           5.34784        -4.42511         4.16278
LJ          -5.97359        -4.55114         1.27682
LJ           6.17091        -6.21776        -1.07562
LJ           1.55009         5.75673        -4.17156
LJ          -4.77549        -5.22974        -3.69918
LJ          -4.23079          4.1966         6.10947
LJ           1.70266         5.48143        -2.42037
LJ           5.16659          4.0774        -4.50587
LJ          -2.61673        -1.82216        -1.52969
LJ          -5.25125       -0.376503         6.27496
LJ          0.718573       -0.494144         1.63205
LJ          -1.55872         5.89622          4.9634
LJ          -4.07801        -3.34371        0.249768
LJ           5.68392         2.21558        -4.12977
