108
#Comment!
LJ           4.38485       -0.615496         3.88562
LJ           4.09666        -5.20103       -0.796492
LJ          -4.25295         2.54767        0.724635
LJ          0.230637        0.362804         3.30655
LJ           4.63619         5.96139        -3.39537
LJ          -2.26934         -1.1272         3.17948
LJ           2.79883         3.84724        -5.60838
LJ           4.50873        -4.25991         5.18599
LJ          -3.28045         3.71948         5.26058
LJ           6.24008         6.43262        -4.15797
LJ          -4.10251        -1.19604         4.84056
LJ           0.37541        -3.03219         -3.4971
LJ           3.85189        -4.51866        -2.72708
LJ          -2.68998         4.99172         5.91442
LJ          -2.91352        -2.36458         3.31147
LJ          -4.01681         3.24665        -5.87114
LJ           1.90896         2.98625        -3.41947
LJ           3.36558        -2.39185        -4.17306
LJ          0.385224        -6.25046         3.53915
LJ          -6.11273         2.59679        -2.49101
LJ           4.34618        -2.62095          0.9144
LJ          -3.23187         1.35281        -4.41931
LJ          -1.39089        -5.66772         5.49293
LJ          -4.22007          5.8822        -4.68355
LJ          0.124988         3.92475         3.84787
LJ          0.973526         2.68864        -4.75915
LJ           5.32727        -1.76728        -5.47798
LJ          -2.71528         1.30719      -0.0652452
LJ           2.33661        -2.41899         -2.2529
LJ           4.75609       0.0495855         1.45332
LJ          -3.73587         4.13933        -5.38139
LJ           -2.2666        -5.01067        -6.25271
LJ           -3.4486        -4.97057        0.891371
LJ         -0.956816         2.47052        -3.83884
LJ          0.716844        -1.86302         1.72175
LJ          -4.79486         3.37647         5.18323
LJ           2.08166         2.06613        -3.85932
LJ          0.535018        -6.09855        0.430595
LJ          0.987767         2.94782         4.04873
LJ          -4.82968        -4.72828         2.87982
LJ           3.19071        -5.36781        -1.99893
LJ           1.15327        -5.76337       -0.452765
LJ           4.44393         4.59037        -2.89839
LJ           3.92203         3.80572        -5.39922
LJ          -4.20284          2.1059         6.17575
LJ         -0.670473        -1.84667        -6.40916
LJ           5.56967       0.0934525        -2.32363
LJ           3.25819        -5.46922         3.61015
LJ          -2.02533        0.597253        -2.15668
LJ           4.61634        0.463209         4.17814
LJ           -6.1926        -1.43032        -6.21981
LJ           3.96652         1.49436        -6.22303
LJ          -3.00542        -5.19961        -5.50309
LJ           5.85096         1.21697        -2.64251
LJ           3.79695        -4.94499          2.5561
LJ           1.85793         1.86149         6.06204
LJ           3.73049        0.771666         1.79779
LJ          -1.98827        -5.83812        -2.14606
LJ           1.23807         4.02626         3.72671
LJ          -2.38701        -3.93632        -6.45198
LJ          -6.05599          3.7746         4.28744
LJ           1.53842         5.15266         5.27305
LJ          -4.43238        -5.60918         3.51308
LJ          -3.49889         0.69561        -2.65144
LJ           5.86639         5.54134         3.80369
LJ          0.526414         4.75223         4.73295
LJ           4.86547         6.04059         3.78104
LJ           1.31076         6.26359        -1.44744
LJ           5.85706        -3.77109        -3.67161
LJ          -5.68902        -3.34983         1.87758
LJ         -0.239075         1.24609         2.09503
LJ          -3.88115        0.485807         4.89549
LJ          -3.26584       0.0944285         6.23345
LJ          -3.92334         2.31907         4.82434
LJ          -5.32053         0.42154        0.928069
LJ          -4.74397         4.03552        -5.95431
LJ           6.33674           4.953        -3.53674
LJ           5.50074         4.40365        -4.34524
LJ          -5.62831          2.1282         0.82864
LJ          -1.87514         5.93766        -2.49305
LJ          -3.70822          -2.079         4.33778
LJ           6.30421        -2.20858        -4.54838
LJ          -5.00948        -4.83293        0.634432
LJ         -0.895898         5.93268       -0.379685
LJ           2.90026           6.246       -0.742505
LJ           4.41008        -2.40945        -4.80804
LJ           1.48026        -5.11977         1.87315
LJ           4.98852        -2.30791        -3.44396
LJ           6.04085         3.27357        -2.30335
LJ         -0.416244        -4.56169        -3.64884
LJ          0.661983        -5.76714         4.57751
LJ           1.07799       -0.511772          1.1058
LJ           2.49872         4.86643         4.18795
LJ           -4.3886        0.322745         1.80328
LJ         0.0417962          2.4859        -6.10927
LJ          -4.77624        -3.82638         3.54325
LJ           6.13476        -1.51142        0.266159
LJ          -4.16479         4.16744         2.37489
LJ          -1.46436        -2.45891          5.4466
LJ            4.6778        -6.36806        -1.34371
LJ          -2.79097        -6.33675        -2.37231
LJ           1.20208         4.09448        -4.92512
LJ          -2.89419       -0.561106         4.25331
LJ          -1.86268         1.77546         1.35654
LJ           -5.1581       -0.901659         2.45451
LJ           1.29807        -4.31356        0.132515
LJ          -4.04915         6.44763        -1.39554
LJ          -2.78678         -4.6133         2.06925
