108
#Comment!
LJ            5.7743       -0.481459        -6.45487
LJ         -0.903748         3.41236          6.2224
LJ          -5.37685         1.81412         3.96501
LJ          -1.10001         4.26158         2.46702
LJ           5.03687         3.44524        -2.45362
LJ           5.02133         2.74057         -1.3709
LJ           1.45282         3.58076        -6.43104
LJ           2.76447         4.35331         5.26371
LJ           2.12575        -2.96162         2.22125
LJ          -2.05374         2.67489         1.75008
LJ            5.6348         1.69037        -3.00381
LJ         -0.499733         1.66339        -4.70261
LJ          -1.84884         1.74832         6.15666
LJ            5.7282         3.13263        -6.10939
LJ          0.286479         3.35935         6.11133
LJ          -3.80847         2.80826       -0.920434
LJ        0.00361105       -0.619443        -2.43708
LJ          -2.12915         -4.1193       -0.932177
LJ          -5.57647        -1.10578         5.14929
LJ          -1.88215          4.5382        -1.88659
LJ           1.86083         3.94259         5.57868
LJ         0.0124151         2.21144         2.32286
LJ           3.74132        -3.72016          2.4281
LJ          -5.23389        -4.17918       -0.695739
LJ          -5.04576       -0.245312         2.24545
LJ          -3.27378         6.30963          5.9749
LJ           3.65699        -3.55163        -3.24902
LJ          -3.76281         5.79585        0.493983
LJ          -5.55561        -5.68365       -0.529429
LJ          0.789486        -2.75075       -0.499704
LJ           2.91651          -5.264        -1.14778
LJ            1.1789         1.53759        0.478183
LJ          -1.16667        -2.68665        -4.55688
LJ         -0.565263        -2.13747        -2.70293
LJ          -5.54118       -0.690945        -2.10379
LJ          -1.23304         4.21235        0.688956
LJ          -3.00942         1.50999         4.92242
LJ          -1.29186        -3.86058         4.68075
LJ           1.68918         6.20715         3.06608
LJ          0.836605         5.10765         4.90649
LJ           4.77912        0.146742         1.20987
LJ          0.348237         6.03751         4.36421
LJ          -5.39551        0.640601      -0.0639474
LJ           3.45416        -5.60596       -0.149644
LJ          -3.13901         5.45141         -3.9498
LJ           4.27245        -3.57547        -1.34424
LJ           2.50995         1.89596         3.09885
LJ           -3.5994        -6.06934        -1.80749
LJ          -6.10618        0.183866         1.56007
LJ          -6.20301        0.783933        -2.47713
LJ           3.50347          1.1229        -2.43228
LJ           4.32743        -2.85813         4.50926
LJ          -5.78828         1.89948        -2.05499
LJ          -5.46441         3.41654       -0.197052
LJ          -3.39607       -0.210283         3.45773
LJ           3.65363       0.0956036        0.932925
LJ         -0.539099        0.623657         1.65413
LJ           5.04651         5.59748         6.09914
LJ          -3.86101         2.69379        0.779236
LJ           2.03423        0.709917         3.83393
LJ         -0.385772         5.64168        -3.36017
LJ          -2.75508         2.39059        -0.19075
LJ          -1.23292         1.53243        -2.09278
LJ         -0.305024        -3.92504        -1.25958
LJ          -1.02491        -4.44464          2.5412
LJ          -6.03517        -6.11741        -6.35605
LJ          -4.27776         1.78215         3.19994
LJ           1.95179         -4.8462        -3.29285
LJ         0.0367613        -5.89017         4.17762
LJ           1.94023        -1.44104        0.518593
LJ          -5.70721         4.63127         5.46215
LJ           5.23053         2.75911        -3.31534
LJ           1.78638        -6.19111        -2.00642
LJ            1.2187         0.59193        -6.24312
LJ           1.28874        -5.76904        -2.87796
LJ           5.79511        -2.24589        -2.39504
LJ         0.0160878        -5.10895        -1.12582
LJ           1.34331        -5.69111         2.37268
LJ         0.0753433         2.75284        -4.30311
LJ           5.56375        -5.36734         -2.5648
LJ           3.22387        -5.08086        -4.73225
LJ        -0.0605951        0.722712        -6.39743
LJ           4.59179       -0.782975        0.255266
LJ           3.39367        -4.52575         4.08836
LJ          -2.27397        -6.39747        -1.68007
LJ           0.61705       -0.297832        0.953334
LJ          -4.14852        -1.29775         -1.3473
LJ           2.25638        0.608994         6.29142
LJ              6.07        -4.32816         -4.8577
LJ           2.12566        -2.87037         1.15869
LJ          -1.73344        -2.55747         3.59278
LJ         -0.631853       0.0255284         5.43275
LJ          -3.70265        -3.41936         5.76351
LJ           4.38088        -6.19396         -4.9903
LJ          -3.20607       -0.926699         1.35468
LJ          -1.80056         5.69955         -1.8078
LJ           2.19155        0.791969        0.200225
LJ           3.27971         5.75495        -6.21892
LJ          -2.81906        -4.35914        -3.65145
LJ           6.41765        -5.85782        -1.78245
LJ          0.367047         1.59418        -6.02786
LJ           -2.5489         5.61549        0.569003
LJ          -1.15729         5.80909        -2.67143
LJ          -1.97862        -4.87016        -5.14516
LJ          -2.75196         4.85163         6.28279
LJ        -0.0632754        -2.63574         2.79147
LJ           2.83056         1.26635         4.55381
LJ          -3.94492         1.17385        -4.33164
