108
#Comment!
LJ           5.75325        -4.17854         4.74876
LJ          -4.17708         5.64751        -4.57629
LJ          -2.23217         2.52576         2.16917
LJ           3.89448        -2.62088         3.77227
LJ           3.21794        -1.81546         -3.3405
LJ          -1.16592         1.24115         3.46538
LJ          -4.92998        -3.78545        -5.36038
LJ           6.26215         4.98333         3.46662
LJ           -3.2232         2.90893         2.83375
LJ           3.03929         3.85222        -5.61708
LJ          -5.79059        0.640399        -5.81362
LJ          -2.18594        -4.07665        -5.59475
LJ           2.22766         4.85623        -3.68631
LJ           -4.8543        -3.09673         1.25648
LJ           2.89934      -0.0866665         1.23406
LJ           5.57342         3.27218          3.2049
LJ            2.0831         2.00186        0.581219
LJ          -5.18499        -3.92913        -6.35152
LJ          -1.90629         0.93009         4.44056
LJ            4.3217         1.45562         1.66547
LJ           2.54891         4.34825        -1.11557
LJ          0.193607         2.57215          6.2191
LJ          -5.94751        -3.74235         6.01335
LJ           3.53839        -3.37653        0.802381
LJ          -2.53843         5.69985          5.0091
LJ           2.62864         5.46067          2.8105
LJ            5.7359         1.50161         5.32793
LJ          -2.26408        -6.45586        -1.28139
LJ          -2.80179         4.84324        -1.07582
LJ           1.94897         5.12137         -2.5455
LJ         -0.140356       0.0355843         1.62551
LJ          -5.91259        -6.24534         1.57422
LJ          -1.84905        -5.41887         1.78983
LJ          -1.65351        -4.69356        -4.72542
LJ          -1.14449        -6.05592        -4.68247
LJ           1.71711         6.05802         2.06979
LJ           2.36728        -5.79334        -6.34779
LJ          -1.67868        0.553353         1.24965
LJ          -3.39398        -4.16625        -5.54002
LJ             6.075       -0.527461        -5.71563
LJ           1.04422         1.52707        -3.21785
LJ           4.73956        -4.09683        0.212496
LJ           6.00692         6.27342        -4.81692
LJ          0.362493        -4.69684        0.111011
LJ          -2.77801         3.06847         6.35176
LJ           4.17677      -0.0456026        0.783142
LJ           3.15343        -2.82985         5.34523
LJ         -0.219542         -5.8483         3.74504
LJ           1.07596        -5.74088        -5.47078
LJ         -0.155198          5.0345       -0.515029
LJ          -3.21974        -5.39236         -3.7439
LJ           5.24796         -3.0955       -0.778129
LJ          -2.86295        -3.13187         1.58254
LJ          0.764932         4.03371       -0.008299
LJ          -5.60195        -2.69805         -6.3851
LJ           3.05591        -5.59381        -4.13066
LJ          -4.91064        -5.61902        -2.10006
LJ           1.72926        -4.22635         -3.1215
LJ          -4.47213        -6.01273       -0.450336
LJ          -4.16121        -3.62719        -3.49181
LJ          -5.43882         1.31694        -1.39039
LJ           2.51407       -0.699775        -4.38725
LJ           6.15953        -3.71172        -4.55426
LJ         -0.283264       -0.725536         5.63025
LJ           6.10388         3.60415        -3.59187
LJ            6.1236          4.6068        -2.00066
LJ         -0.972108         6.19996       -0.162026
LJ            4.9634        -4.96683        -5.22794
LJ           6.08338        0.785474        -5.93002
LJ         -0.580695         3.21966        -3.16128
LJ         -0.557131        -1.27929         3.36555
LJ          0.518941      -0.0836071         4.04476
LJ          -6.11112        -6.10423        -4.14309
LJ           1.40042        0.408887        0.391636
LJ          -2.15302         1.14117        -4.85908
LJ           5.41435         4.44267          2.7718
LJ          -2.20594        -3.90354       -0.399547
LJ          -4.68787         5.06006        -6.21494
LJ           1.60509         3.70128        -4.58781
LJ           3.14128        -3.24553        -3.29586
LJ          0.422447        -4.96895        -3.32114
LJ          -3.40071         1.75698         5.44056
LJ           2.50825        -2.86742         1.09795
LJ          -4.16313       -0.245763        0.396124
LJ           4.23601         2.35568        0.162861
LJ         0.0777038         1.09548        -4.25564
LJ           4.21929        -5.59602        -6.23321
LJ          -4.61414        -6.40991        -3.86706
LJ          -3.92915        0.795207         6.42926
LJ           2.59683        -6.41219        -1.42963
LJ          0.346906        -4.03076         3.18091
LJ           3.32999         -4.4283       -0.190547
LJ           4.87597        -5.19308         4.95109
LJ           0.10925       -0.912707        -3.14653
LJ          -4.33838      0.00591292        -3.10243
LJ          -4.24549        -5.91322         3.78841
LJ          -1.20521         4.69092        -2.60596
LJ           -4.1928        -3.56274         3.98277
LJ           -6.1061        -1.18166        -4.00619
LJ           2.83256         1.24698       -0.258149
LJ           5.77863        -2.57808         1.12039
LJ          -2.93912         1.31809         3.95324
LJ          -1.11094         -1.3241        -3.45802
LJ          -2.44595          2.8379         1.07654
LJ            6.3173        0.254096         5.81193
LJ          0.221714         4.50063         1.44681
LJ          -4.53543        0.433826         3.62105
LJ           3.67838        -4.25652         -4.9139
