108
#Comment!
LJ           1.32163        -6.08253       -0.522841
LJ          -2.08625        -1.00214        -1.19482
LJ          -2.41671         5.82349         4.28173
LJ          -6.21239        -4.39383         -5.6746
LJ          -1.28264         6.30485         -2.4597
LJ          -4.76137      -0.0372951         2.32584
LJ           5.93773        -2.67451        -4.33963
LJ            2.2839         2.68804      -0.0417911
LJ           -2.6647         0.49898         2.80877
LJ           1.20239         2.48153        0.243769
LJ          0.162539        -3.81347        -5.62785
LJ          -6.06285        0.865633          3.2575
LJ          -4.74042         5.98088         2.87204
LJ          -4.83379        -1.34762        -6.08151
LJ          -2.64539         5.96403         2.72672
LJ            5.6353      -0.0430369         6.34681
LJ          0.884475        -2.14503        0.508484
LJ            2.9346         1.85789         1.02479
LJ           4.22852         4.76229        -0.59184
LJ           6.40052        -3.66893        -4.50654
LJ          -2.35496         5.29738        -6.18683
LJ           1.40418        -1.63982        -1.55021
LJ           -3.7712        -1.30494     -0.00165616
LJ          -5.30293       -0.607941        -4.09819
LJ         -0.234739         1.10026           1.217
LJ           6.22025         2.31958         3.35435
LJ           2.73007         1.55959     -0.00113448
LJ          -2.18816        -2.96138        -5.76144
LJ           -1.5478        -2.58111        -4.86461
LJ            5.5925         4.34447         -3.4516
LJ         -0.209898         -2.0408        0.565921
LJ          -3.44182          2.9794         3.42459
LJ           2.48105         5.82626         5.27134
LJ          -5.77133        -5.95759         6.21199
LJ           2.36865         3.92322         4.13779
LJ           3.04865       -0.582757         5.11688
LJ          -1.51591       -0.222434        -3.81585
LJ           -4.0641        -2.31437            1.57
LJ          -4.03386        -6.38647        -2.76002
LJ           2.67635         2.90439         2.58559
LJ          -5.09472         4.99755        -4.36413
LJ           2.59122        -4.70442        -5.44536
LJ           -3.1769       -0.822036        -3.62752
LJ           2.03093         2.73507        0.990536
LJ            4.5269         1.89878         -2.2338
LJ            1.0345        -6.44794         5.34756
LJ           4.12406        -1.14503       -0.602117
LJ         -0.757012        -5.50249        -2.67989
LJ           1.85521         3.53733        -3.05794
LJ         -0.378587        -5.25963         4.10183
LJ           1.93769         5.53965        -5.55654
LJ         -0.636612        -4.16989         6.36306
LJ           5.48671        -3.63349       -0.410741
LJ          -3.35617        -1.11044        -5.06494
LJ         -0.920058        -1.86275        -3.89365
LJ          -2.10837          2.4957         4.01876
LJ          -1.42125         1.80192        -2.29014
LJ          -2.86382         2.96249          5.4713
LJ           -4.2583         2.02023         4.66942
LJ          -3.64177         5.28089        -3.76657
LJ          -4.06119        -5.28363          2.7435
LJ           4.43413        -4.98104         -3.7608
LJ           3.75262         4.46209        -4.67058
LJ          -3.02393        -1.08324         5.00073
LJ          -3.52311        -1.93701         4.30918
LJ           -2.5171       -0.844663        -2.83658
LJ          0.890248        -1.58269         2.34576
LJ          -4.17616        0.529007       -0.167681
LJ          -1.46887        -0.41971         1.34104
LJ          -2.95089        -4.76317         1.14165
LJ          -3.26794         4.42864         3.53264
LJ           4.57877         3.99499         -4.0302
LJ          0.445293          3.6573         2.95731
LJ           2.56584         5.98368        -3.46985
LJ           3.13127        -3.52088         1.95241
LJ           1.16639         4.64601        -4.23949
LJ          -3.51187        -6.30471        -4.39257
LJ          -1.15115         4.87792        0.610532
LJ         -0.480246         4.87022         2.33785
LJ           1.04711          3.8288        -0.94923
LJ           3.72307        -3.54715         -2.0444
LJ          -2.93073         -3.1744        -2.85019
LJ          -3.53539        -5.71283        0.103983
LJ          0.019516         1.22081      -0.0312089
LJ          -2.63481        -1.82327        -5.15524
LJ          -2.43204         3.83947        -3.59154
LJ          -2.57201         2.88675        -6.36221
LJ           1.29852         3.67461        -6.27742
LJ           5.64412        -0.33852         -2.9756
LJ           4.81844         4.91849        -5.62891
LJ           -6.2934         1.18447         4.89869
LJ          0.354117        -2.32384        -1.24335
LJ          -4.97525          2.3675        -2.08005
LJ          -6.35963         2.05322        -4.96118
LJ          -2.76613         4.71812          5.5649
LJ           4.46878        -2.06337           1.637
LJ           5.83582        -4.97266        -4.37693
LJ          -1.55117        -6.33153        -3.93713
LJ          -4.54214        -4.94329        -2.47325
LJ          -3.62338        -3.97191        -1.13485
LJ          -2.81325         6.29075         -3.6365
LJ            4.5556         3.77687        -6.22918
LJ          -3.63818         3.21468         -4.7164
LJ           5.22037          1.5959         5.07149
LJ          -4.35321        -4.70364         1.33731
LJ         -0.859303        -5.39115          1.0112
LJ          -1.40529         -3.7329       -0.956394
LJ           3.88085         5.83518        -4.10296
