108
#Comment!
LJ          -5.10654        -3.62025         3.67578
LJ          -2.39016         5.79578        -4.63274
LJ           -1.1049         5.86609        0.668559
LJ            5.7151        -5.01149         4.85762
LJ           5.67547        -1.09461        -4.17581
LJ          -2.87149         1.92728         4.66869
LJ           5.49896        -2.08015        -4.60984
LJ          -5.06221         4.22932           -1.13
LJ          -6.13891         3.44145         2.56983
LJ           5.71763        0.170848        -4.91895
LJ          -6.10978        -1.31548         4.28009
LJ           -1.2987        -5.08735         5.96734
LJ           1.32771         3.29793        -5.90155
LJ            3.6352        -2.95171         0.98766
LJ          -6.11703        -1.96037        0.591628
LJ            4.1099         3.34714         2.00796
LJ            5.3768       -0.495799         3.23537
LJ          -4.96211        -5.55868          6.0774
LJ          -2.92924         2.07873         2.88907
LJ          -4.94845         1.09369         1.58123
LJ           3.99031         3.02187       -0.878537
LJ         -0.773358         3.98604         4.94131
LJ           5.98118       -0.034444         4.18623
LJ            5.1817        -4.76575        -1.51436
LJ         -0.713912         3.81847         6.19623
LJ           3.19172        -3.97478        -6.32457
LJ           5.14781         2.21859        -5.44525
LJ           -2.7696         4.68397        -1.65986
LJ          -2.89973         2.19461       -0.608694
LJ           5.34724         2.79956        -2.30719
LJ          -3.17119        -3.75336         2.66326
LJ           -6.4136        -5.54027        0.127134
LJ          -2.38371        -2.20916         6.13609
LJ          0.729385        -3.95155        -3.35946
LJ          -3.83942        -6.12078         6.45441
LJ        -0.0933453        -5.85714         1.66788
LJ          0.828375        -4.82835         6.31004
LJ          -2.95195         2.74793        0.749936
LJ          -0.63726        -3.32179         6.24594
LJ           3.17374         1.10247        -2.20393
LJ           1.36389         4.92363         6.34849
LJ           5.50367        -3.46165         0.29951
LJ           6.45583        -2.98166        -4.17154
LJ           1.74244        -3.83763       -0.776111
LJ          -5.56104         4.52206         5.33126
LJ          -5.30258        0.366838        0.883782
LJ           1.49455        -5.70135          3.9662
LJ           2.17918        -5.28158         2.23115
LJ           2.21537        -5.66249         6.31466
LJ            -3.534         6.36872         2.06463
LJ          -4.77698         6.08365        -3.71185
LJ           4.59514        -5.97358        -1.10856
LJ          -1.76998        -4.28387        -0.33928
LJ           1.29322         5.20389       -0.569846
LJ          -4.56983        -3.50309         5.29469
LJ           2.76166         5.56018        0.865379
LJ          -2.81981         5.07377        -2.92247
LJ           5.65967         6.08414         -0.9023
LJ          -4.07082        -4.26127         4.47934
LJ          -5.72986        -5.21736       -0.487324
LJ           4.21667         4.22416        -1.36372
LJ           2.90601       0.0316914        -4.68686
LJ          -5.37751        -3.33027        -5.00151
LJ         -0.283883       -0.698782         5.84179
LJ          -6.35119         5.72067       -0.989421
LJ           3.24678         3.57634        -2.52665
LJ         -0.307607          5.3849       -0.283268
LJ          -5.41578        -4.98549        -2.75331
LJ           4.91449         1.82094         5.75663
LJ          -4.00996         3.54661        -1.43871
LJ          -1.11291       -0.833453         1.04796
LJ           2.36378        -0.79409         3.25781
LJ           3.14619        -5.08752        -3.90229
LJ         -0.533691        -2.33021       -0.574064
LJ          -4.97475         3.03003        -3.69384
LJ           5.15805         4.40009         1.45586
LJ          -2.13911        -3.39493         1.52906
LJ          -4.18796         5.38356        -6.29946
LJ          0.724859         5.57269        -4.74667
LJ           4.04724        -1.01079        -2.88941
LJ          0.797293        -4.97127        -2.45668
LJ          -3.88495         1.25221         5.12829
LJ          -6.22281        -1.97249        -1.57925
LJ          -3.71967         1.83709        -2.93881
LJ           3.19579         3.12003         3.21768
LJ           1.85258        0.210937        -2.16025
LJ           5.04091          5.0624        -3.66403
LJ          -3.11288          4.9764        -5.61037
LJ         -0.363459         2.36817          4.8053
LJ          0.155996         5.78696        0.937925
LJ          0.189966        -4.68301         5.55798
LJ           6.01329        -4.64745       -0.430262
LJ           4.03321        -5.37882          2.8582
LJ          0.901838       -0.456559        0.306958
LJ          -4.27058        -1.65737         6.46259
LJ           5.81033        -5.89007         1.03201
LJ           2.12733         5.84224        -4.15272
LJ          -2.81995        -4.29959         3.80653
LJ           3.22196         1.71245        -3.56931
LJ          0.428262         1.91231        0.742725
LJ           3.50435        -5.31725        0.409497
LJ          -1.74709         1.61064         4.60222
LJ          -4.81121        -3.31463        -5.93091
LJ          -4.47111         4.68892         1.58317
LJ           6.40523        0.998826        -6.07486
LJ         -0.345037          3.2874       -0.288121
LJ          -4.35206        -1.32025         5.14001
LJ           1.87809        -5.75755        -3.38799
