108
#Comment!
LJ           3.56475          1.3557          4.8972
LJ           1.48729         6.07944         1.00427
LJ           3.34449         2.38442         2.10229
LJ          0.997672         6.46052         4.33271
LJ            3.0797        -5.74418         6.19956
LJ           3.14076         4.80361        -4.52588
LJ           1.20189         1.12301          5.3682
LJ           3.58207        -3.81365       0.0319905
LJ          -1.00419        -2.15597         4.07682
LJ          0.830854          1.1916         1.28786
LJ           4.85192       -0.126859        -3.27827
LJ          -1.59405         2.80141         5.97488
LJ          -3.18891        -3.42318         0.91455
LJ          -3.81727         4.97852        -4.13881
LJ          0.345993         1.35094         6.11928
LJ         -0.659654        -1.72455         1.59338
LJ           2.57479        -2.96897        -1.18435
LJ         -0.465483        -1.26859      -0.0277889
LJ           4.11247        -3.50505        -5.01668
LJ           1.64525         1.31234        -3.85049
LJ           2.93993        0.143196         4.02939
LJ          0.541429           1.743       -0.492903
LJ           4.36988        -3.38284          1.3155
LJ          -6.21116        -3.96499       -0.996173
LJ          -1.89651        -0.11931         2.97331
LJ           5.13116         -5.6779          5.3254
LJ           3.50227        -1.80891         -2.6544
LJ          -2.68641         5.47597        -2.26629
LJ            6.2469        -1.89031        0.715156
LJ           3.30082        -4.36976        -1.34615
LJ           2.69432         5.07501        0.705997
LJ           4.93977         2.83323          0.6846
LJ          0.444609        -3.06576           4.419
LJ          -1.01862         3.60178        0.413086
LJ          -5.10482         1.59137        -4.59262
LJ           1.76437         4.94152         2.65975
LJ          -2.91562       -0.249511         3.89628
LJ            6.2908        -5.33157        0.604682
LJ          -1.53077        -5.52014         4.93431
LJ           2.29775        0.814062           3.647
LJ           5.66314         3.10073       -0.465037
LJ          -2.01421         1.70826         4.80449
LJ          -4.69401         1.58992         4.85493
LJ            2.0752         3.86752        0.354212
LJ          -5.41227          2.4504        -5.97069
LJ            2.4502         6.10709        -4.07297
LJ          -2.11231        -1.51579         3.16017
LJ          -3.43453         6.28111         -2.7563
LJ          -3.69636         1.20179       -0.887016
LJ          -4.70462       -0.808683        -1.01851
LJ          -5.09181       -0.835399      -0.0605732
LJ           -2.1637        -4.33057         5.82205
LJ           5.85237        -5.52756        -6.27591
LJ           1.58494        -5.11005       -0.261188
LJ          -2.48475         4.66734        -3.39828
LJ           4.38447         1.64441         0.30725
LJ          -1.87901       0.0580396         1.25061
LJ           2.89365         5.34547        -2.55506
LJ          -6.05723         1.26442         2.86832
LJ          0.791285        -2.50824         1.81495
LJ           1.22194        -4.19712        -1.43769
LJ           2.35426         2.89947        -2.08721
LJ           1.18078         2.94688        -4.58813
LJ          -1.03854        -4.79477           2.329
LJ          -1.54569        -3.64711         1.87857
LJ          -6.34345        -2.91156         5.05321
LJ           5.89595         1.33469         0.99865
LJ          -4.97643        -2.65521        -6.22353
LJ          0.201333           4.703         4.32594
LJ          0.236742         2.19501        0.957845
LJ           -2.7206         2.62009         2.24774
LJ           3.73417        0.570157        -3.64717
LJ           2.25489        -4.38011        -1.34675
LJ          0.652631        0.957815        -5.67534
LJ          -6.38437         3.67582        -3.66111
LJ           4.43683       -0.634482        -1.66638
LJ          -1.22351        -4.55362        0.935093
LJ         -0.280258        -2.06959         5.98102
LJ          0.503547         2.16724         -2.2693
LJ           3.34622        0.915862        -2.15717
LJ           6.08774           5.928        -3.86119
LJ            1.3865         1.38454         6.32319
LJ           2.62009       -0.571369         3.08026
LJ          -5.10736         6.19826         3.53881
LJ          -2.62049        -4.41208        -2.98877
LJ            3.1253        -0.45969         1.03126
LJ          -1.16996        -2.81848         3.15169
LJ           1.11017          1.4729          -4.804
LJ           4.99901         6.38303        -3.97121
LJ           1.20953        -5.25015         3.25841
LJ         -0.964423        0.502992         4.51828
LJ          0.607747      -0.0681603        -4.53878
LJ          -3.31946         0.56175        -5.96522
LJ           4.27483         5.62405        -6.10241
LJ          -4.68347        -1.30884         3.05777
LJ          -3.74621        -6.08976          0.2517
LJ           4.26752         3.57934          1.1474
LJ           4.37335         4.65255        -5.39518
LJ          -4.08916        -5.69136        -4.08045
LJ           -5.0902       -0.475607         2.43955
LJ           3.15113         4.03895        -3.08071
LJ          -5.16227         5.11023        -1.92453
LJ          -1.53856         2.72534       -0.557343
LJ          -3.57665        -1.79976        -5.55549
LJ          -4.54928        -2.27761          4.3723
LJ         -0.545868         1.53095            4.51
LJ           4.17499        -1.50606         1.38776
LJ          -6.42198         1.61125        -3.17153
