108
#Comment!
LJ          -1.30918        0.711969        -2.57907
LJ          -2.30306       -0.839306        0.964332
LJ          -5.80563        -2.16133         4.54429
LJ            -5.476        -6.10483        -4.90011
LJ           -6.1709         5.97477        -2.56932
LJ          -2.25032        -3.83976          4.6227
LJ          -5.63993        -5.45102        -4.01015
LJ           4.04511          6.2409       -0.779657
LJ           5.48013        -1.52139         3.04101
LJ           1.83234         3.08662         1.21709
LJ         -0.907444        -1.78673         1.87809
LJ           3.76145         1.70558         3.49889
LJ           3.49072         4.96455        0.998079
LJ           -1.2302        -2.51588         6.21358
LJ           5.67712         3.27844          4.9242
LJ          -5.86766        -1.98623        -5.11468
LJ          -1.81918         5.97487          0.2453
LJ           2.56363         1.28562         2.14788
LJ           3.52308        -4.59081         4.27543
LJ          -6.37465        -5.88679        -3.20548
LJ          -0.90607         0.38312        -5.58108
LJ           1.91617         1.44207        0.390308
LJ         0.0685286         1.76564        -2.60452
LJ          -4.64911        0.933453         5.83682
LJ           1.19214       -0.599486        -4.39211
LJ           5.61667        -2.27196         0.70467
LJ           2.45054       -0.496836       0.0341506
LJ          -5.87534         1.25533        0.641187
LJ           1.51045         5.45379       -0.396062
LJ           2.06149         1.28404        -5.49271
LJ           1.50241        -5.71785         2.53818
LJ          -1.98619        -5.81099        -3.59956
LJ           -5.6072        -4.35672        -4.45288
LJ           2.76439        -2.52566         3.92505
LJ          -3.65482         4.90124         5.98753
LJ           3.11204         4.66598         6.45003
LJ           1.97089       -0.205819        -2.03686
LJ           3.49281      -0.0736084        0.102572
LJ          -5.29786         2.37532        -3.63641
LJ           2.76593         2.03724         4.09772
LJ          -1.68334         1.98079         4.04826
LJ           1.18312         4.38655        -2.21352
LJ          -3.96336        -4.13848         4.91325
LJ           3.34648         2.70481         3.34295
LJ           2.43737        0.566542        -2.47398
LJ           3.53714         5.93814         4.52999
LJ           1.41108       -0.347075         2.72495
LJ          -0.54761         3.41963        -2.64645
LJ           1.56494         5.50897         2.35364
LJ            1.0169         6.14574        -6.18559
LJ           3.31196         1.73879        -4.72795
LJ          -1.51855        -4.76805         3.43637
LJ          -3.38041         5.41823        -3.67733
LJ          -3.27869        -2.64044         6.43623
LJ          -1.86324         1.16331        -3.47055
LJ          0.803898         4.63226         6.34321
LJ           -1.2232         2.16881          6.1134
LJ           4.83743         0.55033         5.63161
LJ          -4.95759         -5.8045          4.8438
LJ           -6.1835        -5.29366         4.39141
LJ           1.08407         1.84296       -0.372391
LJ           4.23175        0.503953        -3.69801
LJ          -6.30713        -3.54076         4.71468
LJ          -4.95868         0.25292          5.1155
LJ          -5.08604        0.818613         1.76385
LJ           -3.4247        0.065926        0.148603
LJ          -1.72428        -2.29981         -4.0501
LJ         -0.287748         1.28931        -1.17561
LJ          -4.68375        -1.45824       -0.345508
LJ           1.63629         4.06792       0.0644233
LJ          -4.32345         3.43276         5.09906
LJ           5.67695          1.7042        -3.81482
LJ           3.31007        -6.36335         2.71468
LJ         -0.637306        -4.28928         6.33481
LJ          -3.38924         3.95163        -2.08481
LJ           2.44077         5.73974         3.09265
LJ          -4.65129         5.43597        -6.42337
LJ         -0.363066        -5.09872        -1.64063
LJ            2.6078        -1.70759       0.0913495
LJ           1.77958        -6.34686         1.31858
LJ         -0.905812        -4.85254        -4.38388
LJ           6.08721        -5.07301        -3.92454
LJ          -1.38504         2.88021        -2.39644
LJ           1.05571        0.343433        -4.79073
LJ           1.02627        -3.59596         4.55337
LJ          -3.15874         1.15635         2.44729
LJ          -4.12474          1.6297        -5.48118
LJ           1.54686         2.92451         6.40244
LJ           2.56284        -1.89076        -2.16435
LJ          -5.47623        -3.48467        -5.43464
LJ           1.87397         1.30448          4.6186
LJ           3.36786        -4.57336         2.53623
LJ           1.85514        -3.50007        -2.69153
LJ          -3.56002        0.129385        -3.81249
LJ          0.519109          0.4423        -1.95988
LJ           3.15828         1.29915         1.20313
LJ          -4.99128         -2.5205        -4.90191
LJ           -5.0972         3.63821         -3.5291
LJ         -0.311239        -6.02318       -0.850905
LJ          -3.58768        -1.62601        -5.00179
LJ          -1.20228         2.14228        -5.59602
LJ          -5.08532         2.74131         3.49404
LJ           5.98723        0.309671        -6.06743
LJ           5.41459         1.50113         3.78505
LJ          -1.58095         1.16958         2.21096
LJ          0.197033        -6.05383        -1.73888
LJ             3.427        -1.29247         1.10555
LJ           4.62218          5.0284        -2.73615
