108
#Comment!
LJ         -0.691446       -0.307663        -1.83676
LJ          -2.40161        -0.74823       0.0215405
LJ          -5.28856        -2.97583         4.43219
LJ          -5.72097          -6.168        -4.76194
LJ          -5.09817        -6.13072        -3.21709
LJ          -2.99939        -2.96036         4.99179
LJ          -5.07789        -5.20787        -3.62615
LJ           3.78472         5.58011       -0.536216
LJ           3.62483        -1.30708         2.46162
LJ           2.45719         2.74285         1.97571
LJ           -1.3266        -2.21357         3.04052
LJ           3.55049         1.17035         2.96786
LJ           4.29878         5.11784         1.34775
LJ          -1.59027        -2.18965         6.32338
LJ           6.45178         3.94108         4.18416
LJ          -5.68028        -1.83303        -6.01591
LJ          -1.13508        -6.33537        0.210738
LJ           2.27543         1.78699         1.54638
LJ            3.8986        -3.77294         3.70977
LJ          -6.39705        -6.07917         -3.7592
LJ         -0.795702         1.15031        -5.71345
LJ           1.76122         1.97969        0.507648
LJ         -0.785302         1.45521        -2.00348
LJ          -4.61039        0.670128         6.25576
LJ           1.35707       -0.646857        -3.63808
LJ           5.77633        -1.55215         1.14504
LJ           2.47375      -0.0532611       -0.318238
LJ          -5.17188        0.516644       -0.740935
LJ          0.989086         4.21378        -1.25118
LJ           3.08297         1.73829          -5.535
LJ           1.40015        -4.90811         1.99425
LJ          -1.89817         5.86473        -4.53925
LJ           6.11722        -5.19074        -5.23491
LJ            2.2018        -3.58328         3.69008
LJ          -3.16909         4.47628         5.46227
LJ           3.28512         3.80908         6.13588
LJ           1.08664       -0.186956        -2.02402
LJ           5.12005           0.128       0.0803195
LJ          -4.79058         3.49343        -4.15413
LJ           2.65952         2.58597         4.01732
LJ           -2.3062         2.48129         4.82008
LJ           1.23829         4.98763        -2.83881
LJ          -3.52565        -3.96895         5.18974
LJ           3.06029         2.02356         2.74645
LJ           2.85921        0.686431        -2.16547
LJ           3.26262         5.70818         4.88172
LJ           1.77543        -2.00296         1.96108
LJ         -0.725748          4.3723        -2.53987
LJ            1.4949         5.14768         1.38893
LJ          0.799123         6.39906         6.35409
LJ            3.4304         1.74538        -4.42317
LJ         -0.264909         -4.4417         4.02323
LJ           -3.9002         3.83077        -3.01829
LJ          -3.78477        -2.40605        -5.90424
LJ          -1.92265         1.58943        -4.28146
LJ         0.0825696         3.85793         6.14759
LJ          -1.32986         2.39711        -6.13533
LJ           5.56767        0.966708          5.4126
LJ           -4.6709        -6.45348         4.66159
LJ          -5.38299        -5.88879         3.19107
LJ          0.475942        0.500111        0.446998
LJ           3.73904        0.275477        -4.04064
LJ           6.18927        -4.28932         5.15021
LJ          -4.72239      -0.0450878          5.4777
LJ          -4.81037        0.477191         2.57382
LJ          -3.30718       -0.155081        0.194736
LJ          -1.35646        -2.35617        -2.29458
LJ         -0.789045          1.0275        -1.06181
LJ          -4.22393        -1.28117       0.0983237
LJ           1.39004         3.09084        0.465269
LJ          -4.21167         3.88969         5.17126
LJ            5.0571          2.0073        -4.10146
LJ           2.68241        -6.15987         2.25245
LJ           0.15325        -4.59003        -6.04443
LJ          -4.42648         4.90049        -1.33921
LJ           1.83574         5.58691         4.02016
LJ          -4.49473         5.65857        -5.70379
LJ         -0.587505        -5.39111        -1.42394
LJ           1.58653       -0.866055        0.853926
LJ           2.16993        -5.77682         1.45774
LJ           -0.3745        -4.81482        -3.46431
LJ          -6.45038        -4.66827        -3.76075
LJ          -2.26953         3.41009        -2.04563
LJ          0.862956        0.569353        -4.11094
LJ           0.73542        -2.83449         3.89895
LJ          -3.43926        0.881787          1.4605
LJ          -3.75901         1.53234        -5.86214
LJ           1.62598         3.25827         6.21856
LJ           3.15852        -1.67577        -2.16518
LJ           -5.8065        -4.10351        -5.04536
LJ           2.63281         1.18078          4.7671
LJ           2.39154        -4.23357         2.76955
LJ           3.15412         -4.5695        -2.42253
LJ           -4.0573        0.490841        -3.90403
LJ           2.19375         1.48697        -2.48322
LJ            3.2333        0.687838         1.04997
LJ          -4.78488        -2.49529        -5.39804
LJ          -5.01184         4.01713        -3.13859
LJ          -1.66313        -6.02736        -1.25914
LJ           -3.8211        -1.30629         6.12132
LJ           -1.5408         2.67598        -5.02792
LJ          -5.72589         2.84467         4.35467
LJ             -5.99       -0.118083        -5.99325
LJ           5.52351         1.53002         4.12586
LJ          -1.93378         2.39013         2.06376
LJ          0.478973        -5.80489        -1.54423
LJ           2.72576        -1.52461        0.977934
LJ           4.46431         5.15213         -2.9399
