108
#Comment!
LJ          -4.05208         -3.8479         2.91954
LJ          -2.08062         5.78505         -4.7266
LJ         -0.426985        -5.15399        0.114274
LJ          -6.32281        -5.86394         5.37746
LJ          -5.97258        -2.53239         -2.5098
LJ           -2.5018         2.12385          4.3625
LJ           5.18919        -2.58808        -3.87692
LJ          -5.18925         4.55159        -3.24104
LJ           5.49828         3.69682         2.34456
LJ          -6.26712        0.496519        -4.18109
LJ          -5.93918        -1.89081         2.93064
LJ          -1.66673        -5.14291         5.74233
LJ          0.754234         2.75455         4.92246
LJ            1.7898        -3.12026        0.508499
LJ          -4.50608        -2.86036        0.182877
LJ            3.2396         3.64809         1.56109
LJ           5.18777        -1.54288         2.54076
LJ          -4.84188        -5.75125         5.22504
LJ          -2.54421         2.96099         2.30051
LJ          -3.28898         1.19657         1.67447
LJ           5.41906          2.5894        -1.45205
LJ          -1.47117           4.118         5.37506
LJ          -5.71626         1.50075         5.24868
LJ           6.46268        -6.19647        -1.80528
LJ          0.210112         4.35525         6.22416
LJ           3.14687        -2.40825        -4.76332
LJ           5.20647          1.6583         -4.7987
LJ          -3.48514         3.57978        -2.01658
LJ           -2.5639        0.730153       -0.468048
LJ          -6.35516         2.41401        -1.61841
LJ          -4.09797        -5.39421         3.26631
LJ            5.6838        -5.24605       -0.458891
LJ          -2.78819       -0.935143        -4.89658
LJ           1.75414          -3.676        -3.06707
LJ          -4.68105         6.07406         5.83747
LJ         -0.911223        -6.06785         1.07531
LJ            1.4381        -5.07583        -5.97395
LJ          -3.51959         3.04001      -0.0851971
LJ          0.626777        -3.28528         5.29488
LJ           2.30434          2.0102        -1.39299
LJ           1.62353          6.0655         5.55563
LJ           5.35593        -3.15967        0.466987
LJ           -5.6813       -0.706632        -4.05228
LJ           2.49322        -4.87229       -0.875854
LJ           6.23316         5.27761         5.01287
LJ           -3.8817         0.27456        0.818627
LJ          0.479485         5.13611         2.35125
LJ           2.86943        -4.95468         1.29124
LJ           2.14322        -4.92611          5.6682
LJ          -4.91063        -6.03468         3.06724
LJ          -5.33804         5.39815        -3.70736
LJ            4.7806         5.89513       -0.457211
LJ         -0.694795        -4.60789        -0.85657
LJ           2.11252         5.41679       -0.791624
LJ          -5.00362        -2.49906         6.36905
LJ           2.84284         4.90428         2.71287
LJ          -2.10338         4.79521        -3.63012
LJ           5.36945         6.42007        0.475443
LJ          -3.21304        -4.12017         5.61332
LJ          -5.21885        -3.62856       0.0254653
LJ           2.32672          4.7525        -1.57519
LJ           3.18015        0.549571        -4.71683
LJ          -4.95942        -3.46388        -5.33768
LJ         -0.478665       -0.775047         6.18127
LJ          -5.19776         3.81962       -0.103316
LJ           2.93764         2.64611        -2.99046
LJ          -1.30904         5.71161        0.979743
LJ           -4.8742        -5.14081         -1.2591
LJ           4.06765         2.71126         5.60728
LJ          -4.13077         2.93042       -0.858212
LJ          -1.44989       -0.736243      -0.0987611
LJ           3.32196        -1.03256         2.63926
LJ          0.916473        -4.21493        -4.01662
LJ          -1.14721        -3.38089        -1.07556
LJ          -6.07778         3.88577        -3.03408
LJ           4.77066         3.94819         1.09653
LJ          -2.90707        -3.65305         2.61958
LJ          -3.75774         5.25099        -6.14049
LJ           1.23482        -6.40919        -4.07549
LJ           3.62823        0.381824        -2.49336
LJ           1.37337        -5.33643        -2.25681
LJ          -3.55737        0.728607         5.06833
LJ          -4.36669        -1.89062        -2.57436
LJ          -3.59159         2.87259         -4.3793
LJ           3.38217          3.5621         4.25985
LJ           2.76207       -0.412948        -2.53743
LJ            5.4389         4.19084        -2.37573
LJ          -2.24846         4.46121        -6.25233
LJ           0.98935         1.94381         3.15627
LJ          -1.73458         6.02949         1.89371
LJ          0.119318        -4.49388         5.86171
LJ          -6.02276        -4.79197       -0.824964
LJ           3.87122         -5.7984         2.06705
LJ          0.737355         1.16206         1.60405
LJ          -3.87147        -2.96442        -5.43217
LJ           4.04967        -6.25791       -0.128803
LJ           2.60521        -5.96857        -4.76893
LJ          -2.30234        -4.68755         2.85162
LJ           1.21064         2.68908        -2.98473
LJ         -0.505861         2.66373         2.43659
LJ           3.09108         6.38284       -0.265686
LJ          -2.52113         2.12993           5.731
LJ           6.41444        -4.17231         5.69894
LJ          -5.61978         6.07015         3.13606
LJ            6.0418         1.87836         6.44768
LJ         -0.611992         2.87972        -1.01847
LJ          -4.62655        -1.66703         3.58122
LJ           1.17684        -6.22481        -2.85328
