108
#Comment!
LJ           1.06421        -3.96926        -1.14251
LJ          -2.83288       -0.360949        -1.30218
LJ          -3.58856        -5.45061         4.34461
LJ          -5.36309        -5.24426        -5.74666
LJ          -2.50695        -6.26533        -3.65705
LJ           -4.4026        -1.31473         3.45857
LJ          -5.95399        -3.01634        -4.07706
LJ           2.80568         3.51375        0.394194
LJ         -0.934475       -0.244365         1.36476
LJ           2.35263         3.06744         1.20443
LJ         -0.919385        -3.26285         5.46389
LJ           5.30646       -0.584748         3.03419
LJ          -6.31683         5.63235         2.26934
LJ          -2.96033        -1.53633        -6.42179
LJ          -3.42022         4.76494         2.88056
LJ           -6.2538        -1.14043         6.28244
LJ          0.247385        -4.35228        0.426178
LJ           2.59776         2.07288         1.45845
LJ           4.12227        -4.94054         1.36228
LJ           6.31909        -4.78635        -3.64687
LJ          -1.24187         3.60078        -5.89972
LJ           1.27326       -0.717311       0.0735922
LJ          -2.94212        0.100666        0.201072
LJ          -4.96195       -0.211332         -4.9832
LJ          0.587416        0.364164       -0.646067
LJ           6.17992        0.763596         2.37633
LJ           2.68252         1.06601       -0.451886
LJ          -2.85682        -1.82946        -4.72649
LJ         -0.428928       0.0649413        -3.74186
LJ           5.05502         3.67378        -5.34523
LJ          0.534683        -2.90036       -0.101251
LJ          -2.31228         3.70001         5.13726
LJ            4.1784         5.38181         6.42125
LJ           4.51933        -5.06223         5.24347
LJ         -0.480616         3.92914         4.23182
LJ           3.19085         1.03878         5.42084
LJ         -0.930095       -0.349735        -2.81414
LJ          -4.43229       -0.486868        0.642928
LJ          -3.19965        -6.31929        -2.63339
LJ           2.69536         3.30957          2.3496
LJ          -3.95349         4.46155         -5.7062
LJ           1.30316        -6.13665        -4.45129
LJ          -3.75158        -2.30795        -5.65224
LJ           1.80893         2.40469         2.07656
LJ           3.80494         1.36031        -1.98894
LJ           1.51796         5.77397         5.20044
LJ           3.15161        -3.07047       -0.385625
LJ          -1.67968        -6.14166        -2.19139
LJ           1.62607         4.16209        -1.40153
LJ          0.373624         -5.9889         5.14638
LJ           2.62485         4.11207        -4.93878
LJ          -1.11231        -3.41481        -6.33425
LJ          -6.03211       -0.693832        -1.42629
LJ            -3.366        -0.92055        -5.27107
LJ            -1.234        0.624066        -5.38924
LJ          -1.39557         2.10746         5.36202
LJ          -1.56507         2.51627        -3.90564
LJ          -4.71767         2.02864         5.57786
LJ          -3.72627          3.7092         4.44821
LJ          -3.64758         5.51188        -0.73242
LJ           -2.2883        -3.03774          1.9943
LJ            3.4998        -2.90049        -3.13343
LJ           4.90001         6.23482        -6.28452
LJ          -3.81236       -0.573568         5.32326
LJ          -3.77018       -0.683158         4.20589
LJ          -2.03553        -1.16352        -1.39819
LJ         0.0313322        -1.90839          2.1262
LJ          -2.17112        0.811302        0.438924
LJ          -2.78807        -1.22522         1.01696
LJ          -1.08843        -6.45927        0.933241
LJ           -4.6763         4.48563         4.34116
LJ           4.28152         2.76366        -4.10229
LJ           1.88322         4.24036         2.44353
LJ           2.43132         -5.7576        -4.45378
LJ           5.41749        -5.25757        0.603154
LJ          0.974269         5.19721         -5.8452
LJ          -4.72352         6.25234        -4.75774
LJ         -0.960255         5.65321        -0.36241
LJ         -0.137576         2.85304         2.76777
LJ           1.71935         6.18246       0.0134212
LJ           2.11514        -3.76464        -1.92802
LJ           -4.3264        -4.30149        -2.86048
LJ          -4.76208         5.20644        -1.32456
LJ          0.444938        0.978611        -1.69445
LJ         -0.718421        -1.81501         3.95532
LJ          -3.74587         2.33879        -1.39038
LJ          -2.90386         2.22231        -5.81976
LJ           1.69081         3.93068         5.97239
LJ            4.7269       -0.852101        -2.51149
LJ           6.40252          6.2453        -5.07723
LJ           4.82864        0.844757             5.2
LJ           1.45159        -2.30544        0.687695
LJ          -5.81551         5.13404        -1.67916
LJ          -5.47716          1.5441         -4.4039
LJ          -5.83054         3.47045         -5.1108
LJ           3.72853       -0.904962         1.28562
LJ            6.4349        -3.58125        -5.60132
LJ          -3.34981         5.38531        -3.90264
LJ          -3.40802        -5.37041        -2.21659
LJ          -3.92263         -2.8289         1.54137
LJ          -2.20598         4.40377        -3.82711
LJ           4.83381         4.13916          6.4317
LJ          -3.49548       0.0464513        -5.93994
LJ           5.42799         2.00545         4.46705
LJ           -3.1659         5.96856         1.63287
LJ         -0.967566        -5.51088       -0.669351
LJ         -0.445325        -3.40222        0.432639
LJ           4.02272         5.58612        -3.50404
