108
#Comment!
LJ           1.50737         4.94452        0.100301
LJ          -1.02904        -2.21503        -1.35281
LJ          -1.69552         4.68855         2.93438
LJ            5.6425        -4.60822        -6.08842
LJ         -0.335907        -6.27976        -1.86957
LJ          -6.19685         1.42479         3.42505
LJ            4.8434        -2.48449        -4.38529
LJ           1.68653         2.89594        -1.59869
LJ          -3.11467        0.973432         4.82724
LJ          0.658952         1.78414        0.539367
LJ          0.385898        -4.43498        -4.24583
LJ          -4.44073         1.96197         3.36846
LJ            -2.719         5.39884         3.39912
LJ           5.77423       -0.244211        -5.84562
LJ          -5.03759        -4.85729         3.21079
LJ           4.61691         1.10182         6.42328
LJ          0.889899         0.16537        0.273838
LJ           2.96107         2.18494        0.838424
LJ           3.87429         2.14198         -2.0431
LJ           5.96169        -2.48431        -5.20839
LJ           -3.7275        -6.29004         6.24759
LJ           0.80446        -2.74435        -2.74623
LJ          -4.05947        -2.82563        -2.24217
LJ          -5.68946       -0.786507        -3.66152
LJ         -0.976467          1.5077         2.60095
LJ           6.43057          3.6213         4.36892
LJ           2.81918        0.487507       -0.546824
LJ          -2.33636        -3.59056         5.86899
LJ          -2.40859        -2.97381        -3.62349
LJ           5.54976         4.98064        -2.36469
LJ        -0.0163095        -1.40495        0.938941
LJ          -4.33379         2.59729         2.41092
LJ           1.12932          6.1696         4.11553
LJ          -4.61632         -6.3148         5.36771
LJ           5.08635          4.0468         4.66788
LJ           2.94786         -2.0476         4.83405
LJ          -1.78005       -0.152591        -4.77082
LJ          -4.39786        -3.46472         2.78885
LJ          -4.84968         6.37259        -3.63741
LJ           2.07275          2.6424         2.61538
LJ           -5.8485         4.97298        -3.25998
LJ           3.94421        -3.52945        -6.21108
LJ          -3.46088       0.0787378        -4.62464
LJ           1.57478         2.35008        0.527171
LJ            5.6204          2.1334        -2.78642
LJ          0.503191         -6.3759          5.7908
LJ           5.23086         1.28836       0.0926622
LJ         0.0160123        -5.55705        -3.42584
LJ           2.08227         3.31092        -4.55754
LJ          -1.32257        -4.38502         3.09059
LJ          0.973334        -6.17506        -6.07692
LJ           1.36869        -4.97281         6.25422
LJ           4.16767         -6.2817        0.491402
LJ          -4.40017       -0.964432        -4.34073
LJ          -1.26553        -5.26287        -3.19432
LJ          -3.39182         3.23536          3.0193
LJ          -1.30149         1.12215       -0.826026
LJ          -1.31791         4.11134         4.29432
LJ          -4.75025        0.827901         4.97657
LJ          -2.74312        -6.02791        -4.88475
LJ          -5.28385        -6.15415         3.60386
LJ           5.77858         5.96064        -4.87371
LJ           2.77257         4.07165        -3.61209
LJ          -2.47572        -1.91513         4.50571
LJ          -3.14749        -2.74926         4.63585
LJ          -1.71652       -0.467527        -1.99949
LJ           1.63343        -1.14962         2.13656
LJ          -6.31254        0.113626        -1.09299
LJ          -0.17631        0.785386         1.82542
LJ          -2.81966        -2.76582         1.53232
LJ          -1.83802         3.32356         2.88748
LJ           5.25576         5.57797        -3.88743
LJ          -0.79138          4.0623         3.13573
LJ           2.23855         5.23528        -2.85752
LJ           1.03846        -2.11536          3.2891
LJ           1.85683         3.74728        -2.92472
LJ          -3.54065         -4.8178        -4.67954
LJ          -1.20902         4.22562         1.74767
LJ           1.39253         5.07766         1.48666
LJ          0.920374         1.46642         -1.3801
LJ           4.60397        -4.07403        -2.53543
LJ          -1.32196        -1.25918        -2.35186
LJ          -2.29025        -4.58679        0.798171
LJ          0.129446         1.96579          1.5102
LJ          -3.64635        -3.04413        -3.42375
LJ         -0.797074         3.81328        -5.85709
LJ          -2.18862         3.81614         5.89249
LJ           1.03515         3.61209        -5.49687
LJ           6.03867         0.43888        -3.18572
LJ            2.6299         3.88244        -5.21948
LJ          -5.21581         1.77349         4.61155
LJ         -0.326522        -2.33452        -2.45827
LJ          -4.28577       -0.190694        -2.47581
LJ            5.6818         2.53867        -5.52762
LJ           0.50952         5.51714         5.02882
LJ           5.10507        -3.17448         1.92055
LJ           6.02021        -5.47399         -3.0486
LJ         -0.916528         -6.1195        -2.88076
LJ          -4.88906        -4.94568        -2.64864
LJ          -3.58202        -5.18466        -3.73441
LJ          -1.71129        -5.05316        -2.03835
LJ           4.69137         2.55253        -6.01586
LJ          -3.83907          6.0792        -3.46001
LJ            5.9814         0.81285         5.45318
LJ            6.1046         -2.9979         1.00045
LJ         -0.698234        -5.93241          2.4788
LJ          -1.94656        -3.99177        -1.64668
LJ           4.45044         4.87049        -4.76812
