108
#Comment!
LJ          -5.82848       -0.450386        -5.96328
LJ          0.561223         2.48838        -3.68526
LJ          -5.10754         2.23815         3.20985
LJ          -1.74387         2.65287         1.45544
LJ           6.23915         2.17075       -0.910457
LJ           6.33636         1.91123         1.20796
LJ           1.29999         4.38407        -5.67565
LJ           4.12303         2.87362        -5.33698
LJ           3.90144        -3.84384         1.63731
LJ          -3.41939         3.41958         2.67571
LJ           5.40627          1.4933        -3.25949
LJ          0.751399         1.44528        -4.14274
LJ         -0.983376         1.88348        -6.31038
LJ           4.22665         2.13156         5.66737
LJ          0.722209         4.08475         6.17367
LJ          -4.56083         4.11627       -0.469084
LJ          -1.68808        0.348157        -2.75673
LJ          -3.26234        -5.42044        -1.84782
LJ          -3.94921       0.0537329         3.93077
LJ          -3.20464         4.79343        -1.56838
LJ          0.982364         5.38155        -5.86204
LJ         -0.557962         3.08974         3.36675
LJ           3.22041        -4.34513          2.5344
LJ          -3.76162         -4.9737        -2.55075
LJ          -5.73671        -1.50186         2.16728
LJ          -2.26836         3.49539         6.40495
LJ           3.46415        -4.96118         -3.5925
LJ            -2.572          5.5655         2.67772
LJ          -6.46308         6.42081       -0.534455
LJ          -0.80454        -2.18471       -0.202487
LJ           3.34503        -4.20311        -1.78166
LJ           1.51755         1.05981        0.168394
LJ          -3.04234        -2.29063        -3.47789
LJ          0.549222        -4.87031        -4.69611
LJ          -6.08768       -0.868437       -0.473651
LJ          -2.21394         4.35769        0.197167
LJ          -2.43366         3.13899         5.49716
LJ           1.24092         -5.0944        -6.03639
LJ           2.03816         5.44325         3.09455
LJ         -0.550731         5.69568         5.74554
LJ            4.5006      -0.0617164         2.60001
LJ          0.409695        -6.25108         3.92382
LJ           5.35891       -0.356956        -1.91024
LJ           3.89059        -3.58156        -1.13834
LJ          -2.05577        -5.79466        -2.44258
LJ           4.90382        -1.85265        -0.36608
LJ            4.7781         2.08577         2.05273
LJ          -4.76485        -6.09958        -1.80908
LJ           4.76106          1.0976         1.77897
LJ           5.79746         2.41235        -2.17675
LJ           1.53346         1.80051        -3.30754
LJ          -5.67229        -2.40036         4.39475
LJ          -4.00086         1.30888       -0.386888
LJ          -4.80491         3.13278       0.0178499
LJ          -1.50093        -3.58691        0.615766
LJ           3.80992       -0.745871         1.29687
LJ          0.649001        0.492526         1.41804
LJ           5.55346        -6.07073         4.35985
LJ          -4.28454         4.69621        0.901447
LJ           2.33794         3.31199         5.22835
LJ          0.402385        -6.00516        -3.80855
LJ          -3.01526       -0.246733        -2.69334
LJ           -2.0667         2.00306       -0.430182
LJ         -0.341753        -4.02524        -2.64982
LJ          -1.44198         5.88365         2.59346
LJ           6.39448        -2.14941         -5.2681
LJ          -5.15341         1.31801         4.65495
LJ           1.55347        -3.65185        -3.18233
LJ          -0.99342        -3.41764         3.74806
LJ          0.330041       -0.461966        0.714609
LJ           5.57912          5.6669        -5.76607
LJ          -6.30289          2.1294        -3.54386
LJ           1.57376         5.84286        -2.69385
LJ         0.0679137         2.21444         6.08484
LJ          -2.90614         6.42962        -1.56366
LJ           6.20688        -2.28003         -2.9683
LJ          0.379576        -4.97481        -2.38951
LJ           3.56303        -6.45949         -1.0153
LJ          0.199082         3.38443        -5.44446
LJ          -5.32841        -3.02626        -1.42605
LJ           2.27347        -3.77421        -4.69542
LJ         -0.833964        -1.10143        -5.71156
LJ           4.92641        -1.25221        -1.99809
LJ           1.26274         -3.2091         4.09945
LJ          -1.77463        -5.71145       -0.335534
LJ         -0.555391       -0.601587         1.59007
LJ          -5.76912       -0.456041        -3.53661
LJ           2.10486        0.277622         6.30878
LJ          -6.24606        -3.38557         -4.9073
LJ           4.27366        -3.88869        0.488755
LJ          -1.61379        -2.05255         2.11012
LJ         -0.586976         0.28006         4.01313
LJ           -3.5386        -4.44974         6.21334
LJ           3.07966         -6.4476         -4.3423
LJ          -2.44943        -1.23743         1.11356
LJ          -1.90385         4.44484        -2.02353
LJ          0.436039       -0.302997       -0.606614
LJ           2.94507         5.58057         6.25919
LJ          -2.83449        -3.93291        -2.45565
LJ           5.91817         4.16553        -3.02475
LJ         -0.534389         1.63248         4.99518
LJ          -2.38613          5.8291         1.65541
LJ          -1.04588        -5.76764        -3.74449
LJ         -0.794195        -6.04874        -5.77908
LJ          -2.45461         2.06837        -5.79504
LJ           1.24495        -2.90054         2.87029
LJ           2.16755         2.86412         6.20458
LJ          -1.35919       0.0752579        -5.96372
