108
#Comment!
LJ           5.47557        -4.26194           4.896
LJ          -4.49594         5.77174        -4.52183
LJ          -2.25369         2.24453         2.33623
LJ             3.716        -2.34566         3.70307
LJ           3.25873        -1.90317        -2.59599
LJ          -1.23832         1.02885         3.31254
LJ          -4.60297        -4.07288        -5.19006
LJ           6.12673         5.07252         4.00355
LJ          -2.95991         2.89665          2.9101
LJ           2.74494         4.30509        -5.69239
LJ          -5.75709        0.956003        -5.66088
LJ          -2.42053        -3.87035        -5.34987
LJ           2.27871         4.90842        -3.78558
LJ          -4.39019        -3.14116         1.23689
LJ           2.49858       0.0788122         1.23645
LJ           5.69734         3.38991         3.28559
LJ           1.79415         2.21084        0.164148
LJ          -4.72573        -3.68741        -6.45403
LJ           -1.6805         1.07578         4.30991
LJ           3.92889         1.60067         1.68508
LJ           2.42492         4.41009        -1.02527
LJ          0.249028         2.40861         6.38529
LJ          -6.10193        -3.98524         5.98872
LJ           3.31579        -3.26074        0.931891
LJ          -2.71552          5.9754         4.89336
LJ           2.52071         5.11088         2.35833
LJ           5.89238         1.18139         5.18072
LJ          -2.26528        -6.35869        -1.21756
LJ          -2.61807         4.94254        -1.03834
LJ           1.58246         5.47704        -2.47021
LJ          0.227682         0.45032         1.57491
LJ           -5.8396        -6.31038         1.74622
LJ           -1.8053        -5.76698         1.31802
LJ           -1.9019        -4.70971        -4.85793
LJ         -0.863265        -6.33071        -4.48079
LJ           1.94414         5.96201         2.17642
LJ           2.47569        -5.95744        -6.19474
LJ          -1.50543        0.055278         1.29059
LJ          -3.61136        -4.14149        -5.49618
LJ          -6.36797       -0.541942        -6.14544
LJ          0.948727         1.08778        -2.85328
LJ           4.52306        -4.01849        0.283521
LJ           6.11919          6.0213        -4.78668
LJ          0.239357        -5.01873        0.254048
LJ           -2.4889         2.89548         6.45805
LJ           3.71311       -0.125842        0.765641
LJ           3.17068        -2.87628         4.91905
LJ         -0.486197        -5.88031         3.87679
LJ           1.04289        -5.66839         -5.4733
LJ           0.27639         5.01495       -0.806416
LJ           -3.0696        -5.24987        -3.75405
LJ           5.23027        -2.85315       -0.588837
LJ          -2.85296          -2.974          1.7556
LJ          0.501711         4.03834        0.119862
LJ          -5.87242        -2.81526        -6.14688
LJ           3.15674        -5.27991        -4.72124
LJ          -5.18253        -5.12573        -2.18365
LJ           1.28481        -4.01201        -3.37518
LJ          -4.54387        -6.18961       -0.978224
LJ          -3.94314        -3.37046        -3.81515
LJ          -5.10532        0.990956        -1.40957
LJ           2.37889       -0.553432        -4.37154
LJ           6.34626        -3.91192        -4.74466
LJ          -0.43848       -0.780424         5.81089
LJ           6.07986         3.05772        -3.74371
LJ          -6.30487         4.66665        -2.13614
LJ          -1.12513         6.10674       -0.104276
LJ           4.40198         -5.0626        -5.27617
LJ           5.98291        0.663533        -5.79414
LJ         -0.223494         2.95961        -3.42314
LJ         -0.522543         -1.3023          3.5556
LJ          0.438309        0.030091         3.89417
LJ          -5.84512        -5.99403        -4.44394
LJ           1.68043         0.71426        0.484244
LJ          -1.84906        0.933767        -4.99698
LJ           5.40284         4.29873          2.9134
LJ          -2.35416        -3.99749       -0.548542
LJ          -4.72589         5.02501        -6.18501
LJ           1.81397         3.53379        -4.38936
LJ           2.67471        -3.31615        -3.23054
LJ          0.420153        -4.94746        -3.42984
LJ          -3.03186          1.7773         5.49371
LJ           2.23579        -3.16951         1.38668
LJ          -4.21048       -0.464594         0.75692
LJ           4.36215         2.21589       -0.129151
LJ        -0.0437538         1.20314         -4.6649
LJ           4.18675        -5.27284          -6.417
LJ          -4.70048        -6.32659        -3.75047
LJ          -4.35588         0.64054         6.39034
LJ           2.76571        -6.35684        -1.65695
LJ            0.3697         -4.0219         2.92682
LJ           3.09219        -4.20039       -0.111567
LJ           5.00152        -5.13304         5.16428
LJ         0.0916392       -0.647472        -3.57759
LJ          -4.35123        0.166972         -2.7007
LJ          -3.93436        -5.90515         4.04534
LJ          -1.58107         4.85084        -2.41332
LJ          -4.26031        -3.53285         3.91103
LJ          -5.85295        -1.49835        -4.12979
LJ           3.06772         1.29192       -0.024372
LJ            6.0869        -2.34742         1.07924
LJ          -2.97808         1.19433         4.28742
LJ          -0.84438        -1.16593        -3.16364
LJ          -2.30826         2.77956         1.15988
LJ           6.16431       0.0819643         5.90785
LJ          0.286972         4.65294         1.55487
LJ          -4.55316        0.662133           3.439
LJ           3.90611        -4.15332        -5.06104
