108
#Comment!
LJ           5.38159        -2.56608         4.60622
LJ           5.23343        -6.05683        -3.78239
LJ          -2.08563        0.143339         1.76183
LJ          0.187573         1.19162         2.63579
LJ           3.87211          3.6229         5.87628
LJ         -0.633598         0.61575          2.3585
LJ         -0.672219         5.82538        -4.46048
LJ           3.98459         5.60141        -4.28746
LJ          -1.06428         3.49669         5.58936
LJ           2.73344        -5.68787        -6.38949
LJ          -5.02548         1.54035        -5.55361
LJ          0.826165        -2.29085        -5.33593
LJ           2.28085         4.41395        -4.17315
LJ         -0.615274        -5.91298         3.24728
LJ          -2.18388       -0.167417        0.667531
LJ          -5.37373         4.38647         5.08515
LJ          -1.51509         4.98689        -5.29283
LJ           0.12747         -3.4928        -5.55135
LJ         -0.511175        -2.33102         4.13564
LJ           5.08728         3.13202         6.13545
LJ           4.26657         5.33187         2.04933
LJ           -2.0773         2.69078        -5.62475
LJ           2.62544        -4.64534        -6.07333
LJ         -0.231454        -5.38511         6.28418
LJ         -0.330843         5.34599         5.56086
LJ        -0.0563487         2.65557        -2.90808
LJ           6.30548        -3.13066         5.36892
LJ          -1.65953         4.10985       -0.528603
LJ           6.38003        -5.29476        -1.88084
LJ          -3.86671        -2.66832       -0.634269
LJ          -1.72694         2.98569        -2.48075
LJ          -4.74428         5.54137         4.61862
LJ          -2.88409        -5.80588        0.379191
LJ          -3.45123        -6.07801        -5.37136
LJ           1.34556         2.19827        -1.19589
LJ           4.05446          4.9686         3.17223
LJ           2.39708         4.72972        -5.23852
LJ           2.01326        -5.18553        0.885075
LJ         -0.784994       -0.678342         5.06877
LJ          -5.89693        -2.37967         4.58819
LJ           1.41208        -3.79572       -0.589784
LJ          0.964845        -5.08385         1.18778
LJ           6.00058         4.43388        -4.80955
LJ          0.709023          6.0555         3.69874
LJ          -2.63171         2.34588         6.45036
LJ          -2.23252      -0.0239962         3.51722
LJ           2.72676         5.83822        -1.00673
LJ          -6.08533         6.35822         5.60123
LJ      -0.000489823       -0.949487        -4.35983
LJ           3.96338         3.89076       -0.718079
LJ          -5.27631        -2.51909         5.66897
LJ           3.92816        0.210968         3.26688
LJ          -2.78909        -2.19661         5.38566
LJ          -3.78592         2.97793           -0.78
LJ           4.60439        -5.96778          5.7814
LJ          -4.75899       -0.416744      -0.0322914
LJ           4.79556       -0.221085        -5.64379
LJ          -1.34056        -4.48394        -3.33981
LJ          -2.04965         3.89178         5.32404
LJ           -2.8541         3.39153         -5.4379
LJ          -5.99775         2.34393         2.88632
LJ         0.0544721         3.10444         6.31087
LJ          -2.07649         5.61514        -5.86258
LJ           -2.4654       -0.655538        -4.46555
LJ           6.32748        -4.06462        -5.95271
LJ          -2.17851          5.0241         5.78154
LJ           5.19657         5.75198         3.16811
LJ          0.823328         3.58504         3.71467
LJ           5.43353        -3.31245        -6.15641
LJ           3.59873        -1.52415         5.72583
LJ           0.51391       -0.333298         3.61879
LJ        -0.0781818         2.25231         3.10258
LJ          -4.30249         4.75443        -5.08071
LJ          -5.00237          1.8883        -4.38278
LJ           5.44487        0.428648         4.28561
LJ           6.36183         3.97692         5.31051
LJ          -4.95633        -6.34721        -2.50642
LJ          -5.62992         4.46094        -4.10395
LJ           5.18525          2.5219        -1.27859
LJ          -1.52383        -5.45025        -2.71725
LJ          -2.32478        -1.31564         6.09875
LJ           2.14769       -0.560573        -5.61969
LJ           -1.2148         -4.1704         2.01023
LJ          -2.08442         5.71132         2.23475
LJ           4.09363         2.18541        -1.86103
LJ            1.5357        -1.65412        -5.54867
LJ           2.92442        -4.22242         3.98755
LJ           4.98279        -4.77761        -3.19851
LJ           4.76249         4.12032        -3.85226
LJ           3.25914        -6.01155        -4.43894
LJ           1.97544        -4.44025         1.59111
LJ          0.631726       -0.770873         1.32375
LJ            4.7452        -4.42483         5.19534
LJ           4.88936       -0.632719         4.45664
LJ          -1.12313        0.367217        -4.50676
LJ          -4.76046        -2.35787         4.82921
LJ           -5.4335        -4.08238       -0.607742
LJ          -3.72362        -1.16277         3.66449
LJ          -4.00166        -3.93626        -5.95952
LJ           4.37357         2.42359         5.64563
LJ          -3.07448         2.07512       -0.114857
LJ           1.46604         3.39978        -4.06057
LJ         -0.933963       -0.543487         2.18787
LJ          -1.61814         2.56866         1.57395
LJ            6.2543       -0.231403         4.31375
LJ        0.00358673        -6.38331        0.787067
LJ          -4.43815         4.23177         0.73577
LJ          -5.66423        -3.52873        -2.42457
