108
#Comment!
LJ          -3.75873         4.32442        -5.15557
LJ         -0.472387         5.81551         1.04767
LJ          -3.95396         1.98235         3.11111
LJ          0.157571         -1.8567        0.698693
LJ          -4.41367         -1.4025       -0.443269
LJ           -3.3624         1.11596        -5.36284
LJ           2.56387        -6.11358        -4.77477
LJ          -4.97642       -0.884034        0.468106
LJ           -5.2027        -6.42848         1.61951
LJ           5.88661          3.7293         5.61462
LJ          -6.03037        -3.15258       -0.114498
LJ           4.46178        -3.10388        -4.52082
LJ          -4.67433        -1.12473         5.21057
LJ          0.202518        0.481226         4.47754
LJ           2.27421         1.53059        -4.98145
LJ           6.07857         4.20643         1.09105
LJ            6.2858          3.7281        -3.85628
LJ          -6.02853         6.27309      -0.0921527
LJ          -1.24017         1.40228        0.845429
LJ          -4.24124         2.61589        -1.70507
LJ          -1.29591         3.91717         5.70657
LJ           1.11126           2.466         2.61893
LJ            5.3562        -4.20582        -1.49353
LJ         -0.929661        -2.67461         3.89538
LJ          -6.10777        -3.65899         2.74869
LJ          -2.00167        -4.22113        -2.43853
LJ           6.10484         5.09893       -0.460714
LJ          -2.86502         5.17377        -6.42708
LJ           2.20427         4.73661        0.348814
LJ           1.11632        -1.99844        0.352535
LJ           6.03043        -2.33628        -2.73297
LJ           3.14865      -0.0987575        -1.26134
LJ           6.23392       0.0797512        -2.78406
LJ           3.14864        -5.17306        -3.76238
LJ           6.19216       -0.588653         3.64916
LJ          -1.91318         5.55804        -0.52311
LJ          -4.33436         5.38378         5.26031
LJ           5.18499         3.26278        -6.44073
LJ           2.48337          3.7988         3.38758
LJ          -2.03489        -4.71783        -3.55388
LJ           3.15771         -1.4052         2.57488
LJ           1.17031         -4.9096         1.88789
LJ           2.54428        0.308583        -5.49902
LJ           4.96021        0.273794         5.00707
LJ          -4.05914         -1.8627         4.01732
LJ           4.43744         3.02344        0.789404
LJ          -3.56698         3.99284         2.46436
LJ          -5.45582        -5.80763        -1.73124
LJ           2.67254        -2.46844         3.39687
LJ           4.63704         4.89302        -4.62123
LJ           3.46602        -4.25299         6.16647
LJ           1.81496       -0.189408         2.78464
LJ          -5.39002         2.61307         1.99394
LJ          -5.85939        -5.50953         1.02146
LJ           1.12079         1.70679        -2.92035
LJ           4.11245       0.0237656         3.51816
LJ           1.66186       -0.719423        -1.41177
LJ           4.77078        -4.76909        0.427333
LJ           4.61218        -5.71722       -0.319192
LJ           2.36672        -6.31986        -6.11436
LJ          -3.33029       -0.436729        -5.99491
LJ           1.86882        -5.57186         4.67116
LJ            -1.232        -6.02362         1.62911
LJ         -0.637197        -4.78868        -2.72402
LJ           -2.1391         3.73324       -0.146472
LJ           4.17734        -2.80313        -5.59038
LJ           5.15583         1.28075        -6.22332
LJ           4.28578         -1.9757        -4.89127
LJ          -1.07652        0.932251         1.96719
LJ        -0.0888944        0.347138         2.86074
LJ             1.714        -4.65143       -0.617628
LJ           6.28006      -0.0374747        -1.68892
LJ            1.8953         4.67606         6.42358
LJ         -0.239114         3.87374         2.46937
LJ            5.0663         4.87325        -1.77358
LJ          -5.83748         1.96519        -1.07564
LJ          -3.53447        -4.80794        -3.86304
LJ          -4.58972         5.00476         3.01606
LJ          -1.92753         0.81978        -3.65566
LJ          -3.63121        -1.26909        0.830098
LJ            4.2574         1.40445        -5.43288
LJ          -1.81481        -1.96471        -5.86043
LJ           2.96331         5.37719        -1.59507
LJ          -3.31926          2.5892          2.4121
LJ         -0.269084         -5.0401         1.12407
LJ           -4.3421        -3.65028          2.1674
LJ           3.07995         1.13924          5.1166
LJ           1.29911        -0.21102         6.39092
LJ          -4.95355       -0.711822        -4.69973
LJ          -4.83054         -4.9223         2.72135
LJ           1.14581        -0.83424         1.03121
LJ         -0.711006       -0.326033          1.3672
LJ          -4.61677         6.16564        -5.91259
LJ          0.573684         6.23932        -3.39871
LJ          -5.39226         1.93149         1.07235
LJ          -5.13829         4.63927       -0.817363
LJ          -3.79664       -0.850378        -2.05551
LJ           3.68359        -5.45877           5.283
LJ          -6.33756         5.35614        0.419511
LJ           6.15073         3.04218        -5.34742
LJ          0.874058         1.11273         2.73677
LJ          -1.53534         6.01041         4.26843
LJ           3.43401        -1.15154        -5.81707
LJ          -2.56884        -4.00308         6.02171
LJ         -0.479071        -1.17379        -2.60575
LJ           3.96788        -4.55871         3.85822
LJ          0.553599        -4.27529        -3.55619
LJ           5.76945        -3.32392         6.32226
