108
#Comment!
LJ           5.02517        -3.88775         5.33432
LJ          -5.60347         6.30095        -4.25657
LJ          -1.53121        0.911122         1.86646
LJ           2.82536        -1.27199         3.58405
LJ           3.35667        -2.40055        0.768967
LJ           -1.4967        0.232344         2.99298
LJ          -4.43686        -5.19882        -3.88913
LJ           5.37327          5.2878         6.18361
LJ          -2.48919         3.21557         3.73058
LJ           1.50041        -6.39852        -5.82362
LJ          -5.50947         1.85173        -5.35614
LJ          -1.95638        -3.22939        -5.22623
LJ           2.35364         4.89778        -4.23165
LJ          -2.13788        -3.32732         1.18388
LJ          0.887216        0.761241         1.44847
LJ           6.31338         3.44651         3.89365
LJ          0.684939         2.81334        -1.61264
LJ          -2.79547        -3.04497        -6.44699
LJ          -1.36162         1.55107         3.55178
LJ           2.83623         2.07053         2.03561
LJ           2.33149         4.49151       -0.212434
LJ          0.580231         1.80671        -5.76889
LJ           6.21915        -4.57437         6.39553
LJ           1.81125        -3.19947         1.90175
LJ          -2.33313         5.84498         5.03639
LJ           2.29854         3.21197        0.568118
LJ          -6.24081       -0.861774         5.35241
LJ          -2.03309         6.20502        -0.81507
LJ          -2.79701          5.4865        -1.08502
LJ         0.0751001        -5.99807         -2.1523
LJ           1.55903         2.28628        0.893086
LJ          -5.51074         6.32109         2.52643
LJ          -2.13048        -6.13441        0.311299
LJ           -3.1956        -4.85252        -5.33966
LJ           0.43497         5.46653        -3.54013
LJ           2.54877         5.86525          2.4023
LJ           2.92181         6.41818        -5.32869
LJ         -0.660572        -2.14066         1.54101
LJ          -3.61503        -3.97904        -6.16436
LJ           -5.0183        -1.19624         4.62497
LJ           0.38682       -0.958227        -1.33419
LJ           3.32257        -3.49644        0.692709
LJ          -6.34752         4.91987        -4.71095
LJ         -0.413493         6.38169         0.88772
LJ           -1.6328         2.18723        -6.18195
LJ           1.47558       -0.166473        0.634891
LJ           3.33745        -2.94877         2.78829
LJ          -1.74411        -6.04595         4.48324
LJ           1.15829        -5.38677        -5.49683
LJ            1.6927         4.97541        -2.31424
LJ          -2.41588        -4.44799         -3.8458
LJ           5.03217        -1.90706        0.440442
LJ          -2.99741        -2.25401         2.49533
LJ          -0.66584         4.59101        0.674002
LJ           5.91199        -3.98892        -5.38904
LJ           1.35785        -3.37375         6.10242
LJ           -6.3395        -3.00862        -2.56283
LJ         -0.394054        -3.42152        -4.28199
LJ          -4.93514         5.93495        -3.62259
LJ          -3.97258        -1.77547        -4.65541
LJ          -4.43982        0.136914        0.417728
LJ           1.55513        0.189242        -4.34219
LJ          -5.49893        -4.92669         -5.8073
LJ          -1.12893       -0.966418        -6.31971
LJ           6.01277        0.580586        -4.48653
LJ          -4.03481         5.15339        -2.78834
LJ         -0.173512         5.09508       -0.241982
LJ           3.74261        -6.41425        -6.14483
LJ           5.77826       -0.162534        -5.58773
LJ           1.41091         1.69476        -4.72734
LJ         -0.248961        -1.11834         4.41404
LJ         -0.267947        0.368169         3.16661
LJ          -4.46881        -5.55927        -5.22821
LJ           2.97179         2.54526        0.144204
LJ         -0.055157        0.272547        -5.68852
LJ           5.43548         4.32165         3.54624
LJ          -3.01734        -4.46669        -1.20008
LJ          -4.92108         4.94988        -5.92134
LJ            2.7975         3.13401        -3.47287
LJ          0.107414         -3.7557        -3.17707
LJ          0.611199        -4.33539        -3.97035
LJ          -1.26009         1.76771          5.4876
LJ           1.63063        -4.30165         2.17312
LJ          -4.42132        -1.48222         2.37692
LJ           4.64055         1.40563        -1.27613
LJ         -0.701491        0.983523        -6.30783
LJ           4.30034        -4.31786         6.11294
LJ          -5.52909        -5.70246        -3.51521
LJ          -6.03143         1.28169        -6.09252
LJ           3.43062         -6.1843        -2.71798
LJ              0.71        -3.97835         1.72385
LJ           2.10494        -2.95311        0.190077
LJ           5.25005        -4.83088         5.97364
LJ           1.28092         1.03455          -5.525
LJ          -3.57821        0.267081        -2.80494
LJ          -3.66982        -4.42399         4.51045
LJ          -3.45084         5.65343        -2.11978
LJ          -4.54299        -3.42272          3.5949
LJ          -5.15158        -3.10957        -4.75605
LJ           3.74267         1.53264         1.53436
LJ          -5.49005        -1.33568        0.829976
LJ          -2.46757        0.869519          5.9433
LJ         -0.644986       -0.891083         -1.7293
LJ          -1.67154         2.11308         2.38164
LJ           5.66042        -0.00516         5.94341
LJ          0.596572         5.20028         1.66152
LJ          -4.55699         1.71186         2.65744
LJ           4.43531        -3.86639        -5.61251
