108
#Comment!
LJ           5.35182        -2.50329         4.56027
LJ           5.21142        -6.06118        -3.72065
LJ          -2.16083        0.222801         1.74896
LJ          0.140898          1.2675         2.59001
LJ           3.87092          3.7378         5.95122
LJ         -0.670948        0.592694           2.359
LJ         -0.584153         5.76488        -4.48408
LJ           3.91227         5.68103        -4.32304
LJ          -1.04105         3.50948         5.65139
LJ            2.8434        -5.70088        -6.34463
LJ          -4.99786         1.49767        -5.54953
LJ          0.809232        -2.28562        -5.28583
LJ           2.28287         4.41929        -4.16655
LJ         -0.644705         -5.9329         3.31139
LJ          -2.20601       -0.253608          0.6902
LJ          -5.30267         4.43232         5.10238
LJ          -1.43937         4.94515        -5.23302
LJ          0.207481        -3.48463        -5.52845
LJ         -0.494315        -2.42035         4.12007
LJ           5.16421         3.09915         6.23268
LJ           4.32439          5.2964          2.1371
LJ           -2.1267         2.63652        -5.66177
LJ           2.50319        -4.67861        -6.11014
LJ         -0.319583        -5.40971         6.34766
LJ         -0.298303         5.33364         5.57343
LJ        -0.0986139           2.653        -2.98862
LJ           6.34172        -3.07788         5.36722
LJ          -1.66072         4.05138       -0.514817
LJ           6.29053        -5.22187        -1.89339
LJ          -3.96096        -2.59589       -0.583537
LJ          -1.77507         2.99845        -2.55937
LJ          -4.73799         5.51508         4.68535
LJ          -2.89888        -5.80151        0.380882
LJ          -3.39844        -6.15833         -5.3113
LJ           1.32125         2.10086         -1.1464
LJ           4.14031          4.9464         3.15681
LJ           2.37863         4.66518        -5.22843
LJ            2.0336        -5.24385        0.865815
LJ         -0.734615        -0.59516         5.06219
LJ          -5.90847        -2.41825         4.64143
LJ           1.45919        -3.82722       -0.624207
LJ           0.94301        -5.07818         1.12324
LJ           5.97653         4.48375        -4.77878
LJ          0.794703         6.00257         3.78139
LJ          -2.65084         2.36489        -6.45544
LJ          -2.20471      -0.0681462         3.61593
LJ           2.73413         5.71235        -1.09966
LJ          -6.21565         6.37607         5.57999
LJ        -0.0591546       -0.881994        -4.32868
LJ           3.97841         3.82333       -0.597228
LJ          -5.36251        -2.48867          5.6343
LJ           3.90716        0.257918         3.34216
LJ          -2.76767        -2.21105         5.48022
LJ          -3.84749         2.92398       -0.814453
LJ           4.60083        -5.96808         5.69022
LJ          -4.89849       -0.365981       -0.190496
LJ           4.77854       -0.217506        -5.76372
LJ          -1.35226        -4.49549         -3.3227
LJ           -1.9618         3.87206         5.23965
LJ           -2.8399         3.52826        -5.47322
LJ          -6.06965         2.49187         2.86468
LJ         0.0111824          3.1554         6.26449
LJ          -2.12239         5.68218        -5.96548
LJ          -2.49383       -0.628931         -4.4206
LJ           6.36607        -4.17189        -6.01406
LJ          -2.10896         4.97513         5.73937
LJ           5.24851         5.84495         3.24867
LJ          0.761266         3.53203          3.6013
LJ           5.40615        -3.37181        -6.18191
LJ           3.64527        -1.59529         5.65459
LJ           0.51843       -0.304125         3.58104
LJ        -0.0588292          2.3617         3.15588
LJ          -4.30559         4.65356        -5.09422
LJ           -4.8949         1.86818        -4.50905
LJ           5.56676        0.433425         4.19311
LJ           6.38622          3.9813         5.34946
LJ          -5.00579        -6.38462        -2.52775
LJ          -5.65741          4.4394        -4.08346
LJ           5.24831         2.51255        -1.22477
LJ          -1.53141          -5.502        -2.70159
LJ          -2.38694        -1.30039         5.97542
LJ            2.2461        -0.58503        -5.57345
LJ          -1.30307        -4.18484         1.99235
LJ          -2.02409         5.57307         2.21994
LJ           4.05006         2.26969        -1.83017
LJ           1.63994        -1.67033        -5.55067
LJ           2.90396        -4.21843         3.94159
LJ           4.97782        -4.70376         -3.2048
LJ           4.78756         4.08365        -3.80773
LJ           3.20569        -6.02109        -4.42166
LJ           1.97436        -4.46835         1.68676
LJ           0.66098       -0.767884         1.32426
LJ           4.62676        -4.48465         5.17177
LJ           4.95859       -0.636782         4.41029
LJ          -1.07862        0.378081        -4.52905
LJ          -4.73759        -2.39298         4.82006
LJ          -5.46252        -4.03467       -0.593131
LJ          -3.71223        -1.08848         3.68587
LJ          -3.96183        -3.92853         -6.0183
LJ           4.34738         2.48904         5.78178
LJ          -3.09864         2.18092       -0.178771
LJ           1.57359         3.50553        -4.02294
LJ         -0.980386       -0.574404         2.25722
LJ          -1.62368         2.57866         1.56526
LJ           6.26032       -0.255508         4.27303
LJ         -0.012329        -6.34186        0.781706
LJ          -4.43176         4.28695        0.688452
LJ          -5.59881        -3.53676        -2.32524
