108
#Comment!
LJ          -2.68536         5.57477          6.2438
LJ         -0.689846         5.16507       -0.037929
LJ          -4.30761         2.10632         2.99712
LJ          -0.75018       -0.463945         0.72088
LJ          -4.78813        -0.58689       -0.443721
LJ          -4.34839         1.22748         5.86074
LJ           2.02763        -6.21229        -5.29578
LJ          -6.06404        0.470844       -0.829236
LJ             6.333        -6.01873          1.8788
LJ          -6.09503         3.70656         4.83309
LJ          -6.32353        -1.51467        -1.14582
LJ           3.54865        -2.69076        -4.52577
LJ          -3.21457       -0.446698         5.96217
LJ            1.0516        0.577072         3.97784
LJ           3.55431         3.17383        -5.30896
LJ          -6.23799         5.26606         1.37953
LJ          -5.42135         2.16862        -3.49844
LJ          -4.20243         6.13327       -0.784204
LJ          -1.03754         1.85862          1.9512
LJ          -3.53036         3.57123        -1.75458
LJ          -1.04908         4.40349         6.42912
LJ         0.0711335         2.84314          2.8135
LJ            4.6812        -4.18111       0.0524191
LJ           -1.9136        -3.46729         5.38216
LJ          -6.31398        -3.48475         2.45985
LJ           -1.8813        -2.44156        -3.30101
LJ           5.02254         5.99924        -1.51863
LJ          -2.12805         4.65334         5.76488
LJ           3.87926         5.00729       -0.138789
LJ        -0.0618164        -2.79516        0.634017
LJ           5.14541        -2.63014        -2.96708
LJ           2.64565        0.267745        -1.03331
LJ          -5.58809        0.158324        -3.11192
LJ           2.78258        -5.84851        -4.69977
LJ           6.34393       -0.694119         2.46318
LJ          -2.22517         5.47003       -0.833221
LJ          -3.62771         4.51818         4.84902
LJ             4.151         4.22964        -5.33202
LJ           2.39283          4.2502         3.30154
LJ           -1.8411        -5.51218        -4.57737
LJ           3.32616       -0.544767         2.56117
LJ          0.560028        -5.38387          3.3627
LJ           3.70076        -1.08075        -4.48852
LJ           5.20149       -0.377608         -5.8543
LJ          -3.41215        -3.21218         2.77276
LJ           4.70208         1.73042         0.50463
LJ          -4.07895         4.05844         1.78448
LJ          -5.39461        -5.85254         -1.5867
LJ           2.46406        -1.80633         2.59394
LJ           4.78103         4.31122         -4.1666
LJ           2.71961         -2.7846         -5.9582
LJ         -0.227063        -1.15075         3.74013
LJ          -4.09727         1.82887         1.70574
LJ          -5.51835         5.97797        0.360187
LJ          0.387982          3.2169        -3.30766
LJ            4.5696       -0.323232         3.09632
LJ            1.8497       -0.486233       -0.271151
LJ           5.41529        -4.32202         1.13649
LJ           5.35943         -6.1889      -0.0262149
LJ           2.59248         6.01791        -6.15888
LJ          -1.98787        -1.08512        -6.25693
LJ         -0.288345        -5.66157         4.65267
LJ          -3.06468         5.57713         1.03069
LJ         -0.634049        -4.99621        -2.94576
LJ          -1.78863         3.24008         1.01949
LJ           4.42452        -1.99781        -4.71462
LJ           5.82392         1.12198         6.14747
LJ           3.08697        -1.94571        -3.69194
LJ          -1.52766        0.127027         3.04872
LJ          -0.01283       -0.262745          2.3321
LJ           2.42839        -5.29072        -1.81796
LJ          -6.16116       -0.220584        -2.20019
LJ            1.3242          4.6893        -4.89091
LJ         -0.362284         3.86634         3.73814
LJ           5.90046         4.82826        -1.61734
LJ           6.18239         1.19514        -2.08206
LJ           -2.1611        -4.06898        -3.00317
LJ          -5.84997         5.44135         5.45573
LJ          -0.48729         2.59319        -3.81407
LJ          -2.97376        -1.05552         1.15338
LJ           3.52114      -0.0552437        -5.67406
LJ          -1.97368        -2.17332        -5.45912
LJ           2.99315        -5.95203        -3.01398
LJ          -2.59824        0.160146         1.99427
LJ           -0.2447          -3.964        0.896434
LJ          -3.58848        -2.49129          1.7411
LJ           4.04932        0.849385         6.03322
LJ           1.45271      -0.0286423         6.34766
LJ          -5.24379        -1.46734        -4.81952
LJ          -5.58987        -5.71838         2.01541
LJ          0.418327        -1.51641         1.00911
LJ         -0.718419        0.793272         1.77353
LJ          -3.90976         6.38147         -6.2613
LJ          0.687555          6.3059        -3.41091
LJ          -4.19033        0.753022        0.769766
LJ          -4.77025          4.3548       -0.890959
LJ          -2.61631       -0.686422         -1.7425
LJ           3.15736        -5.92465         5.87428
LJ          -4.34567         5.69734        0.304171
LJ           4.50313         2.98492        -5.18349
LJ         -0.203168         1.86326         2.68583
LJ          -1.73463         6.30027         5.02668
LJ           1.82991        -2.41003        -4.95443
LJ          -1.39901        -5.16075         6.44443
LJ          -1.33051       -0.124453        -3.67301
LJ           2.46852        -4.06608         4.37233
LJ            2.1185        -5.87728        -3.51987
LJ           3.79029        -2.97194         5.61712
