108
#Comment!
LJ            0.5826        -2.82274        -1.28059
LJ           -2.8334       -0.359757        -1.35155
LJ          -4.12318        -4.72126         4.35339
LJ          -5.16715        -5.72861         -5.5701
LJ          -3.23531        -6.18619        -3.91694
LJ          -4.37679        -1.66701         4.82218
LJ          -5.50928         -3.4235        -4.03822
LJ           3.19766          4.1693       0.0723523
LJ          0.627094       -0.869814         1.51297
LJ           2.26692         2.95662         1.43892
LJ          -1.62456        -3.01733         5.05502
LJ           4.66842        -1.24079         2.91436
LJ           5.91049         5.47383         1.99824
LJ          -2.63098        -1.62519         6.45636
LJ          -4.41036         4.54653         3.06824
LJ          -5.75717        -1.62155         6.25541
LJ        -0.0173974          -4.948       0.0938768
LJ           2.70381         1.84815         1.28405
LJ           4.17398        -3.42976         2.21216
LJ           6.21983        -5.18123        -3.52989
LJ         -0.825202          2.7616        -5.77685
LJ           1.20277       -0.324952        0.711746
LJ          -2.45833        0.577343       -0.827781
LJ          -4.94523        0.157326        -5.48083
LJ           1.07993      -0.0749328        -1.54989
LJ           6.07194        0.066838         2.00368
LJ           2.68529        0.842658       -0.620778
LJ          -3.60043        -1.06172        -3.54173
LJ        -0.0898782         1.54652        -3.14868
LJ           4.55177         3.08179        -5.60753
LJ          0.942577         -3.6988        0.269722
LJ          -1.83891         3.99571         5.95284
LJ           4.62218         5.95507         -6.0684
LJ           3.33544         -4.6637          4.8467
LJ          -1.47032         4.11568         4.95898
LJ           3.36112         1.81216          5.5585
LJ         -0.511149       -0.278435        -2.58903
LJ           -4.9076        0.156988        0.305528
LJ          -3.75442         5.93921        -3.25342
LJ           2.84238         3.19495         3.08608
LJ          -3.54567          3.8119        -6.41975
LJ           1.23162         6.17893        -3.92592
LJ           -3.0405        -2.70934         6.15098
LJ           2.00652         2.40594         2.39551
LJ           3.43167         1.09802        -1.82012
LJ           2.00678         5.09965         5.36232
LJ           2.80323        -3.51421        0.236548
LJ          -1.19511         6.29489        -2.12041
LJ            1.5412         4.45262       -0.604931
LJ          0.427347         -6.0581         5.50838
LJ           2.83329         3.48139        -4.67269
LJ         -0.286035        -3.75197         5.80768
LJ          -5.39973        0.647299        -1.89132
LJ          -3.62112        -1.20894          -5.323
LJ           -1.3646         1.45361        -5.94994
LJ          -1.19555         2.07115         6.01325
LJ          -1.65233         2.89656        -4.68879
LJ          -5.50195          1.7128         5.49322
LJ          -3.70587         4.73185         4.53956
LJ          -4.15862         6.00136        0.481791
LJ          -1.51837        -1.96599         1.65605
LJ           3.53451        -1.97438        -3.53094
LJ           5.37891        -5.81989         6.09974
LJ          -4.14994       -0.460613         5.19703
LJ          -4.07816        -0.26621         4.23346
LJ           -2.2616       -0.970287       -0.458413
LJ         -0.385653        -2.13341         1.34069
LJ          -1.54422        0.985707        0.274317
LJ          -3.33071        -1.28421        0.865265
LJ          -0.35296         5.45151        0.890921
LJ          -4.85021         4.13779         4.72275
LJ           4.29523         2.40533         -4.3363
LJ           2.10961         5.05797         2.40576
LJ           1.80281         -5.3204        -4.96063
LJ           6.35071        -6.08808       0.0198324
LJ             1.144         5.38605         6.19728
LJ          -4.99127          6.3805        -4.87002
LJ         -0.886452          6.2712       -0.708922
LJ           0.40345         1.44484         2.31447
LJ           2.01741        -5.70118           0.444
LJ           1.09496        -4.38763        -1.97087
LJ          -5.00483        -4.55337        -2.99666
LJ          -4.00023         4.62813         -1.5144
LJ           0.61032        0.786342        -2.34579
LJ          0.106667        -1.83379            2.86
LJ          -4.18861         1.36154       -0.414608
LJ          -2.99949         1.96279        -5.75622
LJ           1.84447         4.21729         5.73799
LJ           4.30636          -1.092        -2.29623
LJ          -6.08099        -6.02667        -4.90958
LJ           3.98172        0.959863         5.13745
LJ           1.49476          -2.285         1.47967
LJ           5.88857         6.11231        -1.88899
LJ          -5.05664         1.27786        -4.19303
LJ           5.78227         2.97337         -4.0353
LJ           3.38578        -0.37894          1.1219
LJ            -5.946        -2.91066        -5.90751
LJ          -4.03805         4.60506        -3.58031
LJ          -2.97295        -5.50002         -1.8933
LJ          -3.94112        -2.27851         2.80403
LJ          -2.06542         4.00995        -3.91816
LJ           5.56752         3.70478         5.92584
LJ          -3.93057       -0.821027         6.25663
LJ           5.47338          1.8577          4.3505
LJ           -2.7695         4.88778         1.75416
LJ         -0.631546        -5.75969        -1.26104
LJ          0.364961         -2.6045        0.733621
LJ            4.1469          5.4455        -3.33772
