108
#Comment!
LJ          -5.36354        -3.65565         4.20778
LJ          -2.68357         5.63709        -4.67344
LJ          -1.36186         4.94833         1.01334
LJ           5.29866        -4.58196         4.60032
LJ           4.95519        -1.26154        -4.81673
LJ          -2.43981         1.99679         4.67844
LJ           6.01539        -2.07599        -4.84866
LJ          -5.40943         4.39516        -0.16378
LJ          -5.51983         3.33614         2.64472
LJ           5.10995        0.562392        -4.97334
LJ          -5.89974        -1.03634         5.08471
LJ          -1.38212        -5.09208         6.11633
LJ           1.56421         3.67722        -4.89997
LJ           4.58163        -2.89886          1.2063
LJ           6.00645        -1.51537        0.775594
LJ           4.56341         3.30444         2.29289
LJ           4.72056       0.0607467         2.82921
LJ           -5.2322        -5.27435         6.39601
LJ          -3.11064         1.61971         3.26111
LJ          -5.69787          1.2214         1.69346
LJ            3.3251         3.47443       -0.782789
LJ         -0.351642         3.76913         5.07467
LJ           5.87877       -0.827699         4.31662
LJ           4.68059        -4.23861       -0.946914
LJ           -1.1998          3.5898         5.83183
LJ           3.18525         -4.7955         5.82527
LJ           5.19531         2.38527         -5.8752
LJ          -2.49103         5.20837        -1.58111
LJ          -3.11456         3.05662       -0.531882
LJ           4.70183         3.04188        -2.59009
LJ          -2.63659        -2.92416          2.4416
LJ            -6.309        -5.75217         0.43736
LJ          -2.22065         -2.8665         5.18906
LJ          0.203461        -4.21595        -3.57383
LJ          -3.29693        -5.79267        -6.13844
LJ          0.243927         -6.1019         1.70653
LJ           1.06028        -4.87607         6.34689
LJ           -2.6878         2.52631        0.959718
LJ          -1.27559         -3.5363        -6.24362
LJ           3.55142        0.674791        -2.84139
LJ           1.21433         4.30248        -6.10145
LJ           5.63331        -3.69563        0.155973
LJ           5.97983        -3.96598        -4.33582
LJ           1.36025        -3.33877       -0.736905
LJ          -4.97372         4.16339         5.50698
LJ          -6.07755        0.246484        0.759372
LJ           2.00055        -4.64311         4.75978
LJ           1.70553        -5.38425         2.61526
LJ           2.04729        -5.91018        -6.22297
LJ          -2.87771         6.06907         1.56192
LJ          -4.48579         6.40927         -3.6922
LJ           4.81544        -5.30654        -1.30612
LJ          -2.26375        -4.20163      -0.0193025
LJ           1.22208         4.98903       -0.438783
LJ          -4.75797        -3.48073         5.00333
LJ           2.71383         5.88596      -0.0765654
LJ          -3.23336         5.17546        -2.49515
LJ           4.79709         6.42843        -1.43563
LJ          -4.13637        -4.74139         3.31508
LJ          -5.73204        -5.70224        -1.33892
LJ           5.05077         3.67043        -1.28135
LJ           2.78611       -0.209572        -4.63666
LJ          -5.90802        -3.22658        -4.61123
LJ         -0.193531       -0.667492         5.67206
LJ          -6.15305         6.34953        -1.52499
LJ           3.43237         3.97869        -2.19675
LJ        -0.0524954          5.4849       -0.460064
LJ          -5.61144        -4.94828        -3.52205
LJ           5.38199         1.37724         5.91927
LJ          -3.42284         3.58327        -1.65376
LJ         -0.928007        -0.88664         1.60798
LJ           1.88807       -0.675225          3.5653
LJ           4.09418        -5.58129        -3.71906
LJ         -0.241619        -1.71639        -0.31944
LJ          -4.36947         2.62733        -3.95053
LJ           5.24518         4.50384         1.72321
LJ          -1.85064        -3.36569         1.10831
LJ          -4.27529         5.35365        -6.17388
LJ          0.701646         5.15794        -5.00917
LJ           4.26096        -1.65711        -3.10577
LJ          0.706953        -4.87672        -2.68117
LJ          -4.27005         1.28311         5.30963
LJ           5.74214        -2.02232        -1.08555
LJ          -3.81379         1.36326        -2.21557
LJ            3.2176         2.92797         2.56935
LJ           1.50302        0.584922        -1.97977
LJ           4.84259         5.48509         -4.2898
LJ          -3.48763         5.34643        -5.28183
LJ          -1.13661         2.62085         5.61328
LJ           1.04447          5.8427        0.189601
LJ          0.170395        -4.47652         4.97259
LJ           5.39666        -4.66855       -0.310152
LJ           4.23962         -5.2546         3.31736
LJ          0.947202        -1.27105       -0.341433
LJ          -4.29623        -1.19004        -6.04796
LJ           6.45759        -5.90707         1.74445
LJ           1.64586         5.38455        -3.80639
LJ          -3.31685        -3.99802         4.16404
LJ           4.27473         1.17377        -3.62341
LJ          0.884796          1.5507       -0.122932
LJ           3.78659          -4.721        0.742173
LJ          -1.68648         1.48232         3.95158
LJ          -3.96308        -2.90928          -5.392
LJ          -3.84581         4.07557        0.815191
LJ          -6.29316         1.04062         6.43296
LJ         -0.199453         3.49555        0.100808
LJ           -4.2855         -1.0255         5.08931
LJ           2.25439         -5.4181        -3.72894
