108
#Comment!
LJ            1.3038         2.67169         2.23595
LJ           1.04099        -4.50904        -1.73726
LJ         -0.448402          2.8856         1.42347
LJ           3.71506        -5.04907         5.88938
LJ           1.80571        -5.10657        0.844011
LJ           5.22733         4.06807          6.0426
LJ           4.12576        -1.91617        -5.34538
LJ          -2.09915        0.576542        -1.20841
LJ          -4.60469         2.11055        -5.61846
LJ           0.17739         2.08883         1.33131
LJ           2.21931        -4.34195        -3.52433
LJ          -2.12309          3.4982          2.5593
LJ           -2.0405        -6.20303         6.21004
LJ           2.13406         1.79606        -5.28355
LJ           4.54228        -2.46827         4.58291
LJ           2.57313       -0.456775         5.17651
LJ           1.58398      -0.0367472         -1.2534
LJ           1.92846         1.82837      -0.0703325
LJ           2.09499        -1.18919        -2.53401
LJ           4.08089       -0.804956        -5.37016
LJ          -6.06152        -4.00859         5.74527
LJ         -0.468614        -5.70493        -3.93114
LJ          -6.03433        -4.67504        -1.22821
LJ          -5.81962        -1.98114        -2.86213
LJ         -0.155671         1.56078         2.66547
LJ          -2.44118         4.40106         5.16599
LJ           2.42683       -0.593621        -1.76346
LJ          -2.04066        -5.14596         4.24983
LJ          -5.08474          -2.732        -0.84095
LJ           4.77378        -6.27157        -1.87181
LJ           1.07439         0.22311         1.58446
LJ          -5.47757         2.03211         1.91026
LJ        0.00255839         5.40123         3.37821
LJ          -3.20719         6.33761          2.7044
LJ            6.0053         5.36292        -6.37536
LJ             2.812        -4.42892         4.40835
LJ          -1.39263      -0.0683719        -6.32179
LJ           5.47239        -5.41218         6.06038
LJ            -6.034        -6.44174        -4.96678
LJ           1.85168         1.66329         2.70364
LJ           6.32009         5.23478        -1.75401
LJ           6.30128         -1.7125         5.76884
LJ          -5.57813        0.268017        -5.00775
LJ           1.14256         1.70863        0.754278
LJ          -4.51424         1.14766        -4.88132
LJ          0.211658         4.17014         5.67326
LJ          -5.95014         5.15533         1.17977
LJ           -1.3322        -6.35699        -2.20604
LJ         -0.366976         2.24497        -3.07276
LJ           -2.8973         -3.2205         1.26521
LJ          -0.57707        -3.91173         4.30643
LJ           4.29767        -5.06251        -5.66049
LJ           4.30111          2.2966          2.5007
LJ          -3.64678      -0.0113341         -3.9619
LJ          -2.18624         -6.4006        -3.32527
LJ          -5.64671         3.36428         1.70282
LJ          -1.52517        0.145595          0.5096
LJ           1.25839         4.85094         2.58877
LJ          -5.60679        0.701289         4.20172
LJ         -0.628743        -4.53259         -1.5337
LJ           4.58718        -4.77575         2.15455
LJ          -5.31888          2.7091        -5.29528
LJ           1.98922         4.65477        -3.78275
LJ          -2.03936        -3.73499         4.01413
LJ          -2.90139        -2.92936         4.25942
LJ          -1.52564         3.67485         1.64385
LJ           2.22466        0.444613        0.930544
LJ           3.06982       -0.391333        -2.81518
LJ          0.265574          2.8371         3.23725
LJ          -1.15752        0.115239         1.49257
LJ          -2.14312         1.58937          1.7195
LJ           5.51238         -4.5206        -4.61246
LJ          0.802915         5.71931         1.27742
LJ           2.42795         3.47687        -3.20578
LJ          -2.12617       -0.752055           5.881
LJ           2.36848         2.06972        -2.44396
LJ          -2.98285        -4.69106         3.66354
LJ          -0.27091         3.05983         4.63908
LJ           1.76254         4.91202        -1.03652
LJ           1.71938        -1.17116       -0.465703
LJ           6.29015        -5.34292        -3.52664
LJ           1.10024       -0.025958        -3.38217
LJ         -0.348059        -3.01838         1.63756
LJ          0.018492          4.3599         2.88092
LJ          -3.13142        -3.52154        -4.48649
LJ           1.87907         3.25952         3.94897
LJ         -0.739755          5.6678         4.04009
LJ           1.34101         3.67006         -4.1518
LJ           5.41205         2.54775        -2.77335
LJ           1.96591         5.38409         5.93164
LJ          -3.27455          1.4446          4.2227
LJ          0.223437        -2.02851        -3.76859
LJ          -3.59325        -4.95246        -3.49376
LJ           5.07667         3.56501        -5.95494
LJ           5.02743         -5.0228         4.65918
LJ          -6.28622        -4.30795          1.3902
LJ           6.22836        -6.45795         -1.4331
LJ           1.15681         5.96952        -3.82006
LJ          -4.60035        -5.18577        -3.50923
LJ          -4.11035         4.81696        -6.27155
LJ           1.30811         5.75133        -2.06357
LJ           4.80651         3.66375        -4.91846
LJ          -2.86123        -2.58204        -1.84807
LJ          -5.50212       -0.167029         6.08262
LJ           1.67143       -0.830546          1.5662
LJ          -1.62103         6.45097         4.85505
LJ          -3.67459        -3.54756      -0.0815955
LJ           5.62151         2.64068        -4.33669
