108
#Comment!
LJ          -4.59279        -3.67278         3.25247
LJ          -2.19325         5.83607        -4.69487
LJ         -0.708447        -5.95658        0.212644
LJ           6.19021        -5.49413         5.14421
LJ           6.35436        -1.86156        -3.13213
LJ          -2.80686         2.01239         4.43686
LJ           5.24541        -2.40136        -4.24775
LJ          -5.04065         4.38678        -2.28381
LJ           6.08206         3.57237         2.46715
LJ           6.31137        0.478985        -4.69835
LJ          -6.40143        -1.51332          3.3525
LJ          -1.28786        -5.06428          5.8055
LJ           1.02839         2.97098         5.84374
LJ           2.59616        -3.03695        0.722517
LJ          -5.23133        -2.47867        0.362584
LJ           3.58537         3.47632         1.75505
LJ           5.64125        -1.22023         2.99885
LJ          -4.84671        -5.64659         5.58699
LJ          -2.70674         2.58629          2.5512
LJ          -3.97948         1.21905         1.70739
LJ           4.83963           2.755        -1.17924
LJ          -1.20739         4.06753         5.11395
LJ          -6.25068        0.837294         4.78148
LJ           5.86593        -5.58317        -1.79155
LJ         -0.174188         4.13545          6.2869
LJ           3.16826         -3.0892        -5.44953
LJ           5.14042         1.93919        -5.04894
LJ          -3.12424         4.08454        -1.85742
LJ          -2.70031         1.34722       -0.551934
LJ           5.99703         2.57821        -1.92435
LJ          -3.69771        -4.73071         2.99367
LJ           5.94393        -5.55702        -0.06803
LJ          -2.59297        -1.48502        -5.72118
LJ           1.28823        -3.69173        -3.15535
LJ          -4.33109         6.23654         6.15814
LJ         -0.488669        -5.82398         1.47226
LJ           1.13604        -4.95177        -6.17143
LJ          -3.25501         2.93097        0.328088
LJ         0.0836437        -3.21028         5.70676
LJ           2.69578         1.61302        -1.70078
LJ           1.51448         5.56387         5.89775
LJ           5.40847        -3.27689        0.401474
LJ          -5.94244        -1.70761        -4.16264
LJ           2.16803        -4.40894        -0.82879
LJ          -6.20259         4.94049         5.15109
LJ          -4.55063        0.235936        0.774719
LJ          0.923456         6.04825          3.0648
LJ            2.7733        -5.19184         1.83545
LJ           2.26005        -5.26804         5.89172
LJ          -4.28871        -6.25031         2.62085
LJ          -5.09442          5.7205        -3.72837
LJ           4.67116         6.26179        -0.84612
LJ          -1.19947        -4.33746       -0.665635
LJ           1.74026         5.30618       -0.712576
LJ          -4.71665        -2.96766         6.03175
LJ           2.79943         5.20109         1.91017
LJ          -2.40823         4.90898        -3.31561
LJ           5.58755         6.37428       -0.148013
LJ           -3.6162        -4.12221         5.18808
LJ          -5.30953        -4.25092       -0.129783
LJ           3.15848         4.55493         -1.4599
LJ           3.05718        0.320896        -4.71418
LJ          -5.05279        -3.39283        -5.14997
LJ         -0.391479       -0.739074         6.03243
LJ          -5.70292         4.65273       -0.473926
LJ           3.12109         3.09583        -2.79304
LJ         -0.901089         5.47736        0.321483
LJ          -5.21169        -5.03634        -1.87018
LJ           4.43361         2.32293         5.66742
LJ          -4.19927         3.21051        -1.10666
LJ          -1.30434        -0.78018        0.404391
LJ           2.90065       -0.927742         2.91066
LJ           1.92843         -4.6156        -4.04862
LJ         -0.854043         -3.0267       -0.841335
LJ          -5.62585         3.46844        -3.37197
LJ           4.96738         4.17528         1.21594
LJ          -2.55605        -3.48004         2.08707
LJ           -3.7297         5.29194         -6.2035
LJ          0.934855         6.06187        -4.41154
LJ           3.80744       -0.266037        -2.66871
LJ           1.05951         -5.1416        -2.25068
LJ          -3.66629         0.98198         5.06875
LJ          -5.15014         -1.9236        -2.12243
LJ          -3.64086         2.41074        -3.75313
LJ           3.29404         3.36802         3.81801
LJ           2.35697       -0.134026        -2.36808
LJ           5.25879         4.58066        -2.94566
LJ          -2.87501         4.80286        -6.03484
LJ           0.40752         2.12271         3.87714
LJ         -0.959692         5.81132         1.60365
LJ         -0.124261        -4.71117         5.73382
LJ          -6.25476        -4.71236       -0.775916
LJ           3.73231        -5.50876         2.30506
LJ          0.815153        0.448853         1.03404
LJ          -4.22011        -2.44899        -6.02361
LJ           4.79555        -6.02712        0.480779
LJ           2.47994         6.45488        -4.53091
LJ          -2.43237        -4.55045         3.31187
LJ           2.02556         2.23578        -3.29247
LJ         -0.100514         2.33985         1.69396
LJ           3.22524        -5.99841         0.02431
LJ          -2.08002         1.89304         5.34108
LJ          -5.75317        -3.78358         6.18789
LJ          -5.15971         5.40393         2.44955
LJ           6.17834         1.34621        -6.12801
LJ         -0.494317         3.05756       -0.704092
LJ          -4.49167        -1.50556         4.26193
LJ           1.51122        -6.09197        -3.06595
