108
#Comment!
LJ           5.42246        -4.25406         4.92587
LJ          -4.57989         5.81089        -4.50326
LJ          -2.20757         2.14202         2.32788
LJ            3.6686        -2.27932         3.69187
LJ           3.26715        -1.92994        -2.41178
LJ          -1.25735        0.975143         3.27152
LJ          -4.54325        -4.14056        -5.12449
LJ           6.08759         5.08886         4.13113
LJ          -2.94469         2.92831         2.96629
LJ           2.66944         4.41776        -5.70856
LJ           -5.7333         1.02846         -5.6251
LJ          -2.51285        -3.79466        -5.31111
LJ           2.28696         4.91925        -3.80658
LJ          -4.27119        -3.15193         1.23298
LJ           2.40376        0.125488         1.22532
LJ           5.74218         3.37763         3.32398
LJ           1.72674         2.25356       0.0586746
LJ          -4.62235        -3.62469         6.43758
LJ          -1.63924         1.11574         4.27822
LJ           3.82963         1.63562         1.68663
LJ            2.3925         4.42665        -1.00366
LJ          0.262703         2.36749         6.42722
LJ          -6.13519         -4.0359         5.98879
LJ           3.25302         -3.2387        0.959285
LJ          -2.76074         6.04514         4.86378
LJ           2.51842         4.99017         2.25512
LJ            5.9348         1.09127         5.15102
LJ          -2.26402        -6.33877        -1.19891
LJ           -2.5695          4.9711        -1.03074
LJ           1.49527           5.564        -2.45568
LJ          0.318287        0.554126         1.56134
LJ          -5.82132        -6.32668         1.78929
LJ          -1.79379        -5.85443         1.19899
LJ          -1.94813        -4.74314        -4.86765
LJ         -0.793499        -6.39689        -4.43042
LJ           1.97552         5.97088         2.19286
LJ           2.50168         -5.9964         -6.1525
LJ          -1.45934      -0.0685816         1.30203
LJ           -3.6295        -4.13223        -5.49351
LJ           -6.2495       -0.526048        -6.25739
LJ          0.923329        0.977583        -2.76408
LJ           4.45987        -3.99313        0.298973
LJ           6.15674         5.96671        -4.77473
LJ          0.208209        -5.09961        0.289894
LJ          -2.41826         2.84843        -6.44488
LJ           3.58413       -0.141204        0.765441
LJ           3.17799        -2.88576         4.80636
LJ         -0.552751        -5.88784         3.90938
LJ           1.03864        -5.65077        -5.47523
LJ          0.386194         5.00334       -0.871496
LJ          -3.03225        -5.21304        -3.75933
LJ            5.2238        -2.79602       -0.537221
LJ          -2.85355        -2.93496          1.7978
LJ          0.432163         4.04974        0.149276
LJ           -5.9349        -2.86231         -6.0924
LJ            3.1911        -5.19391        -4.87618
LJ          -5.24899        -5.00467        -2.20355
LJ           1.16923         -3.9649         -3.4394
LJ          -4.56237        -6.23233        -1.11279
LJ          -3.88897        -3.30892        -3.89992
LJ          -5.02098        0.908365        -1.41587
LJ           2.34502        -0.51724        -4.36694
LJ            6.3942        -3.96223        -4.79409
LJ         -0.477156       -0.793762         5.85503
LJ           6.07399         2.92152        -3.78129
LJ          -6.18034         4.68137        -2.17058
LJ          -1.16457         6.08293      -0.0925499
LJ           4.25633        -5.10269        -5.30024
LJ           5.94667        0.618426        -5.77515
LJ         -0.133803         2.89434        -3.48877
LJ         -0.511961        -1.30484         3.60413
LJ          0.414832       0.0562498         3.85569
LJ          -5.77765        -5.97719        -4.51936
LJ           1.76116        0.792533        0.512343
LJ          -1.77175        0.882194        -5.03141
LJ           5.39133         4.31044         2.93716
LJ          -2.39125        -4.02133       -0.585479
LJ          -4.73508         5.01722        -6.17551
LJ           1.86921         3.49736        -4.33906
LJ           2.55532        -3.33155        -3.21359
LJ          0.428563        -4.93398        -3.45698
LJ          -2.93743         1.77961          5.5008
LJ           2.17863        -3.24751         1.45418
LJ          -4.22225       -0.519328        0.847158
LJ           4.38967         2.17765       -0.200518
LJ        -0.0743566          1.2301        -4.76558
LJ           4.18217        -5.18714        -6.45208
LJ          -4.72735        -6.30914        -3.73155
LJ          -4.46386        0.603732         6.38049
LJ           2.80649        -6.34474        -1.71477
LJ          0.375246        -4.02016         2.86335
LJ           3.04064        -4.13572      -0.0828464
LJ           5.01641        -5.14653         5.23059
LJ          0.155298       -0.548826        -3.69563
LJ          -4.35551        0.208147        -2.59885
LJ          -3.85569        -5.90361         4.11024
LJ          -1.67599         4.89108        -2.36313
LJ          -4.27723         -3.5257         3.89315
LJ          -5.78965        -1.57745        -4.16155
LJ           3.12161         1.30559       0.0406951
LJ           6.16325        -2.29046         1.06768
LJ           -2.9751         1.16544         4.38015
LJ         -0.845297        -1.15749        -3.08011
LJ          -2.27359         2.75976          1.1958
LJ           6.12436       0.0495243         5.94584
LJ          0.304719         4.68966         1.57681
LJ          -4.55571        0.720043         3.39438
LJ           3.95527        -4.12406         -5.0942
