108
#Comment!
LJ           1.49988         5.04079        0.061637
LJ           -1.1005        -2.13332        -1.32261
LJ          -1.73891         4.73602         3.00786
LJ           5.69437        -4.58971        -6.05946
LJ         -0.370931        -6.30349        -1.88214
LJ          -6.13967         1.33507         3.35186
LJ           4.87987        -2.49485        -4.36963
LJ             1.742         2.90547        -1.52254
LJ           -3.0821        0.946757         4.72429
LJ          0.671047          1.8195        0.506603
LJ          0.381165        -4.39659        -4.31852
LJ          -4.52838         1.90685         3.38899
LJ          -2.83868         5.45387         3.37511
LJ            5.8914       -0.301564         -5.8579
LJ           -4.8851        -4.93674         3.17138
LJ           4.66769         1.04763         6.40756
LJ          0.904257       0.0543529         0.27809
LJ           2.98801         2.16544        0.854144
LJ           3.94351         2.23791        -2.01013
LJ           6.00536        -2.54825        -5.19798
LJ           -3.6645        -6.36071         6.24788
LJ          0.865367        -2.69052        -2.69283
LJ          -3.99268        -2.78004        -2.29293
LJ          -5.72047       -0.753019        -3.65933
LJ         -0.954417         1.49288         2.55139
LJ           6.42034         3.56187         4.31574
LJ           2.81737        0.531224       -0.523047
LJ          -2.32352        -3.55959         5.93971
LJ          -2.35051         -2.9577        -3.71996
LJ           5.56214         4.94619        -2.38912
LJ        -0.0411461        -1.44758        0.923706
LJ          -4.28411         2.61901         2.44214
LJ           1.19232         6.16204          4.1681
LJ          -4.57949        -6.32194         5.53746
LJ           4.94639         4.04274         4.64211
LJ            2.9531        -1.97416         4.84857
LJ          -1.79772        -0.15585        -4.72251
LJ          -4.33972        -3.42194         2.69705
LJ          -4.78281          6.3666        -3.58579
LJ           2.10345         2.65702         2.62284
LJ          -5.81433         4.96709        -3.31655
LJ            3.8751        -3.58797        -6.17344
LJ          -3.39736       0.0516549        -4.58177
LJ           1.60558            2.39        0.558687
LJ           5.51532         2.15717        -2.71853
LJ          0.539161        -6.30389         5.77692
LJ           5.17708         1.16598       0.0588345
LJ          0.016147         -5.5553        -3.40286
LJ           2.13173         3.36354        -4.58417
LJ          -1.27643          -4.424         3.14523
LJ           1.03128        -6.24783        -6.02233
LJ           1.26262        -4.99347          6.2229
LJ           4.23365        -6.14964        0.446527
LJ          -4.35777       -0.983001        -4.37793
LJ           -1.2424        -5.08013        -3.23869
LJ           -3.3106         3.22237         3.06346
LJ           -1.3089         1.15792        -0.89911
LJ          -1.38773         4.05004         4.37488
LJ          -4.70818        0.880012          4.9819
LJ          -2.86983        -6.09562        -4.95138
LJ          -5.25599        -6.15422         3.57582
LJ           5.72011         6.07372        -4.83774
LJ           2.77363          4.0736         -3.5986
LJ          -2.49413        -1.86189         4.53078
LJ          -3.17639        -2.71857         4.61745
LJ          -1.74494       -0.506598        -2.03068
LJ           1.60356        -1.20229          2.1681
LJ          -6.20626         0.13359        -1.04359
LJ         -0.219866        0.782821         1.77624
LJ          -2.86943        -2.85692         1.53122
LJ          -1.79388         3.42446         2.93577
LJ             5.238          5.4836        -3.88098
LJ         -0.836748          3.9736         3.11255
LJ           2.22789          5.2445        -2.88706
LJ           1.13794        -2.15585         3.20545
LJ           1.90331         3.85583        -3.01079
LJ          -3.54564        -4.87486        -4.66487
LJ          -1.20736         4.26043         1.67067
LJ            1.3015         5.07159         1.53558
LJ           0.90228         1.57425        -1.37699
LJ           4.55851        -4.04701        -2.50979
LJ          -1.34938        -1.42789        -2.36102
LJ          -2.34811        -4.63264        0.773846
LJ         0.0901121          1.8483         1.46074
LJ          -3.65248         -2.9645        -3.28233
LJ         -0.875879         3.81457        -5.73965
LJ          -2.21732         3.76579         5.93857
LJ           1.03875         3.61498         -5.5458
LJ           6.06105        0.375089        -3.19642
LJ           2.66316         3.85483        -5.18115
LJ          -5.27687         1.74828         4.61325
LJ         -0.379647        -2.30506        -2.41843
LJ          -4.31758      -0.0598418        -2.45565
LJ           5.74448         2.51149        -5.48903
LJ          0.337654         5.47613         5.03676
LJ           5.06759        -3.11821         1.91046
LJ           6.01141        -5.44536        -3.10687
LJ         -0.976877        -6.15085        -2.92925
LJ          -4.89785         -4.9409        -2.63121
LJ          -3.56537        -5.11399        -3.60054
LJ          -1.77346        -5.14441         -2.1034
LJ           4.67144         2.62421        -6.03397
LJ          -3.85368         5.93755        -3.52564
LJ           5.93379        0.844212         5.44464
LJ            6.2308        -3.08398         1.01247
LJ         -0.704021        -5.90894         2.40125
LJ          -1.93607        -3.90426         -1.6666
LJ           4.39374         4.93509        -4.76046
