108
#Comment!
LJ           1.33173        -6.17688       -0.492809
LJ           -2.0459          -1.037        -1.21346
LJ          -2.36568         5.74116         4.26967
LJ          -6.27333        -4.35299        -5.64971
LJ          -1.22486         6.33094        -2.43159
LJ          -4.82885       0.0189453           2.364
LJ           5.89713        -2.69307        -4.35102
LJ           2.26742         2.72783      -0.0534297
LJ          -2.68355        0.519888         2.90851
LJ           1.13684         2.44274        0.244359
LJ          0.183943        -3.83841        -5.54602
LJ          -5.99591        0.924868         3.27807
LJ          -4.66477          5.9978         2.89993
LJ          -4.95093        -1.29354        -6.07301
LJ          -2.73188         6.07733         2.73748
LJ           5.58902       0.0109208          6.3466
LJ          0.916013         -2.0208        0.488273
LJ           2.93026         1.85058        0.958627
LJ            4.2342         4.61848       -0.680189
LJ           6.37608        -3.62197          -4.586
LJ          -2.41753         5.36619         -6.2114
LJ           1.40688         -1.6863        -1.61885
LJ          -3.78337        -1.38494       -0.128661
LJ          -5.34866        -0.60054          -4.063
LJ         -0.266585         1.13317         1.28308
LJ           6.22548         2.39647         3.40154
LJ           2.75586         1.50669       0.0317091
LJ          -2.14882        -2.97069        -5.75585
LJ            -1.618        -2.64463        -4.91817
LJ           5.61639         4.37994        -3.36447
LJ         -0.231367        -2.02092        0.590849
LJ          -3.48708         2.95609         3.36767
LJ           2.39244         5.85982         5.22624
LJ          -5.65033        -5.99365         6.26256
LJ           2.50471          3.9306         4.16594
LJ           3.04346       -0.656025         5.10289
LJ          -1.53935       -0.209974        -3.86905
LJ          -4.05489        -2.37808         1.61362
LJ          -4.08383        -6.40244        -2.78947
LJ           2.64753         2.89245         2.59704
LJ          -5.14277         4.99183        -4.31046
LJ           2.65855        -4.64513        -5.48417
LJ          -3.11677       -0.778125        -3.59907
LJ           2.06326         2.72871        0.909069
LJ           4.55917         1.92331        -2.24473
LJ           1.03203        -6.43231         5.35783
LJ           4.18074        -1.02414       -0.567325
LJ         -0.714004        -5.51573        -2.70704
LJ           1.86472         3.51198        -3.13286
LJ         -0.426109        -5.21398         4.05235
LJ           1.89207         5.59925        -5.57585
LJ         -0.546574        -4.23828         6.33175
LJ           5.42112        -3.76646        -0.36515
LJ          -3.39921        -1.10469        -5.03441
LJ          -0.91536        -2.03106        -3.84336
LJ          -2.16265         2.52474         3.95656
LJ          -1.41578         1.76906        -2.21703
LJ           -2.7752         3.01297         5.45884
LJ          -4.26689         1.95605         4.69865
LJ          -3.66282         5.38612        -3.91624
LJ          -4.13786        -5.37694         2.79683
LJ           4.49965        -5.07476        -3.81698
LJ            3.7267         4.40851        -4.57923
LJ          -2.99127        -1.11758         4.97988
LJ          -3.50965        -1.98515          4.3215
LJ          -2.53228        -0.83485        -2.84221
LJ           0.92801        -1.57012         2.34889
LJ          -4.28403        0.508807       -0.211626
LJ          -1.41216        -0.36693         1.36371
LJ          -2.96854        -4.69867         1.14041
LJ           -3.1901         4.40071         3.49787
LJ           4.57823         4.06545        -4.05127
LJ          0.374798         3.65794         2.97187
LJ           2.53723         5.94054        -3.43162
LJ           3.02686        -3.44268         2.01243
LJ           1.19951         4.62317        -4.17723
LJ          -3.52459        -6.23035        -4.42939
LJ          -1.15914         4.84484        0.658436
LJ         -0.383021         4.89227         2.29412
LJ           1.01904         3.71497        -0.99089
LJ           3.76605        -3.57298        -2.06869
LJ          -2.87362        -3.11827        -2.85236
LJ          -3.46559        -5.61393        0.175499
LJ      -6.77355e-07         1.23258       0.0640509
LJ          -2.69269        -1.88523         -4.9651
LJ          -2.34205         3.83772        -3.70061
LJ          -2.56376         2.93208        -6.42186
LJ           1.28275         3.66933        -6.24214
LJ           5.68624       -0.315264         -2.9966
LJ           4.71415         4.82935        -5.65057
LJ          -6.23553          1.2141         4.87553
LJ           0.28409        -2.32751        -1.30432
LJ          -4.93974         2.24159        -2.10095
LJ          -6.39929         2.07646        -4.98684
LJ          -2.61216         4.77753         5.47525
LJ           4.50119        -2.11793         1.65185
LJ           5.84556        -5.00604         -4.3042
LJ          -1.50155        -6.32028        -3.89071
LJ          -4.58357        -4.93735        -2.48156
LJ          -3.60744        -4.02544        -1.25595
LJ            -2.759         6.36302        -3.54117
LJ            4.5575          3.7483        -6.20796
LJ          -3.65139         3.34941        -4.65606
LJ           5.23748         1.55887         5.09848
LJ           -4.4869        -4.61744         1.31865
LJ         -0.849523        -5.41891         1.08286
LJ          -1.44119        -3.69877        -1.03001
LJ           3.90203         5.82157        -4.14622
