108
#Comment!
LJ          0.783228          0.7077       -0.682106
LJ          -2.81385       -0.868267         2.75769
LJ           6.11807        -1.49751         4.36459
LJ          -4.52277         6.18856         6.02634
LJ           5.20479         5.53445       -0.806308
LJ         -0.859463          6.3817         3.20861
LJ           5.93151        -4.81084        -3.54199
LJ           4.71495        -5.09929        -1.38522
LJ          -2.20979       -0.403199         4.08583
LJ         -0.264008          4.0399          0.1116
LJ          0.134367        -0.62923        -1.09812
LJ           4.51636         2.52032         4.75776
LJ          0.568812         5.69459        0.216765
LJ         -0.769383        -3.66552         5.94137
LJ           3.90704         2.41391          6.0299
LJ          -6.05747        -2.80384         -3.1076
LJ          -3.43988         4.52056       0.0908592
LJ           4.23822        0.859679         3.92958
LJ           2.35915         6.12203         5.32493
LJ           6.40207        -5.23516        -2.55643
LJ          -1.03074        -1.10778        -5.15456
LJ           1.61833        0.159611       -0.855203
LJ            1.8469         0.62578        -2.32339
LJ          -5.19742         1.10171         4.40846
LJ          0.909778        -1.95411         -5.5477
LJ           5.24958        -4.27004       -0.131559
LJ         -0.560281        -3.04951        0.697922
LJ           5.81878         2.97208         4.16703
LJ           2.05325        -5.57734         1.61658
LJ          0.422443         1.13628         5.95655
LJ           3.04341        -6.01189         3.30069
LJ          -2.28392        -2.49232         -1.4159
LJ          -2.79889         -3.0683         -2.0709
LJ           4.15479       0.0468566          4.5623
LJ          -3.36214         5.66692        -5.82475
LJ           2.16592        -5.91992         -5.5846
LJ           2.94966        -1.57472        -1.43956
LJ           3.03367        0.526834          1.1537
LJ          -5.45761         1.87064         -2.6905
LJ           3.29653         1.38929         4.06074
LJ         -0.361913        0.424061         1.98958
LJ           1.20706         3.96107        -2.52222
LJ           -4.9475        -4.80679           4.429
LJ           4.91158         3.65326         4.51128
LJ           1.93605         1.42171        -4.04954
LJ           4.37552         6.39622         2.58363
LJ          0.629964         3.68914         5.27499
LJ           1.07281         2.33349        -3.67584
LJ          0.438159         4.28913         3.71755
LJ           1.69357        -6.33917        -4.70359
LJ           2.67311         2.62765        -5.58722
LJ          -4.60046        -5.19535         2.82309
LJ          -2.03018        -3.56061        -5.62023
LJ          -3.65943        -2.60906         4.00711
LJ          -4.22614         1.36301        -5.65842
LJ           3.09024         5.15647         6.11228
LJ          -0.93507         1.40554         5.00898
LJ           3.34571       -0.488991         6.29694
LJ          -4.54851        -4.14784         5.89351
LJ           3.90364        -3.09288        -6.27133
LJ           2.96389          5.1076        -1.25962
LJ           6.13546        0.230768        -2.05622
LJ            -5.964        -2.04349         4.80117
LJ          -5.86187        0.359251          3.6251
LJ          -5.90144         1.89637       -0.429802
LJ          -3.38507        0.153606        0.306512
LJ          -1.98875        -1.41917         5.44751
LJ           1.82338         2.27504        -2.79715
LJ          -5.72527        -1.75145        -1.43425
LJ           3.06955        -5.77604        0.642473
LJ          -4.85926         2.54627         4.83538
LJ            6.2318        0.183919        -3.47808
LJ            6.1357          4.8849         4.43448
LJ          -1.70435        -4.21118         5.02544
LJ          -0.46657         1.21245        -4.11542
LJ           2.83703         5.09808         1.30265
LJ          -6.40871         5.55202         5.05644
LJ          0.582163        -6.28768         -1.5837
LJ           5.10823        -3.21545        -1.39121
LJ           1.70917         4.68138         1.19191
LJ           -2.6827        -4.97436        -6.23488
LJ           5.27505        -5.97291        -3.75715
LJ         -0.701093        0.594128        -3.09974
LJ         -0.265309       -0.519905        -6.08787
LJ           2.00497         -5.6682         6.14783
LJ          -1.84104         1.81719         4.90464
LJ          -4.56401         2.78899        -3.41793
LJ           1.58241         3.45296        -6.19198
LJ          0.476519        -1.99158        -2.30708
LJ          -4.78494          -1.744        -5.79141
LJ         -0.258699        0.820646         4.22529
LJ           5.53013         -2.9245         2.37181
LJ         -0.837425       -0.408607        -2.99509
LJ          -2.06133       -0.525955        -3.68573
LJ          -3.69702        -1.53126        -0.69594
LJ           1.90665         2.39902         1.94839
LJ          -4.86377        -2.81324        -3.50517
LJ          -5.75165        0.940869        -3.92651
LJ           1.84608        -4.59391       0.0738487
LJ          -3.16704        -3.37041       -0.962287
LJ         -0.353371        0.323775         5.30292
LJ           -3.4825         2.50064         1.48743
LJ           3.03604        0.506205        -6.12471
LJ           4.10852         1.80659         3.39813
LJ          -0.64881        -1.61634         2.96994
LJ         0.0269309        -5.98092        -2.49717
LJ           4.45848       -0.224679        0.352849
LJ           3.91211          4.0486        -2.82244
