108
#Comment!
LJ           5.19649        -3.58756         5.13471
LJ          -6.23525        -6.19271        -4.64461
LJ          -1.20421        0.443227         1.89999
LJ           2.45035       -0.914678         3.49189
LJ           3.22676        -1.65209         2.03738
LJ          -1.70918       0.0826045         3.06686
LJ          -3.93805        -5.46321        -3.91183
LJ           5.02574         5.38896        -5.77798
LJ          -2.22492          3.2758         4.04681
LJ           1.43221        -6.05375        -6.06467
LJ           -5.4258          2.1668        -5.25398
LJ           -1.3145        -3.26688        -5.39358
LJ           2.36302         4.87196        -4.41134
LJ          -1.15301        -3.33782         1.21324
LJ          0.330093        0.947298          1.3806
LJ           -6.3753         3.60556         4.11074
LJ           0.22113         3.08137        -2.37258
LJ          -2.16352        -3.20503          -6.163
LJ          -1.07132        0.985738         3.60594
LJ           3.26008         2.44949         2.84036
LJ           2.65734         4.56495        0.362929
LJ           0.25464          2.2342        -5.66345
LJ          -6.27751        -4.42807        -5.74153
LJ           1.03146        -3.46346         2.42489
LJ          -1.83326         5.66027         5.15465
LJ           1.84522         3.52858       0.0759937
LJ          -5.86277         -1.7791          5.6599
LJ          -1.83433         5.86569       -0.880935
LJ          -3.47588         5.52603        -1.24167
LJ          -0.58604        -5.40413        -2.02687
LJ           0.96283         2.48783        0.235974
LJ          -5.36516         6.18851          2.8764
LJ          -2.30559        -6.00395        0.400288
LJ          -3.71037        -4.47671        -5.81362
LJ          0.995602         4.97869        -3.06653
LJ           2.80161         5.78018         2.48044
LJ            2.8978           6.139         -4.9207
LJ         -0.291446        -3.15095         1.66434
LJ          -3.28252        -3.58989         6.46145
LJ          -4.91215        -1.62876         3.75459
LJ          0.181416        -1.94208       -0.631487
LJ            2.7559        -3.96696         1.03096
LJ          -6.34013         4.35557        -4.78166
LJ         -0.608645         5.84236         1.24049
LJ          -1.90341         2.41242         -6.2741
LJ          0.390907        0.095008        0.747862
LJ           3.35073        -3.17756         1.94812
LJ          -2.42999         -6.2445         4.83069
LJ           1.02077        -4.47608        -5.15708
LJ           2.11633         5.08067        -3.21885
LJ           -2.1852         -4.0581        -3.92469
LJ           4.86146        -1.51853        0.923368
LJ          -3.15136        -1.92731         2.77712
LJ          -1.12166         4.81719         0.69259
LJ           5.36997        -4.65546        -5.41236
LJ          0.428761        -2.54377         5.21923
LJ           6.08385        -2.07874        -2.74823
LJ          -0.73913         -3.4999        -4.41968
LJ           -4.5943         5.33556        -4.35908
LJ          -3.83856       -0.841024        -4.80364
LJ          -4.31981       -0.224495         1.50837
LJ           1.05871        0.809432        -4.59081
LJ          -4.94064        -5.45854        -6.19956
LJ          -1.39351        -0.94545         -5.9477
LJ           6.09543        -0.46031        -4.64545
LJ          -3.48518         5.30601        -3.71954
LJ          0.857643         4.59976        0.109587
LJ           3.12182         5.75929        -6.20478
LJ           5.68406        -0.48788        -6.00314
LJ           2.03841         1.27042        -5.04479
LJ         -0.119023       -0.939935         4.76753
LJ         -0.537058        0.651321         2.74353
LJ          -4.37892        -5.31746        -5.02782
LJ           3.93714         2.45137       -0.632819
LJ          0.891062        0.289254        -6.12694
LJ           5.49194         4.21103         3.90037
LJ          -3.30332        -4.70311        -1.48369
LJ          -5.05945         4.95198        -5.72667
LJ           3.19959         3.03743        -3.08063
LJ          -1.26081        -4.00856        -3.45689
LJ          0.446276        -3.73399        -4.29279
LJ         -0.616456          1.5111         5.62663
LJ           1.46483         -4.5203         2.36521
LJ          -4.34935        -2.06303         2.95713
LJ            4.7215         1.03565        -1.74787
LJ         -0.342155       0.0439015         6.12031
LJ           3.84581        -4.36261         5.72738
LJ          -6.18755        -5.83327        -3.23514
LJ           6.16638         1.83189        -5.75377
LJ           3.70461        -6.12328        -3.20076
LJ           1.05642        -3.86152         1.15723
LJ           1.78711         -2.3826        0.406601
LJ           5.33806        -4.70504         5.73482
LJ            2.2227        0.556677        -6.31364
LJ          -3.11315         0.21231        -3.12737
LJ          -3.84424        -3.42659         4.50784
LJ          -4.03311         6.43552        -1.79167
LJ          -4.56874        -3.41404         3.53701
LJ          -5.38906         -4.0133         -5.0788
LJ           4.02594         1.59884         2.14504
LJ          -4.81901       -0.815545         0.74736
LJ          -1.92647        0.958946        -6.24948
LJ          -0.58615       -0.689719        -1.12452
LJ          -1.59126         2.11308         2.35204
LJ           5.75011       -0.139251         5.97827
LJ          0.606609          5.4305         1.52233
LJ          -4.54642         2.17633         2.31237
LJ           4.83414        -3.66487        -5.15388
