108
#Comment!
LJ           5.97656         2.88952         0.15249
LJ         -0.628299       -0.571902         4.62469
LJ          -2.76533         4.16105         2.41085
LJ           4.59026        -4.82625         2.59034
LJ          -3.53918          -3.695        0.732619
LJ          -1.21479       -0.368616        -3.90175
LJ           3.05452        -4.63849        -3.13103
LJ           5.86656        -1.92371         4.21498
LJ         -0.328125         5.24208         1.96384
LJ           5.58461         5.91809          6.1172
LJ          -4.75776         4.76517        -4.77491
LJ          -4.95406        -3.88878         5.98296
LJ         -0.621922       -0.396289          3.6317
LJ          -1.37974         1.77235        -4.39787
LJ          -5.43672        -2.22805        -1.52781
LJ           4.13142         3.09037        0.857413
LJ           4.24916        -5.57242        -3.41983
LJ           2.97641        -4.55863        -6.21007
LJ         -0.583212        -2.52127         2.06389
LJ           3.90893         1.20569        0.859213
LJ          -2.31018           1.674         2.68359
LJ          -5.78113        -1.81255         2.80721
LJ          -4.46556        -5.01339        -5.34491
LJ           3.67881         1.20774        -2.13658
LJ          -2.61905        -5.23656         4.28708
LJ           2.03475         1.84935        -4.44566
LJ           6.26509       -0.285666       -0.190058
LJ           -5.5831        -4.18304        -3.95939
LJ          -1.17683        -5.06085        0.426313
LJ           4.38054         0.30703       -0.845983
LJ            6.3078        -5.22799         -3.8087
LJ           5.02636         -3.2609        -1.50854
LJ           3.62377         1.45164        -1.13541
LJ           3.70923        -3.26242        -2.08512
LJ          -5.00885       -0.135117         5.22669
LJ          -0.79132         5.28487        -1.01029
LJ           4.65052        -6.16173        -5.04709
LJ          -3.28226         4.75274         4.81358
LJ           1.50765        0.754922         3.45931
LJ          -2.68013        -5.64257       -0.714994
LJ           2.67293         -3.6068         4.98035
LJ           5.36294        -2.98404         1.70474
LJ           2.06689         1.79171        -0.68781
LJ           5.61277          4.1005        -1.47302
LJ           5.58918         2.77917         6.23417
LJ           2.94835         2.20543       -0.118344
LJ         -0.100334        -2.32176        -6.36091
LJ           6.14252        -3.83566        -4.04613
LJ           2.94399        -3.79221          3.6738
LJ           3.33124        -4.63849         5.57172
LJ           4.14278        -4.67908         6.20323
LJ           4.15729         2.68337         2.08192
LJ           2.73742         4.47877         1.26369
LJ          -3.24934           6.048        -5.06682
LJ           4.00254       -0.109427        -3.05099
LJ          0.542909         2.81759         4.27567
LJ         -0.123117        -5.09642        -4.57709
LJ           5.19705        -5.70029        -1.93382
LJ            1.1112        -6.33159        -3.57244
LJ           4.35389        -3.59478        -3.10253
LJ          -4.07423         4.00389        -4.64818
LJ           3.84185         3.40135        -4.50304
LJ           5.86869        -5.55779         5.22457
LJ         -0.764972        -1.89221        -3.77478
LJ          0.114862        -5.74442         3.91835
LJ           2.93043        -3.35269        -5.31178
LJ          -5.98192        -5.04414         4.95827
LJ          -3.20515        -5.65232         5.25506
LJ             1.535         2.92685          -3.291
LJ          -2.12809         1.90109          3.7961
LJ          -1.32364        -2.75787         5.28219
LJ           5.11922        0.531714        0.422413
LJ           5.09344         3.43057       -0.431057
LJ          -1.80857        -1.67533        -1.71134
LJ           1.95809         -6.0104        0.453503
LJ          -1.11617         4.11199        0.406297
LJ           3.84251        -6.35761        -5.78643
LJ           -3.7887         4.82122        -3.56082
LJ           4.71009        -4.46725        -3.77602
LJ          0.941337        -4.72458         -1.6555
LJ           3.18218         5.69965         -1.5862
LJ          -1.55162       -0.844917         5.21611
LJ           2.01943        -0.43116         4.44932
LJ          -5.36125         3.05579         4.28847
LJ          -5.12909        -6.26307        -2.43319
LJ          -5.67221       -0.731935         5.79564
LJ         -0.939582         1.80545         1.52225
LJ           1.57803        0.479139        -6.05656
LJ          -4.18328         1.69399        -1.12172
LJ          -4.52843        -5.21851         4.55041
LJ           3.45758       -0.803866         1.76447
LJ           1.25822        -2.57864       -0.606086
LJ           3.74125         4.47075         4.49623
LJ         -0.304492          6.0563         -2.8903
LJ           2.41567         6.02678        -0.80123
LJ           -6.1037         5.23565        -2.07718
LJ           5.90411       -0.622227        -2.12205
LJ          -4.23735        -6.42967        0.856528
LJ          -1.27186         2.92842      -0.0102877
LJ          -2.26291         3.42713         5.62627
LJ           5.26845         2.86555         1.96786
LJ          -3.57517         5.16634         3.56753
LJ           4.93161          3.9153         3.98132
LJ           4.75435       -0.521028         6.22091
LJ           3.76142        -5.16388         2.11977
LJ          -3.05837          6.3801         -6.3227
LJ          -3.36965         -1.1401         -1.2604
LJ          0.477058        -4.58758        -3.32142
