108
#Comment!
LJ          -4.53229        -5.12351         2.30095
LJ           -1.9114         5.70222        -4.88451
LJ         -0.392738        -4.30002         0.67233
LJ          -5.53409        -6.13924         5.79406
LJ          -4.32615        -4.20387       -0.885698
LJ          -1.74982         2.45529         4.83355
LJ           5.04946           -3.05        -2.90801
LJ            -5.576         2.99474        -4.58154
LJ           3.85132         4.14515         2.07642
LJ           6.43244         2.00399        -2.94789
LJ          -5.60816        -3.20411         1.41194
LJ          -2.74802        -5.04468         5.63792
LJ         0.0449846         2.20762         3.14271
LJ          0.314754        -2.51638       -0.285057
LJ          -1.92847        -2.73395      -0.0447267
LJ           2.76946         4.20039         1.09232
LJ           4.30406        -2.71391         1.20118
LJ           -5.5655        -6.11466         4.44632
LJ          -2.05733         3.84534         1.66938
LJ          -1.42365         1.25696         1.60225
LJ           6.43659         2.16278         -1.9245
LJ          -1.85514         4.09364         4.85122
LJ          -4.38892         3.25328         -6.3564
LJ          -4.91407         5.29742          -1.643
LJ           1.11994         4.89349          5.9798
LJ           3.10267        -1.11585        -4.00672
LJ           5.50766        0.877072         -4.1467
LJ          -4.44904         2.18204        -2.46133
LJ          -2.59734       -0.788992       0.0264646
LJ          -5.55645         1.33771        -1.47411
LJ          -4.04822         -6.1704         3.84875
LJ           5.48016        -4.50894        -1.42174
LJ           -3.4226         0.41678         -2.7897
LJ           2.67953        -4.09263        -3.17143
LJ          -4.91417          5.0052         5.00417
LJ          -1.97399        -6.24563        -0.22233
LJ           2.10131        -5.32695        -6.34623
LJ          -3.45843         3.52805        0.273509
LJ           1.52615         -3.8209         4.47876
LJ           1.30485         3.09681       -0.775339
LJ           1.89599         -5.3621         4.78578
LJ           5.22134        -2.86625        0.686082
LJ          -3.92977        0.392517        -3.74079
LJ           3.43604        -6.06722        -1.19741
LJ           4.60609         5.71953         5.09946
LJ          -2.07557         0.44542        0.832443
LJ         -0.693746         2.74422        0.551794
LJ           2.99585        -4.45904       -0.325569
LJ           1.77328         -4.7053         5.88618
LJ          -6.18481        -5.09853         4.16491
LJ          -6.33481         6.30237        -4.53863
LJ           4.92942         5.20887        0.605361
LJ           0.54956        -5.85314        -1.52421
LJ          0.298301         4.44821        -1.36549
LJ          -5.77114        -1.72204        -5.54075
LJ           2.48116         4.23901         4.01624
LJ          -1.25591         4.33392        -4.52551
LJ           4.78213        -6.23575        0.655992
LJ          -1.99726         -4.3638        -6.26199
LJ          -5.97977        -3.56847       -0.131809
LJ           0.59927         4.68722        -2.45262
LJ           3.53716         1.16162        -4.62853
LJ          -5.43865        -3.87546        -5.75451
LJ          -0.70731       -0.873075        -6.36258
LJ          -3.35694         1.59941        0.124451
LJ           2.42068         1.32643        -3.30502
LJ          -2.49633         5.89723         2.42934
LJ          -3.09884        -5.70177         -0.2912
LJ           3.28692         3.23411         6.04106
LJ          -4.07784         2.82674       -0.625309
LJ          -1.60763       -0.768773        -1.57491
LJ           4.32954        -1.05382         2.05218
LJ           -1.4567        -3.04288        -3.55753
LJ          -1.82183        -3.73793        -1.72172
LJ           5.63067         4.85376        -1.80354
LJ           3.93956          3.3033        0.786926
LJ          -1.64158        -4.22829         3.86387
LJ          -3.83158         5.19553         -6.1719
LJ           2.10089        -4.99334        -3.35094
LJ           3.47204         2.25791        -2.25698
LJ           1.96757        -6.05548        -1.84377
LJ          -3.17092        0.273113         5.06626
LJ           -2.4912        -1.81124        -3.79362
LJ          -3.48367         4.14346         -6.0296
LJ           3.99311         4.34896         5.45265
LJ           3.36145       -0.755441         -1.9014
LJ           6.42894         3.54432        -1.25411
LJ          -1.09029         3.86326        -5.42192
LJ           3.23847         1.78516         2.14015
LJ          -3.49094        -5.94605         2.81497
LJ            1.0793        -3.35656         5.73113
LJ           6.14823        -4.59698          -0.129
LJ           3.65002        -6.33248         2.30659
LJ         -0.500647         2.92309         1.56966
LJ          -2.21634          -3.658        -4.16395
LJ           4.72023        -6.44751        -1.30689
LJ            2.8241        -4.67111        -4.89049
LJ          -2.41738        -4.65441         1.70306
LJ          -0.71008         3.79739         -1.9898
LJ          -1.43385         3.30172         4.41061
LJ           3.24113         6.06064       0.0523136
LJ          -3.71128         2.71029         6.00824
LJ           4.63064        -5.36395          4.4178
LJ             5.754        -5.46475         4.77497
LJ           5.77003         3.21376         5.52949
LJ         -0.808955         2.54224         -1.9327
LJ          -4.24155        -1.76469          2.2029
LJ          0.875383        -6.21359        -2.62657
