108
#Comment!
LJ           5.23465         -4.0784          5.0467
LJ          -5.03457         6.00394        -4.46087
LJ           -2.0019         1.69669          2.2621
LJ           3.41011        -1.97965         3.68442
LJ           3.30515         -2.0717        -1.49482
LJ          -1.35022        0.719629         3.03556
LJ          -4.57448        -4.45422        -4.67354
LJ           5.88153         5.15418          4.7478
LJ          -2.83134          3.0426         3.21193
LJ           2.28757         4.98107        -5.77514
LJ           -5.6525         1.34552        -5.48128
LJ          -2.81537        -3.38603        -5.01581
LJ           2.31523         4.94937        -3.91666
LJ          -3.62822        -3.19253         1.23964
LJ           2.03016        0.255208         1.22771
LJ           5.97335         3.29378         3.53054
LJ           1.40469         2.43139       -0.453431
LJ          -4.10585         -3.3378         6.32723
LJ          -1.51283          1.3164         4.15386
LJ           3.32145         1.79659          1.6612
LJ           2.21375         4.51559       -0.898173
LJ          0.326357          2.1548        -6.27927
LJ          -6.29901        -4.25245         6.01612
LJ           2.88639        -3.19778         1.06195
LJ          -2.94098         6.33385         4.74241
LJ           2.49174         4.42183         1.74448
LJ           6.15391         0.57687         5.06847
LJ          -2.24334        -6.27811        -1.08364
LJ          -2.29419         5.14546        -1.03103
LJ           1.07067         5.99152        -2.37791
LJ          0.787323         1.07005         1.48476
LJ          -5.72989        -6.40833         2.00514
LJ          -1.72561          -6.303        0.582113
LJ          -2.24969        -4.85824        -4.90874
LJ         -0.442542         6.20616        -4.17795
LJ           2.14143         5.97763         2.26663
LJ            2.6385        -6.15869        -5.91033
LJ          -1.22372       -0.682778         1.36454
LJ          -3.55549        -4.15318        -5.68625
LJ          -5.62783       -0.432354         6.17473
LJ          0.791524        0.421198         -2.3275
LJ            4.0731        -3.83698        0.367944
LJ           6.38617         5.72807         -4.7079
LJ         0.0474743        -5.50808        0.469962
LJ          -2.07769         2.58167        -6.35632
LJ           2.86769       -0.166752        0.778936
LJ           3.23723        -2.90323          4.1939
LJ         -0.886275        -5.92471         4.07147
LJ           1.03761        -5.56671        -5.48648
LJ          0.945336          4.9186        -1.16816
LJ          -2.82933        -5.01215        -3.82634
LJ           5.18335        -2.52377       -0.261767
LJ          -2.90522        -2.75219         1.98273
LJ         0.0907395         4.15017        0.289161
LJ          -6.23733        -3.16054        -5.83142
LJ           2.75682        -4.65285         -5.4827
LJ          -5.57498         -4.4104        -2.30296
LJ          0.603928        -3.74161        -3.75435
LJ           -4.6565        -6.43928        -1.79435
LJ          -3.61425        -3.03801        -4.37066
LJ          -4.69287         0.56278        -1.23019
LJ           2.16984       -0.335938        -4.34156
LJ          -6.27604        -4.20104        -5.06521
LJ         -0.670558       -0.858622         6.07228
LJ           6.04557         2.24039        -3.96971
LJ           -5.5566         4.75664        -2.34441
LJ          -1.38915         5.97952      -0.0434556
LJ           4.20579        -5.46392        -5.68292
LJ           5.85035        0.355124        -5.76486
LJ          0.318524         2.56316        -3.82159
LJ         -0.447643        -1.29431          3.8497
LJ          0.274718        0.171822         3.65806
LJ          -5.38901        -5.96913        -4.84404
LJ            2.1693          1.3245        0.550431
LJ          -1.35655         0.63462        -5.20254
LJ             5.337         4.40819         3.06258
LJ          -2.57682        -4.14368       -0.769024
LJ          -4.78161          4.9845        -6.11791
LJ           2.15148         3.34806        -4.08392
LJ           1.92706         -3.4173        -3.13445
LJ          0.493799        -4.84559        -3.59607
LJ          -2.44582         1.79134         5.51427
LJ           1.96501        -3.63229          1.7495
LJ          -4.28066       -0.794063         1.29889
LJ           4.49475         1.96563       -0.542452
LJ         -0.249258         1.36071         -5.2724
LJ           4.18467        -4.75677         6.31221
LJ          -4.91362        -6.16232        -3.65226
LJ           -5.0416        0.419414         6.34867
LJ           3.00043        -6.29169        -2.00758
LJ          0.405231        -4.01186         2.54398
LJ           2.84383        -3.76112        0.136934
LJ           4.98661        -5.33927         5.65942
LJ          0.448184      -0.0631964        -4.26295
LJ           -4.2835        0.346034        -2.30691
LJ          -3.50789         -5.8338         4.40813
LJ          -2.17173         5.10022         -2.0661
LJ          -4.36134        -3.49124         3.80403
LJ          -5.47245        -1.97624        -4.32517
LJ           3.36076         1.36114        0.410593
LJ           -6.3864         -2.0087         1.00261
LJ          -2.89873         1.04553         4.86931
LJ         -0.817517        -1.09441        -2.68451
LJ          -2.09744         2.61298         1.45567
LJ           5.88391         0.01968          6.1071
LJ          0.398586          4.8619          1.6556
LJ          -4.56161         1.01153         3.17537
LJ           4.12072        -3.96596        -5.25462
