108
#Comment!
LJ           1.46815         3.23096         1.55473
LJ          0.401332        -4.09586        -2.06779
LJ         -0.928113          3.4395         1.95394
LJ           4.40121        -4.88309         6.21017
LJ           1.15227        -5.49383       0.0132561
LJ           5.76102         3.49806          5.2843
LJ           4.24226        -2.30086        -4.94479
LJ         -0.599126         1.20566        -1.24928
LJ           -4.1514         1.55781        -5.94936
LJ          0.325117         2.17921         1.69107
LJ          0.784428        -4.52372         -2.8764
LJ           -2.8352         3.09775         2.96543
LJ          -2.00801         6.06301         5.18128
LJ           3.22778         1.17211        -5.48325
LJ           5.39249        -3.16202         4.11764
LJ           3.25429        0.146088         5.65232
LJ           1.14527        0.587211       -0.897137
LJ           2.19925         2.43084        0.243467
LJ           2.32318     -0.00107014        -2.67957
LJ           4.76968        -1.09713        -5.36028
LJ          -5.29868        -4.72442         5.95848
LJ        -0.0417504        -4.62619        -3.96523
LJ          -5.26238        -3.94417        -1.52185
LJ          -5.74891        -1.60941        -3.15775
LJ         -0.749211         1.73219         2.89545
LJ          -3.84431         4.20625         4.95867
LJ           2.59759       -0.334248        -1.14838
LJ          -2.15095        -4.84971         4.72933
LJ          -4.40414        -3.20981        -1.60942
LJ           5.18532         6.08931        -2.02722
LJ           0.72819       -0.323414         1.32998
LJ          -5.17666         2.23338         2.00101
LJ          0.216619         5.58978         3.58776
LJ          -3.80672         6.45253         3.34998
LJ           5.76869         4.69013         5.79011
LJ           2.83844        -3.67399         4.52935
LJ          -1.49792      -0.0750212        -5.81016
LJ           6.41678        -4.81095         4.84951
LJ          -6.08158        -6.34783        -4.58679
LJ           1.44346         2.08846         2.32659
LJ          -6.45393         5.19649        -2.12961
LJ           5.56944        -2.28124         6.02403
LJ          -5.11178        0.133073        -5.14954
LJ           1.20428         1.63319        0.516823
LJ          -5.01878         1.43181         -4.3069
LJ          0.259198         4.93563          5.8157
LJ           6.41257         3.96652        0.821625
LJ          -1.07374        -6.19673        -2.79111
LJ           0.29119          2.4268        -3.43558
LJ          -2.42616        -3.59301         1.80407
LJ        -0.0746665        -4.57116         5.14318
LJ             3.302        -5.02023        -5.89566
LJ           3.86614         3.67207         1.78223
LJ          -4.07083       0.0561221        -4.11983
LJ          -2.10132        -6.19761        -3.23405
LJ          -4.99612         3.30953         2.09427
LJ          -1.38972        0.365993        0.201162
LJ          0.538317          4.5899         3.70095
LJ          -5.49203        0.600673         4.52336
LJ         -0.454996        -4.63877        -2.54106
LJ           5.66483        -5.32461         2.76252
LJ           -5.8549         3.64349        -5.17263
LJ           2.09887         4.36253        -3.89686
LJ           -1.9663        -3.05964         4.04173
LJ          -3.12136        -2.91746         4.54141
LJ          -1.76157         2.51109        0.254453
LJ           2.03996      -0.0361491         1.40625
LJ           4.25929       -0.247265        -2.28108
LJ          0.401304         1.83233         3.04897
LJ          -1.69982       -0.830067         1.56273
LJ          -2.21359         1.96381         1.95196
LJ           5.77045        -5.54613         -4.5219
LJ          0.402492         5.35387          1.7879
LJ           2.52285         4.17862        -2.76554
LJ          -1.12833        -1.18261         5.05195
LJ           2.01679         2.63193        -3.04237
LJ          -3.13434        -4.58293         5.38701
LJ         -0.563506         2.85564         3.30942
LJ           2.11036         5.02933         -0.1488
LJ           1.43386       -0.460197        -0.92132
LJ           5.73284        -4.83124        -3.10981
LJ            0.6207        -0.40142        -2.95877
LJ         -0.924005        -3.51308         1.40847
LJ           0.66846           3.641         2.17141
LJ          -3.24004        -3.56669        -4.58557
LJ          0.857414         3.93387          4.3862
LJ          -1.29207         4.98697         4.65815
LJ           1.46518         3.59718        -4.22507
LJ           5.57716          1.8975        -2.87019
LJ           2.22306         4.93842         6.46062
LJ          -3.84823         1.63794         4.34536
LJ         0.0303945        -2.15684        -3.34366
LJ          -3.76073        -3.28985        -3.15344
LJ           5.42873         3.32197        -5.79042
LJ           3.84851        -5.85028         4.85941
LJ           6.17532        -3.97284         1.55918
LJ           6.09497        -6.24583        -1.91282
LJ          0.670081         6.10857        -3.19536
LJ          -4.69278        -5.19218        -3.24839
LJ          -3.93616         5.69821        -5.49767
LJ          0.614582        -6.23144        -2.33124
LJ           4.40948         3.01277        -5.19051
LJ          -3.25665         -3.6989        -2.29356
LJ          -5.88354        0.130347         5.80551
LJ           3.09906        -1.55387         1.36278
LJ          -1.18561        -6.12608         4.20907
LJ           -3.0659        -3.75881       -0.482379
LJ           5.44554         3.42314        -4.66643
