108
#Comment!
LJ           1.48336         3.03464         1.77069
LJ          0.538659         -4.2417        -1.97129
LJ         -0.795124         3.29315         1.79588
LJ           4.18345        -4.92164         6.14284
LJ           1.34907        -5.37674        0.263239
LJ           5.63385         3.82734         5.57542
LJ           4.19713        -2.19681        -5.05718
LJ          -1.04962         1.02143        -1.24857
LJ          -4.31997         1.62619        -5.65318
LJ          0.242691         2.14021         1.55608
LJ            1.2406        -4.46483        -3.08531
LJ          -2.63123         3.22672         2.85497
LJ           -1.9941          6.2794         5.41949
LJ           2.89904         1.35876        -5.42372
LJ           5.13612        -2.95322         4.25308
LJ           3.04957      -0.0350434          5.5084
LJ           1.30085        0.384849        -1.02792
LJ           2.16761         2.27826        0.118625
LJ           2.09887       -0.309843        -2.71702
LJ           4.57213       -0.997713        -5.36918
LJ          -5.51543         -4.5049         5.90038
LJ         -0.175584        -4.94898        -3.97278
LJ          -5.51145        -4.18249        -1.43204
LJ          -5.77127        -1.72012        -3.06961
LJ         -0.617093         1.62495         2.82896
LJ          -3.42487         4.26323         5.02116
LJ           2.46581       -0.418279        -1.27499
LJ          -2.11124        -5.05171         4.63139
LJ          -4.60807        -3.03999        -1.37461
LJ           5.06227         6.28097        -1.97885
LJ          0.915658       -0.142902            1.39
LJ          -5.26059         2.20366         1.97725
LJ          0.152115         5.55782         3.52871
LJ          -3.62879         6.41695         3.15396
LJ           5.81026         4.73766         5.94625
LJ           2.82692        -3.89862         4.49086
LJ          -1.46276      -0.0651213        -5.95235
LJ           6.05576        -4.99686         5.12837
LJ          -6.05813        -6.38674        -4.70405
LJ           1.59739         1.99144         2.42211
LJ           6.43022         5.26646        -2.00052
LJ           5.79112        -2.11003         5.94918
LJ          -5.29133        0.136944        -5.12498
LJ           1.16475         1.62321        0.569545
LJ           -4.7094          1.2957        -4.53179
LJ          0.243218         4.70554         5.78123
LJ          -6.34929         4.32927        0.924794
LJ          -1.11857        -6.25258        -2.58214
LJ         0.0878157          2.3703        -3.32622
LJ          -2.57233        -3.48106          1.6466
LJ         -0.215298        -4.37062         4.89453
LJ           3.59653        -5.03302        -5.82409
LJ           3.99835          3.2598         1.99806
LJ           -4.0458        0.237353         -4.1827
LJ          -2.17072        -6.26136        -3.29381
LJ          -5.19427         3.28934         1.97683
LJ          -1.43039        0.306543        0.283502
LJ          0.807016         4.65572         3.41774
LJ          -5.52703         0.63508         4.41264
LJ         -0.467821        -4.57299        -2.20608
LJ           5.33729        -5.16426         2.58253
LJ          -5.66621         3.34778        -5.21882
LJ           2.06552         4.50077        -3.90101
LJ          -1.99557        -3.23276         4.03163
LJ          -3.04533        -2.92046         4.45259
LJ          -1.71394         2.86904        0.635459
LJ           2.00702        0.100227         1.28592
LJ           3.92698       -0.286726        -2.44992
LJ           0.39356         2.12477          3.1405
LJ          -1.54082       -0.563327         1.55997
LJ           -2.2053         1.83591         1.88253
LJ           5.67612        -5.23005        -4.58355
LJ          0.522588          5.4748           1.621
LJ           2.52891         3.96184        -2.84649
LJ           -1.4303        -1.06038         5.28991
LJ           2.12179         2.43794        -2.85625
LJ          -3.05103        -4.64907          4.8507
LJ         -0.511408         2.94541         3.75203
LJ           2.00787         4.99274       -0.413146
LJ           1.56859       -0.668103       -0.794209
LJ            5.9065        -4.97859        -3.20032
LJ          0.906565       -0.328952        -3.03068
LJ         -0.744344        -3.36444         1.47627
LJ          0.457559         3.86141         2.37109
LJ          -3.19652        -3.54382        -4.58418
LJ           1.16252          3.7631         4.23294
LJ          -1.13598         5.16603         4.47455
LJ           1.40385         3.59758        -4.22519
LJ           5.52785         2.08952        -2.83343
LJ           2.15013         5.07369         6.30296
LJ          -3.67398         1.58015         4.30931
LJ         0.0859374        -2.12078        -3.47292
LJ          -3.71377        -3.79147        -3.24162
LJ           5.34894         3.40438        -5.91196
LJ           4.28349         -5.6167         4.84907
LJ           6.31914        -4.06929         1.50451
LJ            6.1298        -6.39562        -1.78213
LJ          0.813114         6.08058        -3.38125
LJ          -4.67425        -5.20658        -3.32794
LJ          -3.98812         5.43413        -5.72899
LJ          0.827742         6.39779        -2.25228
LJ           4.51633         3.20276        -5.05279
LJ          -3.12157        -3.35331        -2.15926
LJ          -5.77216       0.0351614         5.89649
LJ           2.68399        -1.36782          1.4305
LJ           -1.4087        -6.10676         4.46379
LJ          -3.24401        -3.70094       -0.354881
LJ           5.47293         3.18302        -4.55093
