108
#Comment!
LJ           4.08906        0.823268         5.25134
LJ          0.510407          5.3869          2.0527
LJ           4.68857         2.27754         2.63238
LJ           0.52623         6.17923         3.64043
LJ            3.3271         6.45666        -5.60287
LJ           3.41562         4.09411        -4.09077
LJ          0.527318         1.91398          5.0133
LJ           3.14744        -5.27495          1.0987
LJ        -0.0463616        -2.57211         3.83464
LJ           0.17431         1.50524         1.73094
LJ            4.4207         1.35665        -2.91764
LJ          -1.09958         2.37556         -6.3642
LJ          -3.37308        -2.81945         2.57376
LJ          -4.76554         4.70996        -4.54376
LJ         -0.184046         1.97364         6.32576
LJ          -1.44616       -0.609431        0.809605
LJ           1.84959        -2.61158        -1.58174
LJ          -0.86044        -1.92064      -0.0961688
LJ           4.75316        -2.76855        -5.77998
LJ            1.3089         2.51558        -3.32353
LJ            2.9891         1.03508         4.47919
LJ           1.27523        0.699837        0.555835
LJ           3.91256        -2.70076         1.76734
LJ          -6.32989        -4.36805       -0.509158
LJ          -2.05401      -0.0802648         2.71118
LJ          -6.32548         -4.7206          5.4398
LJ           3.82911        -1.93032        -2.60024
LJ          -3.07655         5.84314        -2.68753
LJ          -6.03923        -2.76208       0.0168484
LJ           3.13436        -3.84655       -0.995516
LJ           2.70768         5.67948        0.175999
LJ           3.99134         2.79367        0.261683
LJ          0.193199        -2.52644         5.15846
LJ         -0.656996         2.21841         0.18894
LJ          -5.10336        0.813923        -4.22069
LJ           1.23922         4.52028         2.08061
LJ          -3.38779       -0.254746          3.6738
LJ           -5.3315         -4.8809         1.58437
LJ         -0.471578        -5.22993         4.24061
LJ           1.93365         2.01559         3.89043
LJ           5.55272         2.42868      -0.0581891
LJ         -0.848668         2.54591         4.74456
LJ          -4.63861         1.13092         3.73839
LJ           2.43905         4.65799        0.294413
LJ           -4.8237          3.0492        -5.51438
LJ            2.9873         -6.1676         -3.2674
LJ         -0.653432       -0.625491          3.6615
LJ          -3.59942        -6.01611        -2.10074
LJ          -4.37294        0.932932       -0.326229
LJ          -4.89861       -0.247543        -1.63019
LJ          -6.26761       -0.257855       -0.646943
LJ         -0.461875         -4.1914         4.85164
LJ           5.79968         5.60024        -5.49023
LJ           3.19743        -5.93006       0.0663965
LJ          -2.87975         3.60279        -4.97025
LJ           4.16629         1.02097         0.40426
LJ          -1.74861        0.062342         1.64446
LJ           3.32988         5.19214        -3.65948
LJ          -6.07772         1.33618         2.50843
LJ           1.40304        -1.86988         2.20093
LJ          0.596126        -5.04541        -2.02887
LJ           1.19473         2.86414           -1.48
LJ          0.421306         1.80737        -4.50566
LJ         -0.881943        -4.76231         1.53412
LJ          -1.35672        -3.52182         2.09516
LJ          -5.69941        -0.87711         5.61177
LJ          -5.79591         1.92299         1.29129
LJ          -6.44391        -3.12326        -5.97459
LJ          0.174284         5.11643         4.63208
LJ           1.01916         1.85841        0.361823
LJ           -3.4356         3.13882         3.01884
LJ           3.63738         1.02647        -3.80647
LJ           1.99776        -4.52164         -1.5269
LJ          0.909567        0.481161        -6.07179
LJ           5.48217         4.72564        -3.38129
LJ           4.49425        -1.31381        -2.06292
LJ         -0.919335         -4.6245        0.359889
LJ         -0.361346        -3.28668         5.88519
LJ         0.0667228         2.13662        -2.57416
LJ           4.12195         2.24595        -2.50674
LJ           5.43109         5.75902        -3.91318
LJ           1.10024         1.49644         5.90709
LJ            3.0265        -1.05793         2.51794
LJ          -6.18819        -6.20852         3.66855
LJ          -2.52721        -4.77711        -2.59219
LJ           2.05865       -0.575771        0.695504
LJ          -1.84499        -2.47812         2.05989
LJ           1.21989         1.19649        -5.32667
LJ           5.26795         -5.7223        -4.27891
LJ            1.2092        -4.97628          2.9605
LJ          -1.25619       -0.572575         4.57774
LJ          0.225888          0.4281        -4.72811
LJ          -3.62094       -0.933081         6.33274
LJ           4.32713         6.27648        -5.95932
LJ          -4.00624       -0.699674         3.05614
LJ          -3.16356        -6.42309      -0.0189765
LJ           3.72533         2.83436         1.40298
LJ           4.81562          5.3178        -5.55792
LJ          -3.61779        -6.06947        -3.70037
LJ          -5.47966         -1.5371         1.36941
LJ           3.36787         2.65715        -3.28362
LJ          -4.55405         5.10847        -1.26496
LJ          -1.48379         3.57472        -1.04386
LJ          -3.21441        -2.57836          -5.338
LJ          -4.45794        -3.54488         5.14599
LJ         -0.795116        0.933904         4.06753
LJ           2.94762       -0.444329         1.60242
LJ          -6.12074         1.66675        -3.09163
