108
#Comment!
LJ          -4.72226        -3.65273         3.34418
LJ          -2.23046         5.83693        -4.67964
LJ         -0.792809        -6.19895        0.287624
LJ           6.08256        -5.38696         5.07991
LJ           6.20151        -1.66391        -3.33725
LJ          -2.88534         1.96461         4.50241
LJ            5.2714        -2.34349        -4.34743
LJ          -5.01013         4.32504        -2.02913
LJ           6.24121         3.54105         2.49279
LJ           6.20922        0.477611        -4.85343
LJ          -6.37411        -1.46018         3.54247
LJ          -1.15804        -5.03343         5.82301
LJ           1.10052         3.03862         6.10717
LJ           2.82685        -3.01623        0.782308
LJ          -5.42672        -2.36167        0.414734
LJ           3.69497         3.43987         1.80972
LJ           5.61653         -1.0731         3.06293
LJ          -4.83826        -5.65373         5.71155
LJ          -2.75484         2.47527         2.62386
LJ          -4.18556         1.20963         1.69835
LJ            4.6448         2.80858        -1.10062
LJ          -1.12236         4.05265         5.05257
LJ          -6.40438        0.648416         4.65183
LJ            5.7047        -5.39777        -1.75813
LJ         -0.289257         4.06695         6.29034
LJ           3.17436        -3.28454        -5.64449
LJ           5.13326         2.01133        -5.13035
LJ          -3.03646         4.21953        -1.80446
LJ          -2.74165         1.52685       -0.572377
LJ           5.86259         2.62434        -2.01648
LJ          -3.57844        -4.52337         2.91903
LJ           6.04616        -5.55197       0.0205169
LJ          -2.54044        -1.64446        -5.95799
LJ           1.15985        -3.73262        -3.20606
LJ          -4.22662         6.29487         6.24745
LJ         -0.389023        -5.79434         1.54043
LJ           1.06197        -4.91874        -6.25439
LJ           -3.1883         2.89789        0.430602
LJ        -0.0768074        -3.21655         5.82861
LJ           2.80766         1.50235        -1.80036
LJ           1.48234         5.42231         5.99659
LJ           5.42577        -3.31307        0.381631
LJ          -6.03481        -2.00052         -4.1689
LJ           2.07378        -4.28032       -0.816261
LJ          -6.06101         4.84667         5.19067
LJ          -4.72885        0.245073        0.779853
LJ           1.05001         6.30909         3.26664
LJ           2.62019        -5.20577         1.91674
LJ           2.26898        -5.36303         5.97704
LJ          -4.11737        -6.31462          2.4978
LJ          -5.02449          5.8022        -3.72557
LJ           4.66343         6.40293       -0.899669
LJ          -1.33036        -4.33333       -0.593107
LJ            1.6407         5.28335       -0.681587
LJ          -4.70677        -3.15128         5.85551
LJ           2.78984         5.28065         1.67872
LJ          -2.49701         4.94779        -3.23461
LJ           5.57935         6.27542       -0.352161
LJ          -3.73725         -4.1221         5.06748
LJ          -5.37941        -4.46046       -0.203259
LJ           3.39346          4.4915        -1.43568
LJ           3.02299        0.255781        -4.71053
LJ          -5.11645        -3.38517        -5.10661
LJ         -0.366994       -0.729436         5.98999
LJ          -5.84397         4.88766       -0.584611
LJ           3.15165         3.21009        -2.73628
LJ         -0.777295         5.44053        0.159353
LJ          -5.25204        -5.02557        -2.07271
LJ            4.5389         2.21206         5.68445
LJ          -4.20037          3.3047        -1.17687
LJ          -1.26303       -0.791966        0.547861
LJ           2.78114       -0.898007         2.98799
LJ           2.21075        -4.71306        -4.02452
LJ         -0.779361        -2.86319       -0.783651
LJ          -5.48404         3.36969        -3.44853
LJ           5.01712         4.23243         1.26334
LJ          -2.45807        -3.45452         1.95502
LJ           -3.8623         5.40314        -6.26846
LJ          0.871828         5.94721        -4.48986
LJ           3.86604       -0.433798        -2.71771
LJ          0.986561         -5.1009        -2.27444
LJ          -3.68107         1.07233         5.06143
LJ          -5.38617        -1.93425        -1.99974
LJ          -3.65596         2.28075         -3.5729
LJ           3.26974         3.31224         3.69064
LJ            2.2338       -0.065695        -2.32193
LJ           5.21063         4.68879         -3.1069
LJ          -2.93079          4.8348        -5.94223
LJ          0.239297         2.17594         4.08177
LJ         -0.721658         5.78216          1.4861
LJ         -0.199211        -4.75721         5.70261
LJ          -6.39205        -4.68532       -0.694844
LJ           3.81974        -5.48349         2.43878
LJ          0.835948        0.247023        0.872222
LJ          -4.22605         -2.2563        -6.10969
LJ           5.03803         -5.9728        0.608853
LJ           2.42184         6.31138        -4.45561
LJ          -2.50992        -4.49662         3.42259
LJ           2.28272         2.11527        -3.36816
LJ         0.0173501          2.2449         1.48417
LJ            3.2809        -5.84549        0.109428
LJ           -1.9786         1.82632         5.18855
LJ          -5.51379        -3.66107         6.32925
LJ          -5.01042         5.23854         2.25569
LJ           6.20959         1.19334        -6.01438
LJ         -0.461167         3.10846       -0.613542
LJ          -4.45844         -1.4616         4.45463
LJ           1.59441        -6.03289        -3.13313
