108
#Comment!
LJ          -5.19422        -3.61991         3.78969
LJ          -2.44974         5.76782        -4.63002
LJ           -1.1848         5.63656        0.761704
LJ           5.61125        -4.90404         4.79417
LJ           5.52407       -0.930906        -4.43349
LJ          -2.77196         1.95839         4.68113
LJ           5.60262        -2.02096        -4.66689
LJ          -5.15557         4.27266       -0.886017
LJ          -5.98402         3.41487         2.58959
LJ           5.55632        0.015178        -4.84186
LJ          -6.04714        -1.25667         4.48668
LJ          -1.32684        -5.09585         6.00572
LJ           1.38925         3.37997        -5.64252
LJ           3.86805        -2.93547         1.04504
LJ          -6.31667        -1.84784        0.639959
LJ           4.23144         3.33011         2.07261
LJ           5.30729       -0.334247         3.27519
LJ          -5.04157        -5.48422         6.15456
LJ          -2.97918         1.96403         2.97157
LJ          -5.15301         1.08919         1.57451
LJ           3.80757         3.11379       -0.835693
LJ         -0.663835         3.95307         4.95431
LJ           5.84518       -0.243984         4.06956
LJ           5.04456        -4.60654        -1.40135
LJ         -0.838338         3.75014         6.12315
LJ           3.19434        -4.17547         6.40776
LJ           5.15793         2.26754        -5.54371
LJ          -2.70417         4.81973        -1.65053
LJ          -2.94911         2.40003       -0.599421
LJ           5.19255         2.85292        -2.38542
LJ          -3.04534        -3.53898         2.60545
LJ          -6.38907        -5.61385        0.262491
LJ          -2.34406        -2.37118         5.89789
LJ          0.609719         -4.0422        -3.38218
LJ          -3.69072        -6.03342        -6.38742
LJ        -0.0122233        -5.91022         1.68403
LJ          0.879788         -4.8343         6.32603
LJ          -2.88333          2.6935        0.820519
LJ         -0.794628        -3.36962         6.36026
LJ           3.26616        0.986318        -2.34041
LJ           1.32783          4.7763         6.45379
LJ           5.53402        -3.52001        0.266257
LJ           6.31372        -3.24202        -4.19368
LJ           1.64737        -3.71269       -0.765805
LJ          -5.41625         4.43058         5.37289
LJ          -5.47882        0.373635        0.887068
LJ           1.62269        -5.43781         4.16365
LJ           2.06112         -5.3065         2.32497
LJ            2.1822         -5.7366         6.41441
LJ          -3.36984         6.29543         1.93982
LJ          -4.70506         6.16421        -3.70729
LJ           4.62026        -5.81114        -1.16251
LJ          -1.89401        -4.26671       -0.264947
LJ           1.18411         5.18329       -0.532283
LJ          -4.61569        -3.48914         5.24372
LJ           2.75324         5.64154        0.631204
LJ          -2.91323          5.1005         -2.8046
LJ            5.4872         6.12912        -1.03848
LJ          -4.07738        -4.40166         4.18496
LJ           -5.7341        -5.36034       -0.701589
LJ           4.44548         4.11085        -1.34215
LJ           2.87397      -0.0301888         -4.6766
LJ          -5.49604        -3.30362        -4.90554
LJ         -0.260921       -0.690743         5.79946
LJ           -6.3226         5.90062        -1.12057
LJ           3.28287         3.67975        -2.45562
LJ         -0.162434         5.37714       -0.362057
LJ          -5.46447        -4.97509        -2.94506
LJ           5.02516         1.70868         5.78508
LJ          -3.86716         3.55425         -1.5018
LJ          -1.06774       -0.845865         1.18942
LJ           2.24476       -0.764399         3.33472
LJ           3.39469        -5.20754         -3.8591
LJ         -0.464806        -2.17989       -0.512548
LJ          -4.82524         2.93085        -3.76028
LJ           5.18758          4.4366          1.5176
LJ          -2.05845        -3.38438         1.41831
LJ          -4.23574         5.37507        -6.28591
LJ          0.703995         5.47021         -4.8153
LJ           4.09909        -1.17379         -2.9408
LJ          0.756187        -4.91912        -2.54059
LJ          -3.99227         1.25447         5.17843
LJ          -6.46275        -1.98412         -1.4583
LJ           -3.7418         1.71509        -2.75758
LJ            3.1844         3.06763         3.06777
LJ           1.75876         0.30203        -2.11419
LJ           4.99178         5.16814        -3.82133
LJ          -3.19303         5.04906        -5.52209
LJ         -0.549676         2.42777         5.01423
LJ          0.402591         5.79473        0.765257
LJ          0.185817        -4.62843         5.40159
LJ           5.86795        -4.62689         -0.3859
LJ           4.08543        -5.34817         2.97313
LJ          0.918256       -0.657358         0.14575
LJ          -4.28388        -1.49377         6.34177
LJ           5.99572          -5.884         1.16683
LJ           2.01877         5.72312        -4.05966
LJ          -2.93279        -4.23045         3.90407
LJ           3.49248         1.59077        -3.60528
LJ          0.543901         1.81955        0.527562
LJ           3.57212        -5.16844        0.494359
LJ          -1.71658         1.56367         4.43058
LJ          -4.58366        -3.21434        -5.80524
LJ          -4.31514          4.5356         1.39213
LJ          -6.45495         1.00698        -6.17938
LJ         -0.310449         3.33834       -0.191765
LJ          -4.32399        -1.28747         5.35317
LJ           1.96701        -5.67218        -3.47165
