108
#Comment!
LJ           3.19894         1.63311         4.63712
LJ           2.24856         6.41371        0.340249
LJ           2.50797         2.35496         1.84937
LJ           1.29966        -6.24823          4.7151
LJ           2.97348        -5.31895         5.46875
LJ           3.10677         5.30343        -4.72721
LJ           1.90122        0.576169         5.61837
LJ           4.12186        -2.89344       -0.550083
LJ          -1.44987        -1.52636         4.75419
LJ           1.18723         1.16686        0.847907
LJ           4.73179       -0.922678        -3.55262
LJ          -1.87666         2.97255         5.48366
LJ          -3.01116         -3.8332        -0.17248
LJ           -3.0212         5.07198        -3.83206
LJ          0.865348        0.751922          6.0098
LJ         -0.216902        -2.38217         2.36904
LJ            2.9297        -2.71876        -1.04253
LJ         -0.151405       -0.920783       -0.101542
LJ           3.68785        -3.99915        -4.50767
LJ           1.75975        0.486748        -4.29541
LJ           3.39876       -0.603877         4.25314
LJ         0.0024315         2.56458        -1.02803
LJ           4.61966        -3.81557        0.922025
LJ          -6.13545        -3.69793        -1.29764
LJ          -1.61241     -0.00645207         2.88751
LJ           4.17317        -6.31336          5.3602
LJ           3.35155        -1.64832        -2.61197
LJ          -2.66482         5.61251        -1.46709
LJ           5.78948        -1.30671          1.1804
LJ           3.67351        -4.55283        -1.46949
LJ           2.47911         4.45914         1.00536
LJ           5.45583          2.6372         0.99747
LJ          0.502754        -3.39206         4.03802
LJ          -1.14827         4.46217        0.689967
LJ          -5.16783         2.17054        -4.90005
LJ           2.07663         5.29585         2.98044
LJ          -2.78497       -0.308689          4.1728
LJ           5.42127        -5.61647      -0.0643176
LJ           -2.2709        -5.69382          5.4121
LJ            2.2043        0.606356          3.4158
LJ           5.82123         3.48326       -0.716131
LJ           -2.7884         1.28782         4.95181
LJ          -4.73346         1.89042         5.60172
LJ           1.97724         3.61192        0.492611
LJ          -5.76724         2.00134        -6.18421
LJ           2.07109         5.72975        -4.64757
LJ          -2.92996        -2.28661          2.9711
LJ          -3.24702         5.83734        -3.12969
LJ          -3.25546         1.35768         -1.2627
LJ          -4.44356        -1.15507       -0.899403
LJ           -4.4459        -1.23919        0.648814
LJ          -3.24349        -4.41866         6.44701
LJ           5.77356        -4.35895         6.05467
LJ          0.611853        -4.44838       -0.763117
LJ          -2.28008         5.16766        -3.03623
LJ           4.66597          2.2117        0.318233
LJ          -1.93446      -0.0236398         1.09089
LJ           2.65227          5.1868        -1.83799
LJ          -6.02057         1.19066         3.05316
LJ          0.321367        -2.91498         1.52805
LJ           1.48106        -3.67575       -0.948957
LJ           3.11985         2.93512        -2.54934
LJ           1.69976         3.46678        -4.55303
LJ          -1.19853         -4.6532         2.75607
LJ          -1.72641        -3.37085         2.35916
LJ           5.42278        -3.75212         4.34616
LJ           4.95532         1.05957        0.784995
LJ          -3.85966        -2.52196        -5.58148
LJ          0.253081         4.49054         4.09725
LJ         -0.187208         2.15257         1.24264
LJ          -2.23709         2.26626         1.73286
LJ           4.09762       -0.130081        -3.87048
LJ           2.16942         -4.9301        -1.06198
LJ          0.471539         1.36858        -5.48602
LJ          -5.68212         2.99815        -3.86433
LJ           4.30547       -0.199483        -1.53489
LJ          -1.28524        -4.86509        0.952583
LJ         -0.198846        -1.27428         5.90594
LJ          0.854154         2.19169        -2.01633
LJ            2.9182         0.20992         -1.4947
LJ            6.4247         6.00845        -3.83778
LJ           1.56295         1.50032        -5.72339
LJ           2.18404        -0.61295         2.99305
LJ          -4.38795         5.85426         3.45298
LJ          -2.70321        -4.19861        -3.25826
LJ           4.00521       -0.498747         1.36307
LJ          -1.00993        -3.34782         3.11311
LJ           1.18698         1.90888        -4.76597
LJ           4.90357         5.79003        -3.79372
LJ            1.1828        -5.52511         3.53964
LJ          -1.05527        0.719457         4.38415
LJ           0.81871       -0.355038        -4.49766
LJ            -3.125         1.55363        -5.54927
LJ            4.2497         5.10799        -6.07566
LJ          -5.18161        -1.73281         3.04253
LJ           -4.1342        -5.86442        0.425968
LJ           4.54698         4.17346        0.813283
LJ           3.95121         4.41543        -5.27708
LJ          -4.36146        -5.48898        -4.24113
LJ          -4.95339        0.369831         3.01422
LJ           2.98453         5.03872        -3.05546
LJ           -5.5485         5.12338        -2.38468
LJ          -1.62031         2.17318       -0.343065
LJ          -3.88896        -1.35689        -5.73607
LJ          -3.73366        -1.75043         3.56227
LJ         -0.559065         2.21702         4.63301
LJ           4.84127        -2.11208         1.17241
LJ           6.32811         1.58262        -3.26634
