108
#Comment!
LJ           5.21587      -0.0412862         6.08881
LJ         -0.724071         3.83768          4.6701
LJ           -5.3458         1.56193         4.01383
LJ         -0.603156         5.00449         2.72656
LJ           4.39541         4.57162        -3.28507
LJ           4.42392         2.95111        -2.50507
LJ           1.16796         3.26217         6.03978
LJ           2.54793         5.34964         3.96145
LJ           1.40534        -2.80089         2.95957
LJ          -1.13867         2.22788         1.71648
LJ           5.37792         1.66806        -2.74935
LJ         -0.884277         1.86648         -5.1914
LJ          -2.89886       -0.377372         5.31311
LJ           6.43517         3.69011         -5.5219
LJ         0.0894918         2.87689         6.15195
LJ          -3.15397         1.70322       -0.438493
LJ          0.712319        -1.25846        -2.25948
LJ          -1.53982        -3.46097       -0.639212
LJ          -6.42251        -1.63092         5.76644
LJ         -0.642446         4.05824        -2.33299
LJ           2.34309         3.03424          5.0483
LJ          0.170407         1.70642         1.70103
LJ           3.73146        -3.16289         2.26834
LJ          -5.94205        -4.26761        0.141924
LJ          -3.79604       -0.102229         2.66816
LJ          -3.78735         -5.1901          5.7974
LJ           3.66488        -2.95646        -3.07813
LJ          -3.86872         5.85269       -0.699284
LJ           -5.2745        -4.90159       -0.741082
LJ           1.58897        -3.06986       -0.636445
LJ           2.68879        -5.83453        -0.87043
LJ            1.8345         2.19335        0.246819
LJ         -0.707593        -2.58018        -5.57367
LJ         -0.417858       -0.705917        -1.28516
LJ          -5.38476       -0.302478        -2.92469
LJ         -0.376357         4.28246         1.02074
LJ          -3.17037        0.825639         4.64883
LJ          -2.61735        -3.90337         3.59384
LJ            1.3119        -6.14742         3.06675
LJ           1.58828         4.18122          4.5858
LJ           5.18264        0.867074        0.693618
LJ          0.171029         5.30537         4.67756
LJ          -4.75619        0.547347         1.16951
LJ           3.18262         6.31502         0.15924
LJ          -3.63779         4.63419        -4.45463
LJ           3.91519        -4.41679        -1.92871
LJ           1.43284         1.33838         3.95727
LJ          -3.77127        -5.88447        -1.97686
LJ          -5.86261        0.295746        0.846699
LJ          -5.69747        0.636685        -2.41213
LJ           4.52904        0.834672        -2.01692
LJ           2.84426        -3.14297          4.5321
LJ          -5.96301         2.38882        -3.30428
LJ           6.11665         4.56495       -0.109618
LJ          -4.08687         1.45749         4.76312
LJ           3.75629         0.37423        0.720639
LJ         -0.986312        0.313652          1.6517
LJ           4.71577         4.98769         -5.8806
LJ          -4.93105         2.27994         1.14736
LJ           2.04036       -0.289986         3.24027
LJ        -0.0564893         6.40416        -2.98127
LJ          -1.39147         2.56143       -0.578301
LJ         -0.835331         1.29524        -2.93155
LJ         -0.730253        -4.07897       -0.298803
LJ          -0.91641        -3.50454         2.53125
LJ          -5.90098         4.35633         6.17678
LJ          -4.37642         2.09073         2.65803
LJ           3.25769        -4.36402        -4.09152
LJ          0.235863         6.35232         4.35828
LJ           1.94276       -0.267666        0.126541
LJ          -4.94289         4.15413         4.62625
LJ           4.68483         2.23659        -3.27646
LJ           1.84847        -5.57616        -1.70692
LJ           1.02404        0.298308        -6.17105
LJ           2.78812         6.39088        -2.93652
LJ           5.42618        -1.92071        -2.26442
LJ         -0.224264        -5.04407        -0.75223
LJ          0.421304        -5.17288          3.9875
LJ          0.136521         2.61315        -3.67472
LJ           4.94849         5.95448        -2.72067
LJ           3.92119        -5.87683        -4.63241
LJ          0.585925        0.872522         5.91909
LJ           3.96157       -0.992438         1.22393
LJ           4.48751        -5.09378         3.95474
LJ          -2.21549        -5.74645        -1.95543
LJ          0.841193       -0.559136        0.991997
LJ          -3.42298        -1.67604       -0.262534
LJ           1.93557        0.920875         6.29902
LJ           5.75723        -4.86459        -4.86915
LJ           1.70349        -3.81598         1.74464
LJ          -1.64899        -2.18727         4.07183
LJ         -0.547713       0.0575357          6.4108
LJ          -3.77508        -2.90783          5.5364
LJ           4.75351        -5.91191        -5.30628
LJ          -3.60835       -0.808742           1.744
LJ          -2.20402         5.72367       -0.966832
LJ           2.79369         1.51395        0.743116
LJ           3.59222          5.7934        -5.98465
LJ          -2.93569        -4.99417        -3.92344
LJ          -6.26244         -4.2432        -1.11367
LJ           1.51082         1.87052        -4.98173
LJ          -2.98982         5.42468     -0.00104428
LJ          -1.35805          5.1337        -2.18691
LJ          -2.50115        -4.16192        -4.95306
LJ          -3.32318        -6.42235         5.86676
LJ         -0.695147        -2.15575         2.92299
LJ           2.89367        0.579818         3.42365
LJ          -5.24376         1.72086        -3.49234
