108
#Comment!
LJ          -6.08609         4.48898        0.880943
LJ         -0.820085         2.53701        -6.35081
LJ          -2.99442         6.01809         2.11815
LJ           6.11437        -5.21482         3.59557
LJ          -3.61292        -4.36104         1.06845
LJ          -1.31746         0.34886         -5.2364
LJ           3.22703        -4.05531        -2.53348
LJ           6.26941       -0.548838         5.70295
LJ          0.961163         4.82646         2.08327
LJ            5.9277         4.56867        -5.54847
LJ          -5.33029         6.17652        -2.29477
LJ          -5.11277        -4.37708         5.97897
LJ          -1.24679        0.953019         3.06881
LJ           -1.7517         1.98815        -3.20129
LJ           4.25376        -2.03443        -1.03336
LJ           3.38575         3.56314        0.189215
LJ            3.3083        -5.53421        -2.12607
LJ           3.88006        -5.18195         5.91376
LJ          -1.11637        -4.96317         1.77296
LJ            2.3658         1.65487         1.06897
LJ          -3.37101         1.28455         1.79572
LJ          -4.10483        -3.94889         3.67229
LJ          -3.50989        -5.05099        -4.12263
LJ           5.68289         2.76947        -2.65509
LJ         -0.691164        -6.28376         4.98842
LJ           2.74496        0.300398         -5.5652
LJ            6.3028       -0.625072        -2.01638
LJ          -5.52539        -1.96677        -3.38616
LJ           -1.8849        -3.99452        0.285191
LJ           5.78138          0.6769        -1.66229
LJ          -5.55537        -5.99736        -5.47531
LJ           6.22787        -3.94016        -1.40292
LJ           5.56124         1.87217        -0.77537
LJ           4.14284        -3.06856        -2.75575
LJ          -3.97513         1.86598         3.76893
LJ         -0.460237         5.20035        -1.82251
LJ           3.86412         6.33776        -5.74053
LJ          -2.71657         4.96372         3.57811
LJ            1.2092        -0.82434         3.65733
LJ          -1.73143         5.98548        -0.20923
LJ            2.9596        -4.05194          4.8935
LJ           5.50189        -2.93732         1.18373
LJ          0.398178         1.76573        -1.94129
LJ           5.45264         5.15303        -1.93667
LJ           4.31349         4.00297         6.25405
LJ           1.26327         1.58973        0.320043
LJ          -1.10218       -0.662541        -4.39614
LJ           4.69957        -4.37322        -3.72964
LJ           1.97957        -3.97024         4.19416
LJ           4.93682        -4.57913         5.82766
LJ           4.19987         -5.2995        -5.09185
LJ           4.42677         3.31179          1.6975
LJ           1.69813         4.92586        0.374134
LJ          -2.13091         4.52196        -3.62628
LJ           5.13756       -0.340989        -3.63726
LJ          0.827296         4.05512         4.15714
LJ         -0.847595         6.30419         -4.2972
LJ           4.20192        -6.24777        -1.15824
LJ          0.405499        -5.61411        -4.49982
LJ           4.93244        -3.51089        -1.54707
LJ          -2.19257         2.87489        -3.44374
LJ           4.18296         2.44324        -3.84222
LJ           -6.0485        -4.69354         5.93031
LJ         -0.610192        -1.82232        -4.70319
LJ          0.307902        -3.88553         1.47263
LJ           2.59762          -1.823        -4.42225
LJ          -4.56823        -6.03224         3.21542
LJ          -1.25528         6.14238         3.80516
LJ           2.14458         3.46777        -4.71148
LJ          -3.41792         2.05636         2.97789
LJ          -1.77789        -1.83262        -5.40404
LJ           5.27687       -0.257451        0.842528
LJ          -6.19927         1.07401        -1.65328
LJ          -2.69849        -3.87139        -2.95964
LJ           2.17939        -5.89812         1.06158
LJ          0.653841         4.10825         0.43862
LJ           1.81086        -5.80979         6.19467
LJ          -4.20351         5.27688        -4.97694
LJ           2.89317        -4.22759        -3.98169
LJ           2.40874        -6.27106        -2.24749
LJ           3.54273         5.92299        -1.20276
LJ          -2.16495       -0.526874         5.14189
LJ           1.00658        -1.20008         6.04748
LJ           -4.3845         3.27026         4.55422
LJ           6.37906         6.02905        -3.47304
LJ           5.63218       -0.223788         3.34524
LJ          -2.78756         2.15601        0.529524
LJ           1.74869        0.939362        -5.74817
LJ          -4.43307         2.10933       0.0748973
LJ          -4.69421        -5.28817         4.43103
LJ           3.02423        -1.55436         3.12782
LJ           2.91168        -3.31658        -0.15813
LJ            1.2171         4.92782         3.90635
LJ          -1.50264         5.58438        -2.26053
LJ          0.709924        -5.90782        -1.69892
LJ            6.2548         5.59107        -2.52935
LJ           4.72281         -1.6978        -2.60212
LJ          -2.96999        -5.45171        0.249283
LJ          -3.02065         2.92291       -0.522969
LJ           -1.1111         3.57494         4.96775
LJ           4.72101         4.33155         1.94922
LJ          -4.21864          4.5813         4.90413
LJ           4.38151         4.66236         3.27334
LJ           3.74904       -0.774573         -6.2486
LJ             4.642         6.41542         3.38853
LJ          -2.02674         4.61975        -4.79283
LJ          -3.47997        -1.41168       -0.255443
LJ           3.13988        -5.29293        -3.69504
