108
#Comment!
LJ         -0.144892         3.52137         1.63524
LJ            4.9125         2.03816        -5.52313
LJ           4.46696         0.78516         3.09187
LJ         0.0759532         1.39246         1.97981
LJ           1.86415       -0.724097         3.40698
LJ           3.43968         -2.2253        0.348092
LJ          -2.73575         2.22021        -3.63909
LJ          -2.27828         3.14786        -1.56982
LJ           5.03084         4.95387        0.753445
LJ          -2.65689         4.31256        -2.17146
LJ          -2.96873        -2.77386        -5.26209
LJ          -2.26629         4.05627        -5.59215
LJ           1.84189         4.19796         4.78825
LJ         -0.977842        -4.52651        -3.44164
LJ         -0.414613          6.2992        -2.00159
LJ          -2.71494        -5.01361          6.1639
LJ           1.50885         -1.6819        -1.48055
LJ           5.31038        0.322346         4.20388
LJ          -5.00788        -1.47258        -4.09036
LJ          -4.50904       -0.462744         6.40889
LJ            6.4532         -5.0754         6.06011
LJ           -1.1078        0.619654        -1.28068
LJ           4.55827        -2.28552         6.22863
LJ         -0.737118         2.68654        -2.97113
LJ          -6.14849         1.19603        -4.03514
LJ            1.1268       -0.896879         5.33076
LJ          -6.14827         2.96703        0.868222
LJ          -6.03244          2.4022        -4.20273
LJ           1.16237         2.11705         5.80161
LJ          0.521186        -1.11147         3.96308
LJ          -5.14204        0.895802         1.32331
LJ          -1.79079        -6.12971       -0.540846
LJ            4.0605         -1.5905        -6.01436
LJ            2.3886        -3.74416       -0.794641
LJ           1.51324        -3.13758        -4.01841
LJ          -5.25535        -1.32703         6.21977
LJ          0.486206         5.28572        -0.60732
LJ          -1.71113        -6.42138        -5.30514
LJ          -1.51617         3.32631         2.65252
LJ           -4.4417        -5.50668        -2.88378
LJ           4.68733        -6.22266         5.39373
LJ          0.508011        -5.16238        -2.77699
LJ          -4.49211         2.34769          5.7724
LJ          -3.42533         1.53214        -4.04037
LJ          -2.84515       -0.759618         5.12425
LJ            3.1364        -1.97789         4.10894
LJ           3.68233        -5.61624         1.91276
LJ           4.87172        -5.21512        0.723291
LJ           6.28832         2.77289         4.66887
LJ           4.95745         5.99521         2.66443
LJ          -1.70904        -5.50837        -5.75245
LJ          -3.37922         2.63193        -1.69146
LJ           -3.9986        -5.04038        -1.85582
LJ           3.04273        -3.96869         2.14541
LJ          0.996782        -4.42427         4.58221
LJ           3.96597        -5.35745         4.23755
LJ            2.3674          6.0386        -2.34881
LJ          -3.39552        -4.23636        -6.37515
LJ            2.7896         3.88644         2.53659
LJ          0.369312         3.88243         -2.2945
LJ          -2.70422         4.39211         4.80541
LJ           3.45918       -0.258737         2.39985
LJ            1.8946       0.0948438          2.1871
LJ          -5.21855         6.37458       -0.167229
LJ             2.811         4.15737         4.28727
LJ           3.90247         4.77753         4.34471
LJ          0.732669         1.41776        -3.85934
LJ          -3.87145        -3.03896         6.05403
LJ           4.57806         1.12527        -4.81294
LJ          -2.87673         5.87455        -6.11566
LJ           -3.6981         2.66308          2.9056
LJ             3.982       -0.448855         4.28044
LJ          -4.15259       -0.985363          4.9998
LJ           4.29751        -6.25606        -5.22396
LJ          -1.35637         3.55448        -3.43397
LJ          -3.90696         1.28383         1.88486
LJ           5.50551         5.81547        -1.84086
LJ          -3.59288         3.21622         5.98004
LJ          -2.51502         1.92299        -2.40627
LJ          -1.19857        -5.76706        -1.47415
LJ          -4.81042         5.24682        -0.29888
LJ          -2.23682         4.23981         3.83913
LJ          -2.77884        -2.20281       -0.864259
LJ          0.332852          4.7339        -4.69428
LJ          -3.04393         2.30356        -0.30982
LJ           4.84421        -3.74236         6.31862
LJ           4.84778        -5.95642         3.55342
LJ            6.0852         1.58025         4.63548
LJ           5.68043          4.4843        -2.72807
LJ           1.30152        0.888488         5.29576
LJ          -1.93626        -2.93499         4.42105
LJ          -2.12684        -3.57092       -0.135642
LJ           1.70995         4.16393         1.92643
LJ          -3.54388         1.25371        -1.73806
LJ            3.1365         5.44946         3.85988
LJ          -6.03234          4.9061         3.61415
LJ           2.18481         4.34209          5.7953
LJ          -3.16555        -1.77376        0.369567
LJ            4.4332         -2.5827        -4.63848
LJ          -5.18042        -5.27278         5.84813
LJ          -3.02356         4.65727         5.91968
LJ           2.48233        -2.05841         1.83898
LJ           5.03194        -3.93395        0.582124
LJ           2.51001        0.160227         4.24278
LJ          -4.80867         1.32335       -0.261019
LJ          -3.46988        -5.99535        -3.79912
LJ          -3.63642       -0.697015        -2.17953
LJ          0.244687         2.22829        -4.64893
