108
#Comment!
LJ            6.2451         3.30372        0.380047
LJ          -0.63473        0.250375         5.04215
LJ          -2.81779         4.62122         2.31441
LJ           5.03766        -4.88124         2.86224
LJ          -3.56783        -3.84831        0.822376
LJ          -1.24618       -0.187177        -4.21961
LJ           2.97085        -4.47481        -3.02108
LJ            5.9133        -1.67485         4.61759
LJ       -0.00572357         5.14607         2.01041
LJ           5.68133         5.57542         6.43081
LJ          -5.00141          5.0704        -4.12943
LJ          -4.97698        -3.97885         6.00295
LJ          -1.06156       0.0972735         3.38652
LJ          -1.48339         1.85526        -4.10186
LJ          -6.22537        -2.16176         -1.4428
LJ            3.8805         2.87733        0.866661
LJ            4.0422         -5.5351         -3.2277
LJ           3.06121         -4.6702        -6.44154
LJ         -0.719589        -3.12395         2.00645
LJ           3.63124         1.59642        0.888558
LJ          -2.30245         1.38255         2.61517
LJ          -5.35803        -2.34233         3.01929
LJ          -4.21682        -5.02111        -5.03892
LJ           4.08727         1.65983        -2.46843
LJ          -2.07976        -5.44236         4.41361
LJ           2.38121         1.35751        -4.78455
LJ           6.22451       -0.448073       -0.760291
LJ          -5.52277        -3.61154        -3.81026
LJ          -1.34134        -4.78446        0.381235
LJ           4.63896        0.481272        -1.05563
LJ          -6.34997        -5.44679          -4.247
LJ           5.40958         -3.4698        -1.39345
LJ           4.11356         1.46982         -1.0019
LJ           3.65623         -3.0556        -2.20358
LJ          -4.71796        0.380912          4.8479
LJ         -0.683897         5.23486        -1.16421
LJ           4.42871        -6.27207        -5.23279
LJ          -2.96961         4.98792         4.58245
LJ           1.42887        0.377402         3.48472
LJ          -2.56488        -5.92471       -0.525072
LJ           2.89768         -3.8299         5.11481
LJ           5.39815        -2.97036         1.57307
LJ           1.66472         1.80188        -1.01146
LJ           5.53959         4.35814        -1.59521
LJ           5.26676         3.07684         6.23691
LJ           2.41312            2.04      -0.0457713
LJ         -0.326315        -1.85712        -5.91404
LJ           5.79948          -3.939        -4.00006
LJ           2.68437        -3.83558         3.68475
LJ           3.60414         -4.4352         5.51329
LJ           4.30032        -4.89543        -6.26972
LJ            4.1715         2.79754         1.86044
LJ           2.48157         4.59799         1.04082
LJ          -2.90825         5.55429        -4.81575
LJ           4.27479       -0.168532        -3.22686
LJ          0.608755         3.12372          4.2461
LJ          -0.37667        -5.46829        -4.54009
LJ           4.98217        -5.83621        -1.70586
LJ          0.991674        -6.20494        -3.81763
LJ           4.60158        -3.61671         -2.7465
LJ          -3.54893         3.90212        -4.31763
LJ           4.01578         3.12992        -4.21271
LJ           6.17952        -5.31956         5.37129
LJ         -0.716038        -1.91907        -3.94975
LJ          0.425113        -5.46464         3.09235
LJ           2.84133        -2.95661        -5.08881
LJ          -5.81867        -5.36014         4.50831
LJ           -2.8269        -6.15112         4.90926
LJ           1.68035         3.06869        -3.64303
LJ          -2.45764         1.95133         3.63151
LJ           -1.4611        -2.56215         5.81984
LJ           5.17153         0.32656        0.573287
LJ           5.52849         2.83762       -0.781467
LJ          -2.02539        -2.22996        -2.02522
LJ           1.75998        -5.79148        0.830501
LJ         -0.671341         4.11143        0.418438
LJ           3.32991        -6.28823        -5.96385
LJ          -3.94333         4.84374        -3.94851
LJ           4.21517        -4.55421        -3.84315
LJ           1.34665        -5.03553        -1.86483
LJ           3.30265         5.71763        -1.50298
LJ          -1.75459        -0.78901         5.20667
LJ           1.77218       -0.643545         4.86734
LJ          -5.12883         3.09568         4.35704
LJ          -5.47611        -6.29963        -2.72442
LJ           -6.0572       -0.532096         5.16499
LJ           -1.3622         1.88167         1.27764
LJ           1.59574        0.555063         -6.0246
LJ          -4.09585         1.88032       -0.846778
LJ          -4.45887        -5.21042         4.53377
LJ           3.35036        -0.99367         2.10482
LJ           1.66907        -2.76021       -0.490707
LJ           3.10201         4.59329         4.35754
LJ         -0.638455         5.96467        -2.78522
LJ           1.92344         6.24831       -0.970758
LJ          -6.16009         5.28762        -2.16347
LJ            5.7257       -0.846035        -2.08719
LJ          -3.81271        -6.25049        0.629156
LJ          -1.89266         2.84869       -0.163023
LJ          -1.97009         3.45841         5.46922
LJ           5.17901         3.33433          2.0756
LJ          -3.84208           5.024           3.873
LJ           4.82747          4.0925          3.7539
LJ           4.36052       -0.440662         6.43883
LJ           3.91447        -5.54586          2.4109
LJ          -2.79956         5.90981        -5.83253
LJ          -3.40388        -1.20236        -1.00399
LJ           1.14903        -4.75002        -3.26395
