108
#Comment!
LJ           5.23725        -2.12822         4.33066
LJ           5.06087          -6.044        -3.33923
LJ          -2.55173        0.625036         1.62385
LJ         -0.148269         1.79416         2.38417
LJ           3.92626         4.31957         6.40591
LJ         -0.944861        0.369535         2.35214
LJ          -0.11699         5.34894        -4.67294
LJ           3.53383         6.08932        -4.55526
LJ          -1.24239         3.71047         5.90374
LJ           3.48104        -5.75409        -6.07021
LJ          -4.91037         1.08942         -5.8598
LJ          0.621569        -2.37169        -4.98393
LJ           2.62931         4.90796        -4.13942
LJ         -0.813702        -6.05919         3.69576
LJ          -2.33487       -0.709118        0.917033
LJ          -5.05879         4.44427         5.29422
LJ          -0.96266         4.76479        -4.87217
LJ          0.723138        -3.36084        -5.37578
LJ         -0.394883        -2.94955         4.02763
LJ           5.56119         2.92236        -6.13928
LJ           4.76539         5.26347         2.24988
LJ          -2.17814         2.51905        -5.46586
LJ           1.80377        -4.90737         -6.3281
LJ         -0.848732        -5.56114        -6.19691
LJ         -0.130595         5.24022         5.65097
LJ         -0.368785          2.6433        -3.46837
LJ            6.2871        -2.92459         5.53107
LJ          -1.67421         3.69354       -0.431884
LJ           5.75072        -4.77547        -1.98599
LJ          -4.53432         -2.1666       -0.281118
LJ          -2.04458         3.07159        -3.03438
LJ           -4.6053         5.59402         5.02091
LJ          -2.98612         -5.7756         0.39224
LJ          -3.06401         6.27001        -4.96706
LJ           1.17507         1.51733       -0.850953
LJ           4.62336          4.6875         3.51191
LJ           2.27369         4.28664        -5.25093
LJ           2.06418         -5.5337        0.805468
LJ         -0.439133      -0.0999326         5.00661
LJ          -5.85584        -2.50604          4.4168
LJ           1.74156        -4.02371       -0.820877
LJ          0.921261        -5.06908        0.756153
LJ           5.86385         4.75979        -4.53551
LJ           1.29582         5.68788         4.27863
LJ          -3.03987          2.3731         6.19495
LJ          -2.03719       -0.349038         4.19366
LJ           2.77996         4.95489        -1.65715
LJ           5.92273        -6.44666         5.44676
LJ         -0.441394       -0.437634        -4.16076
LJ           4.07422         3.40555        0.112881
LJ          -5.78647        -2.29272         5.92708
LJ           3.80837        0.529125         3.80979
LJ          -2.70449         -2.4766         5.98875
LJ          -4.29112         2.61613        -1.06213
LJ           4.57105        -5.90113          5.1298
LJ          -5.73367      -0.0631486        -1.13954
LJ            4.6732        -0.19886         6.43912
LJ          -1.43855        -4.66778        -3.16209
LJ            -1.492         3.84824         4.77085
LJ          -2.72248         4.28211        -5.71003
LJ           6.42475         3.37975         2.73638
LJ          0.109326          3.3636         6.11787
LJ          -2.37655         6.02271         6.33383
LJ           -2.6468        -0.45941        -4.15418
LJ          -6.40597        -4.74496        -6.40354
LJ          -1.64833         4.61658         5.51689
LJ           5.49896         6.34962         3.70571
LJ          0.688677         3.58762         2.89503
LJ           5.33152        -3.78572        -6.35407
LJ           3.93856        -2.02039         5.22183
LJ          0.517367       -0.119375         3.34085
LJ         -0.240102         2.54626         3.44084
LJ          -4.31923         4.03939        -5.16995
LJ          -4.16762         1.90492        -4.93441
LJ           5.89581        0.696347         3.62264
LJ          -6.32956         4.03057         5.57786
LJ          -5.30691         6.31977        -2.65575
LJ           -5.8708         4.32016        -4.00751
LJ           5.56051         2.45686       -0.926487
LJ          -1.56039        -5.71086         -2.6677
LJ          -2.69743        -1.02559            5.28
LJ           2.81865       -0.765898        -5.29055
LJ          -1.83028        -4.27491         1.88568
LJ          -1.65971         4.74524         2.13118
LJ            3.8469         2.79233        -1.60785
LJ           2.33139        -1.68736        -5.58429
LJ           2.78561        -4.19738         3.66773
LJ           4.96684        -4.31761        -3.24498
LJ           4.96534         3.88582        -3.57079
LJ           2.83483        -6.01789        -4.30914
LJ           1.91517        -4.70528         2.17431
LJ          0.823865       -0.743686          1.3392
LJ            3.9279        -4.90755         5.05216
LJ           5.50339       -0.558381         4.09649
LJ         -0.792473        0.387769        -4.64957
LJ          -4.62732         -2.5774         4.62357
LJ          -5.63036        -3.73615       -0.549433
LJ          -3.62398       -0.639196         3.82363
LJ          -3.72392        -3.87869        -6.37489
LJ           4.20788          2.9844        -6.31068
LJ          -3.16226         2.80892       -0.515643
LJ           1.89328         3.68862        -3.70127
LJ          -1.25981       -0.643676         2.67207
LJ          -1.65313         2.63238         1.51486
LJ          -6.38496       -0.762624         4.07666
LJ        -0.0745116        -6.05227        0.759054
LJ          -4.39037         4.61321        0.400562
LJ          -5.21368         -3.5999        -1.68607
