108
#Comment!
LJ           6.42544        -4.04618         4.46535
LJ          -3.42899         5.52949        -4.59682
LJ          -1.89409         3.00268         1.66447
LJ           4.36666        -3.39747          4.0224
LJ           3.32221        -2.17367        -5.35021
LJ          -1.29697         1.70657         4.10374
LJ          -5.60527        -2.98838        -5.13878
LJ           -6.1243         4.75625         2.03461
LJ          -4.12962          3.0888         2.78139
LJ           3.80235         2.60886        -5.37152
LJ          -5.64115       -0.224834        -6.39099
LJ          -1.76805        -4.64176        -6.20489
LJ           2.00826          4.5993        -3.81106
LJ          -6.12359        -2.97548         1.31423
LJ           4.29624       -0.448579         1.06496
LJ           5.24359         3.23965          2.8967
LJ           3.01828         1.23743         1.51067
LJ          -5.55846        -4.60796        -5.99482
LJ          -2.63966        0.841192         4.33499
LJ           5.37104         1.05476         1.52262
LJ            2.8181         4.23203        -1.31445
LJ         0.0389159          3.0197         5.76627
LJ           6.41382        -2.58372         5.33704
LJ           4.05728         -3.7704        0.236539
LJ          -2.05967         4.94172         5.32823
LJ           2.85432         6.42986         3.97141
LJ           5.43586         2.12795         5.88652
LJ          -2.23588         6.10375          -1.394
LJ          -3.25546         4.66544        -1.19637
LJ           3.01797          4.1453        -2.47853
LJ          -1.18704        -1.10521         1.82797
LJ          -6.09759        -6.06639         1.09909
LJ          -1.96602        -4.45323         3.07881
LJ         -0.931988        -4.56479        -4.28157
LJ          -1.99837        -5.40262        -5.36169
LJ           1.14718          6.3098         1.85646
LJ           1.95144        -5.35216         6.32064
LJ          -2.11122         1.99302         1.18985
LJ          -2.70082        -4.20776        -5.61546
LJ           4.87388       -0.102903        -4.66264
LJ           1.10824         2.58339        -4.32822
LJ           4.99974        -4.04421      -0.0515785
LJ           5.84098        -5.75435         -4.7501
LJ          0.695846        -3.81888       -0.282411
LJ          -3.60509         3.47255         6.01716
LJ           5.08547        0.198779         0.95366
LJ           3.13751        -2.69629        -6.45855
LJ          0.524238        -5.70473         3.36562
LJ           1.33488        -5.91543        -5.58677
LJ          -1.31072         5.27198         0.37407
LJ          -3.75799        -5.87755        -3.78365
LJ           5.20025        -3.92166        -1.10281
LJ          -2.89001        -3.58758         1.07165
LJ           1.36062         4.17381       -0.327389
LJ          -4.95442        -2.96593         5.84532
LJ           2.78907        -6.33044         -2.5427
LJ          -4.13025         5.93021        -1.86918
LJ           2.90548        -4.91637         -2.4822
LJ          -4.29365         -5.5194        0.957134
LJ          -4.75446        -4.37796         -2.6502
LJ          -6.35109         2.20727        -1.34186
LJ           2.67496       -0.708017         -4.4403
LJ           5.64995        -3.22743        -4.09745
LJ         0.0372095       -0.592895         5.24286
LJ           6.15386         5.14627        -3.11007
LJ           4.76868          4.4219        -1.69939
LJ            -0.529         6.14662       -0.369984
LJ           6.33983        -4.79247          -5.146
LJ           5.80637        0.821765        -6.32802
LJ          -1.67404         3.52668         -2.4417
LJ         -0.617478        -1.12152          2.8011
LJ          0.777769       -0.412377         4.29288
LJ           6.04243         6.41692         -3.4916
LJ          0.736082       -0.367837        0.168028
LJ           -2.9899         1.70947        -4.49619
LJ           5.26649         4.53064         2.41693
LJ          -1.81635        -3.64403       0.0503598
LJ           -4.5573         5.17658        -6.23675
LJ           1.13682         4.25804        -5.04552
LJ           4.37256        -2.92703        -3.53739
LJ          0.555962        -4.96002        -3.02139
LJ          -4.31649         1.52925          5.4561
LJ           3.59797        -2.29446         0.21954
LJ          -4.03146        0.358902       -0.595451
LJ           3.83313         2.64095         1.02812
LJ          0.596373        0.960146        -3.02436
LJ           4.40097        -6.35869        -5.56591
LJ          -4.27713         6.23544        -4.32146
LJ          -2.78924         1.41354         6.30597
LJ           2.12283         6.32544       -0.831863
LJ          0.272479         -4.1143         3.88193
LJ           4.23471        -4.75361       -0.154591
LJ           4.66802        -5.19586         4.37456
LJ          0.510551        -1.45625        -2.05359
LJ          -4.31868       -0.436907        -4.21015
LJ          -5.09997        -5.92908         3.08172
LJ        -0.0541999         4.66102        -3.11793
LJ          -4.01509        -3.65423          4.1843
LJ           6.10254        -0.28964        -3.72752
LJ           2.06929         1.23301       -0.630435
LJ           4.87471        -3.28757         1.14586
LJ          -2.49215          1.5222         3.34018
LJ          -2.19159        -1.92805        -4.18461
LJ          -2.87591         2.99389        0.764762
LJ           -6.0577        0.867066         5.75156
LJ         0.0795808         4.08282        0.996058
LJ           -4.4397       -0.160501         4.14123
LJ           3.13454        -4.68297        -4.48572
