108
#Comment!
LJ           2.31746         1.97388          4.0088
LJ            2.8892        -5.81504       -0.738649
LJ          0.688887         2.23499         1.21167
LJ           2.09893        -5.61376         5.27973
LJ           2.86132        -4.74296         3.92523
LJ           3.80582         5.44683        -5.44248
LJ           3.17674       -0.394123         6.26764
LJ           6.36083        -1.59092       -0.847492
LJ          -2.41092      -0.0806396         5.87945
LJ           1.80041         1.42995       0.0906448
LJ           4.53908         -2.6437        -3.92204
LJ          -2.17687         3.16779         4.39397
LJ          -2.63805        -4.67059        -2.33887
LJ          -1.16871         3.93416        -4.39556
LJ           2.06259       -0.286669         6.29818
LJ          0.593959         -2.3314         3.69805
LJ           2.42627        -1.90692        -1.52977
LJ          0.473284       -0.209075       -0.210577
LJ           2.83897         -5.0122        -3.47266
LJ           2.28249       -0.280265        -5.54637
LJ           4.31603        -1.84521         4.87534
LJ         -0.803723         4.02573        -2.36046
LJ           5.11269        -4.48528       0.0087695
LJ          -6.00717        -3.15594        -1.87804
LJ          -1.20846        0.261049          3.0043
LJ           2.06467         5.54272         5.46275
LJ           3.13109         -1.3013        -2.40055
LJ           -2.8778         6.36298        0.668475
LJ           6.25406        -1.77851         1.70436
LJ           4.29512        -4.93781        -1.45312
LJ           2.13146         3.39152         1.72447
LJ           6.25415         2.42452         1.40038
LJ           0.65726        -4.61736         3.41336
LJ          -1.43056         6.16125         1.21191
LJ          -5.65963         3.53924         -5.5498
LJ            2.6492         6.04922         3.64783
LJ          -2.25094       -0.482894         4.72427
LJ           4.37799        -5.99117        -1.83303
LJ          -3.80312        -5.96823         6.41977
LJ           2.05104        0.879477         3.34282
LJ            6.0163         4.19494        -1.03449
LJ          -4.16831        0.308442         5.14724
LJ          -5.14603         2.04556        -5.68627
LJ           1.79829         2.86394        0.651294
LJ          -5.74521          1.3849        -6.40581
LJ           1.18127         5.10402        -5.65373
LJ           -4.1034        -4.13124         2.39003
LJ          -2.83645         6.15165        -2.41572
LJ          -2.31044         1.68302        -1.95074
LJ          -3.92823        -1.86754        -0.27849
LJ          -3.13646        -2.03207         1.73979
LJ          -5.41689        -4.61276          -5.309
LJ           5.55388        -2.01996         4.77296
LJ          -0.87302        -2.95831        -1.86815
LJ          -1.95319         5.83904        -3.12728
LJ           5.47541         2.65966        0.696564
LJ          -1.99747       -0.124023        0.892322
LJ           2.17308         5.04602       -0.409454
LJ           -5.9395        0.949397         3.37972
LJ         -0.464835        -3.93389        0.930676
LJ           2.23017        -3.04468      -0.0524234
LJ           4.63257         3.07193        -3.50515
LJ           2.28502         4.18044        -4.27019
LJ          -1.90103        -4.35162         3.26098
LJ          -2.20174        -3.09574          3.1546
LJ           3.03646        -5.45411         3.08027
LJ           2.94804         1.21879        0.141132
LJ          -1.64451        -1.70812        -4.38503
LJ          0.351406         4.04336         3.66076
LJ         -0.748599         2.00408         1.91461
LJ          -1.25438         1.60387        0.911002
LJ           4.60292        -1.43633        -4.29895
LJ           1.85314         -5.6821         -0.3457
LJ           1.05028         2.11175        -5.12856
LJ          -4.30434         1.48243        -4.52852
LJ           3.55973        0.662913        -1.26904
LJ          -1.41269        -5.39481         1.17935
LJ         -0.131595        0.346328         5.64298
LJ           1.23541          2.4008        -1.14428
LJ           2.53155        -1.34295       -0.312495
LJ          -6.14856         6.27197        -3.80911
LJ           1.60967        0.905941        -4.73524
LJ           1.35764        -1.44227         2.41393
LJ          -2.94467         5.16866         3.28121
LJ           -2.8934        -3.79218        -3.79942
LJ           4.07296        0.504503          2.1984
LJ         -0.609714         -4.6435         3.52184
LJ          0.937646         2.96872         -4.2508
LJ           5.00834         4.59154        -3.49493
LJ           1.13898        -6.25072         4.26849
LJ          -1.48445        0.875619         3.92969
LJ          0.780037        -1.10461        -4.44701
LJ           -2.7778         3.55746        -4.73377
LJ           4.07251         4.16834        -5.78901
LJ           6.45165        -2.28345          2.5972
LJ          -4.89014        -5.40518        0.763463
LJ            5.2061         5.10311       0.0607808
LJ           3.05065         4.64792        -5.02182
LJ           -4.8096        -5.14258        -4.48744
LJ          -4.63928         2.02563         4.25719
LJ           2.68844        -6.03201        -3.22879
LJ          -6.39486         5.00789        -3.30292
LJ          -1.86341        0.878372        -0.33245
LJ          -4.48467        -1.04003        -6.02592
LJ          -1.81372       -0.474948         2.67857
LJ         -0.824287         3.73729         4.92082
LJ           6.41478        -2.81183         0.72084
LJ           6.06063         1.62333        -3.52661
