108
#Comment!
LJ          -4.30083        -3.75206         3.06414
LJ          -2.12627         5.81738        -4.71918
LJ         -0.538535        -5.49477        0.133467
LJ           6.41607        -5.70737         5.27585
LJ          -6.23954        -2.25055        -2.76895
LJ          -2.63806          2.0823         4.36086
LJ           5.21037        -2.50932        -4.03779
LJ          -5.11488         4.48678        -2.81472
LJ           5.75521         3.64028         2.40601
LJ          -6.41611        0.492138        -4.40168
LJ          -6.12888         -1.7328         3.11253
LJ          -1.51651        -5.11452         5.76975
LJ          0.874257         2.84468         5.31766
LJ           2.13492        -3.08247        0.600969
LJ          -4.84437         -2.7316        0.252708
LJ            3.3803         3.56555         1.64394
LJ           5.36834         -1.4012         2.73319
LJ          -4.84428        -5.68027         5.36587
LJ          -2.61326         2.80337         2.40767
LJ          -3.57852         1.21688         1.70121
LJ           5.26817         2.64365        -1.36361
LJ          -1.36185          4.0963         5.25595
LJ          -5.94383          1.2155          5.0446
LJ           6.20226          -5.943         -1.8161
LJ         0.0489695         4.26397         6.25776
LJ           3.15574        -2.69973        -5.05821
LJ           5.17193         1.78225        -4.90039
LJ          -3.31998         3.80348        -1.95733
LJ          -2.62103        0.994114       -0.506369
LJ           6.22699         2.49647        -1.71794
LJ          -3.91913        -5.11667         3.15483
LJ           5.78406         -5.3843       -0.282535
LJ          -2.70334        -1.16964        -5.24939
LJ           1.55916        -3.65686        -3.08111
LJ          -4.53529         6.13112         5.97751
LJ          -0.71688        -5.93989         1.27283
LJ           1.30061        -5.02259        -6.04093
LJ          -3.39769         2.99291         0.10485
LJ          0.398894        -3.23358         5.46639
LJ           2.47136         1.83733        -1.51752
LJ           1.57726         5.84879          5.7014
LJ           5.37722        -3.20837        0.439456
LJ          -5.78733        -1.13572        -4.10703
LJ           2.35499        -4.67038       -0.855034
LJ           6.44237         5.13058         5.07208
LJ          -4.17791        0.243982        0.788215
LJ           0.67002         5.52683         2.65829
LJ           2.87375        -5.07393         1.55217
LJ           2.20838        -5.07238         5.74802
LJ          -4.63942        -6.12464         2.87065
LJ          -5.23373         5.54735        -3.72587
LJ           4.71741          6.0238       -0.667496
LJ         -0.924082        -4.34817       -0.805462
LJ           1.95736         5.34441       -0.784153
LJ          -4.85878        -2.67609         6.24596
LJ            2.8223         5.03655         2.37139
LJ          -2.23335         4.83745        -3.48647
LJ           5.50961         6.40718        0.243997
LJ           -3.3841        -4.12023         5.43079
LJ          -5.21754        -3.84565       -0.019017
LJ           2.67477         4.68907        -1.50059
LJ            3.1267        0.451454        -4.71767
LJ          -4.90683        -3.38097         -5.2783
LJ         -0.441096        -0.75931         6.11745
LJ          -5.41795         4.18029       -0.259064
LJ           3.03122         2.84554        -2.90808
LJ          -1.14795         5.60063        0.709479
LJ          -5.16066        -5.05061        -1.43612
LJ           4.22452         2.54421         5.63424
LJ          -4.17395         3.04074        -0.96769
LJ          -1.38677       -0.756058        0.117167
LJ           3.14032        -0.98738          2.7557
LJ           1.34578        -4.40166         -4.0577
LJ          -1.01336        -3.36052       -0.955717
LJ          -5.89236         3.69187        -3.19087
LJ           4.85819         4.05042         1.13625
LJ          -2.75496        -3.55477         2.37397
LJ          -3.74709         5.25973        -6.15434
LJ           1.09139         6.30969        -4.23803
LJ           3.64691       0.0720553        -2.56471
LJ           1.23158        -5.25501        -2.24833
LJ          -3.61109        0.828527         5.07063
LJ          -4.69253        -1.90305        -2.37714
LJ          -3.61235          2.6734        -4.11181
LJ           3.34364         3.47951         4.07004
LJ             2.647       -0.264032        -2.46742
LJ           5.35742         4.36119        -2.62066
LJ          -2.50566         4.59881        -6.15986
LJ          0.742757          2.0184         3.46733
LJ          -1.40844         5.90796         1.76322
LJ         0.0165028        -4.59914         5.80663
LJ           -5.9637        -4.79837       -0.908183
LJ           3.76527        -5.65425         2.14726
LJ          0.771638        0.854692         1.35848
LJ          -4.13217        -2.81542        -5.68274
LJ           4.33434        -6.14847         0.14929
LJ           2.56553        -6.18323        -4.67098
LJ          -2.33657        -4.64729         3.06194
LJ            1.5442         2.49172          -3.122
LJ         -0.334772         2.52725         2.11538
LJ           3.14809        -6.30475       -0.140007
LJ          -2.31956         2.02861         5.59752
LJ           -6.1928         -4.0051         5.90837
LJ          -5.43966         5.76196         2.84049
LJ           6.10315         1.65081        -6.33217
LJ         -0.561303         2.95596       -0.883977
LJ          -4.56285        -1.59615         3.87573
LJ           1.32604        -6.16687        -2.92456
