108
#Comment!
LJ          -2.43637         5.90774         5.82082
LJ         -0.784576          5.0094       -0.318385
LJ          -4.34863         2.13063          3.0091
LJ         -0.842688       -0.133218        0.810306
LJ          -4.93309       -0.337238       -0.454293
LJ          -4.58852         1.23844         5.43294
LJ           1.79938          -6.302        -5.52597
LJ          -6.30335        0.754616        -1.22798
LJ           5.94373        -5.92324         1.88423
LJ          -5.85387         3.71922         4.64535
LJ          -6.37901        -1.05804        -1.42223
LJ            3.2841        -2.33682        -4.54967
LJ          -3.03826       -0.244564         5.99995
LJ           1.35783         0.72946          4.1289
LJ           3.24156         3.57326        -5.50398
LJ          -6.03173         5.60829         1.39062
LJ          -5.12502         1.76554        -3.40621
LJ          -3.71652         6.00127       -0.976936
LJ          -1.41701         2.11749         1.93754
LJ          -3.37616         3.82803        -1.74792
LJ          -0.84468         4.47357        -6.27484
LJ         -0.186473         3.18069         2.94957
LJ           4.46067        -4.16359        0.266379
LJ          -2.15938        -3.67206         5.76198
LJ          -6.36378        -3.45595         2.37603
LJ          -1.77426        -1.90716        -3.48825
LJ            4.8005         6.15659        -1.77668
LJ          -2.13703         4.62766         5.53057
LJ           4.30878         5.08278       -0.268112
LJ          -0.36668        -2.71709        0.646132
LJ           4.91245        -2.69605        -3.03968
LJ           2.57609        0.393321       -0.991473
LJ          -5.30572        0.203108        -3.18078
LJ           2.74096         -6.0003        -4.76352
LJ           6.36247        -0.71657         2.17125
LJ          -2.29227         5.44337       -0.879911
LJ          -3.44228         4.31854         4.76582
LJ           3.94616         4.48313        -5.26366
LJ           2.36474         4.36037         3.27896
LJ          -1.75254        -5.68906        -4.80949
LJ           3.42109       -0.380342         2.63015
LJ           0.54855        -5.46155         3.40984
LJ           3.82102        -1.06554        -4.26552
LJ           5.18791       -0.593765           -5.36
LJ          -3.27308        -3.49488         2.32693
LJ           4.76962         1.40694        0.432229
LJ          -4.20715         4.06983         1.60667
LJ          -5.37277        -5.82756        -1.64047
LJ           2.46013        -1.55353         2.37492
LJ           4.88106         4.19567        -3.84418
LJ           2.51814        -2.26689        -5.61984
LJ         -0.748229        -1.36453         3.88958
LJ          -3.78499         1.56685         1.49761
LJ          -5.50678          5.5983         0.38549
LJ           0.32601         3.73077        -3.30025
LJ           4.59231       -0.447349         2.93441
LJ           1.83329       -0.467291       0.0387697
LJ           5.64446        -4.27264         1.48212
LJ           5.56063         -6.3053        0.023948
LJ           2.65487         5.95968        -6.15648
LJ          -1.46095        -1.35152        -6.11037
LJ          -1.20046        -5.90824         5.14223
LJ          -3.44611         5.16055        0.926409
LJ          -0.65989        -5.03989        -3.02202
LJ           -1.6922         3.10169         1.32671
LJ           4.51874        -2.05824        -4.44029
LJ           6.01297         1.14679         6.01386
LJ           2.95159        -2.18646        -3.44719
LJ          -1.55978      -0.0330476         3.19011
LJ         -0.173674       -0.412943         2.01467
LJ             2.631        -5.48416        -2.18672
LJ           -6.0652        -0.21573        -2.24068
LJ           1.19201          4.7146        -4.48777
LJ         -0.349078         3.78037         3.99322
LJ           6.07253         4.92616        -1.52127
LJ           6.00817        0.909241        -2.32291
LJ          -1.89032         -4.0045        -2.84288
LJ           -6.1422         5.52379         6.07663
LJ         -0.246362         2.90079         -3.9611
LJ          -2.82771        -1.00025         1.24761
LJ            3.3342       -0.451288        -5.72063
LJ          -2.02372        -2.14279        -5.41525
LJ           3.31377        -5.48836        -3.15243
LJ          -2.38541       -0.460088         1.93128
LJ         -0.355911         -3.9438        0.786156
LJ          -3.36917        -2.22561         1.75876
LJ           4.32047        0.743217         6.32269
LJ           1.50164       0.0157619         6.33914
LJ           -5.3174        -1.65143        -4.84644
LJ          -5.73022        -5.93572         1.80915
LJ          0.129522        -1.61288         1.00896
LJ         -0.714142        0.795581         1.83889
LJ          -3.67501         6.38676        -6.36787
LJ          0.765897         6.36753        -3.42368
LJ          -3.88028        0.515552         0.75722
LJ          -4.62357         4.23941        -1.01207
LJ          -2.32583       -0.647294         -1.6599
LJ           2.99997        -6.21332         6.00134
LJ          -4.00358         5.91616        0.353154
LJ           4.61338          2.9311        -5.03462
LJ         -0.165855         1.78882         2.96853
LJ          -1.80686         6.33688         5.25258
LJ           1.48976        -2.80067        -4.83357
LJ          -1.10986        -5.45309        -6.38445
LJ          -1.54717        0.135808        -3.93857
LJ           2.43836        -3.76685         4.45591
LJ           2.18313        -6.35329        -3.78812
LJ            3.2553        -2.88564         5.47328
