108
#Comment!
LJ           6.36565        -4.06218         4.48412
LJ          -3.50036          5.5407        -4.59317
LJ          -1.91168         2.97334         1.72132
LJ           4.32291        -3.32537         3.99845
LJ           3.29527        -2.10635        -5.17317
LJ          -1.26305         1.67185         4.04338
LJ          -5.54096        -3.05259         -5.1457
LJ          -6.16985          4.7759         2.15938
LJ           -4.0516         3.07474         2.78788
LJ           3.73369          2.7217        -5.39426
LJ           -5.6325       -0.160967        -6.32223
LJ          -1.80756        -4.57857        -6.16682
LJ            2.0294         4.62963        -3.79015
LJ          -6.00637        -2.98611         1.30919
LJ           4.17769       -0.406446         1.08094
LJ            5.2732          3.2235          2.9318
LJ           2.92799         1.30752         1.43436
LJ          -5.52233        -4.56171        -6.03732
LJ          -2.57388        0.826744         4.37051
LJ           5.26141         1.03329         1.50065
LJ           2.79929         4.24391        -1.35457
LJ         0.0531301         2.97909         5.80734
LJ           6.45159        -2.68484          5.3964
LJ           4.01642        -3.75238        0.287484
LJ          -2.10266         5.01118         5.29881
LJ           2.83546         6.34089         3.86751
LJ            5.4559         2.08458         5.82803
LJ          -2.23811         6.14212        -1.38644
LJ          -3.21667           4.676        -1.18437
LJ           2.92156         4.22797        -2.43024
LJ           -1.0963       -0.997717         1.79344
LJ          -6.08326        -6.08293         1.14237
LJ          -1.95537        -4.54177         2.96211
LJ         -0.991274        -4.58928         -4.3171
LJ           -1.9199        -5.46549        -5.28905
LJ           1.19847         6.28715         1.87339
LJ           1.99988        -5.38719         6.32962
LJ          -2.06894         1.84295         1.19002
LJ          -2.76775        -4.19866         -5.6093
LJ           4.97492        -0.14572        -4.75858
LJ            1.1099         2.49494        -4.22695
LJ           4.95846        -4.07372      -0.0605263
LJ           5.85032        -5.85043        -4.76676
LJ          0.665777        -3.89846       -0.246552
LJ            -3.529         3.43796         6.04847
LJ           5.01262        0.221563        0.974833
LJ           3.13811        -2.70956         6.36299
LJ          0.455929         -5.7231         3.40086
LJ           1.29941        -5.90502        -5.56308
LJ          -1.21354         5.22957        0.299243
LJ          -3.69584        -5.81742        -3.77211
LJ           5.20412        -3.84758        -1.05428
LJ          -2.89202        -3.54422         1.12304
LJ           1.30861         4.15897       -0.300884
LJ          -4.99591         -2.9288         5.90968
LJ           2.81582        -6.27435        -2.68962
LJ          -4.20355         6.05598        -1.88919
LJ           2.79754        -4.84257         -2.5362
LJ          -4.30767         -5.5637        0.828793
LJ          -4.70119        -4.30769        -2.72514
LJ          -6.26817         2.12639        -1.34634
LJ           2.67604       -0.736263        -4.42907
LJ           5.69765        -3.26746        -4.13595
LJ         0.0611905         -0.5864         5.20451
LJ           6.15135         5.00069        -3.15669
LJ           4.89086         4.43885        -1.72244
LJ         -0.562068         6.17548       -0.357179
LJ           6.21337        -4.79297         -5.1591
LJ           5.83055         0.81621        -6.30413
LJ          -1.57146         3.52487        -2.50493
LJ         -0.608993        -1.14228         2.86674
LJ          0.703572       -0.400194         4.34646
LJ           6.11793         6.45285        -3.53257
LJ          0.794963       -0.298654        0.188369
LJ          -2.91322         1.65826        -4.52735
LJ           5.27671          4.5425         2.44827
LJ          -1.84771        -3.66835      0.00366704
LJ          -4.57119         5.16557        -6.23762
LJ           1.17358         4.20484        -5.01299
LJ           4.26012        -2.95688        -3.51037
LJ          0.542195        -4.96129        -3.04796
LJ          -4.24398         1.55754         5.44232
LJ           3.48498        -2.32841        0.300548
LJ          -4.04347        0.303702       -0.505366
LJ            3.8724         2.62119        0.946454
LJ          0.541547        0.962878        -3.13607
LJ           4.38075        -6.29251        -5.63013
LJ          -4.31411         6.24277        -4.28865
LJ          -2.88426         1.34871         6.33082
LJ           2.16538         6.34375       -0.884238
LJ          0.279635        -4.10063         3.81901
LJ           4.16777        -4.70967        -0.15898
LJ           4.68353        -5.19993         4.42709
LJ           0.47485        -1.40711        -2.15235
LJ          -4.31978       -0.396681        -4.10895
LJ          -5.02198          -5.928         3.14658
LJ         -0.162631         4.63738        -3.07378
LJ          -4.03048        -3.64569         4.16536
LJ           6.17203       -0.372233        -3.74692
LJ           2.13959         1.23312       -0.604388
LJ           4.96551        -3.21281         1.15788
LJ          -2.54963         1.51647         3.37159
LJ          -2.09414        -1.87333         -4.1189
LJ          -2.85047         2.98545        0.782765
LJ          -6.12018        0.820746         5.75553
LJ         0.0919309         4.11864         1.04437
LJ           -4.4501       -0.108404          4.0927
LJ           3.18321         -4.6435        -4.52677
