108
#Comment!
LJ          -5.18552         6.36931         1.69506
LJ          -1.51671          5.2529         -4.9981
LJ          -1.54621        -4.93913         1.44783
LJ          -5.38439        -5.97546         5.01857
LJ          -3.63658        -5.10698        0.395161
LJ           -1.5769         1.57871         6.03463
LJ           4.67107        -3.47155        -2.07702
LJ          -6.01256         1.51613        -5.71615
LJ           2.49665         4.25627          1.8913
LJ           6.21504         3.06202        -4.02266
LJ          -5.47593        -4.68757       -0.204396
LJ          -3.65417        -4.68018         5.80889
LJ         -0.496116         1.67864         3.18051
LJ         -0.291018        -0.73161        -1.30292
LJ           0.58999        -2.51392       -0.396333
LJ           2.89746         4.49875        0.079983
LJ           3.53603         -4.0501      -0.0903143
LJ           5.77553        -5.93101         4.87412
LJ          -1.76216         5.12565         1.40928
LJ          0.407447         1.51656         1.47383
LJ          -5.00867         1.95747        -0.17747
LJ          -2.80719          5.8531         4.78533
LJ          -3.78263         5.31388        -4.79545
LJ          -4.06112         3.99629        -1.64349
LJ           1.65528         5.43938         5.69021
LJ            3.0594       -0.570393        -4.87698
LJ           5.86841        0.235343        -3.39615
LJ          -5.34136         0.65772        -2.68488
LJ          -2.77178        -2.16097        0.365917
LJ          -6.08952        0.671434        -1.97354
LJ          -4.47447        -6.43881         5.03913
LJ           5.85401        -3.94692        -1.41778
LJ          -4.46959         1.71281        -1.14202
LJ           4.18007        -3.76328        -3.27243
LJ          -4.66453         3.71044         4.32135
LJ          -1.55036         5.68979        -1.73027
LJ           2.90179        -6.35476        -6.21365
LJ          -2.87782         4.22253         1.73868
LJ           1.29713        -2.83065         4.04881
LJ          0.157178         4.25929       -0.361984
LJ           2.56123        -4.60202          4.5489
LJ           5.50123         -2.7929        0.669606
LJ          -2.02803          1.2046        -3.21215
LJ           4.23266         6.14332        -1.75852
LJ            2.8996         5.08377         5.97353
LJ           -0.6962        0.844041        0.733727
LJ          -1.59236        0.698099        -1.45274
LJ           3.21091        -4.19696        -2.01347
LJ           1.59291        -4.38098          5.3884
LJ           5.88541        -5.00744         5.70253
LJ           5.65697        -5.79621         -5.3294
LJ           4.67242         4.50755         1.09362
LJ          0.968945          6.1967       -0.796748
LJ         -0.686701         3.71357         -1.8949
LJ           6.44897        -1.10887        -4.53188
LJ           1.38054         4.00357         4.17364
LJ         -0.964444         4.92121        -4.00149
LJ           4.59271        -6.09093      -0.0332337
LJ         -0.987222        -4.86751        -5.53664
LJ           5.93294        -3.56359       -0.494378
LJ          -1.30052         4.27672        -2.91131
LJ           3.82187         1.72422        -4.32581
LJ          -5.87578        -4.16001        -6.20581
LJ         -0.935872       -0.989082        -5.96869
LJ          -1.63653       -0.340041        0.205691
LJ           2.35033       0.0337367        -3.52734
LJ          -3.44242          6.2861         3.00168
LJ          -1.97807        -6.09271         1.50223
LJ           2.92624         3.87039        -6.31817
LJ          -3.89981         2.27812       -0.350664
LJ          -1.63819        -1.03956        -2.97886
LJ           5.05025       -0.910404         1.53866
LJ          -3.52275        -1.44017        -2.83535
LJ          -2.41096        -4.04115        -2.38427
LJ           4.43095         5.62407       -0.286701
LJ           2.53455         3.49629        0.966784
LJ         -0.294913        -4.88493         4.84909
LJ          -4.23295         5.62703        -6.12886
LJ           2.05057        -4.75727        -3.61504
LJ           3.04739         3.98799        -2.29291
LJ           2.51676         5.85452        -1.18703
LJ          -2.77669      -0.0830988         5.07868
LJ         -0.661929        -1.86471        -4.91723
LJ          -3.16168         4.16547         5.29521
LJ           5.04094         5.01697        -5.73003
LJ           3.95976        -0.30111        0.312376
LJ          -5.39857         3.09482       -0.700309
LJ          0.100969         2.64604        -5.54974
LJ           5.58497         1.81554         1.42884
LJ          -4.44652        -5.33966         3.40893
LJ           2.07028        -2.44659         4.74326
LJ           5.08385         -4.0964     -0.00955405
LJ           2.39984         6.27079         3.15635
LJ          -1.90684         4.23805       -0.799218
LJ         -0.901724        -4.61005        -3.17759
LJ           5.54105          6.2399        -1.98903
LJ           3.15349        -3.58064        -4.15982
LJ          -2.59317        -4.50822        0.771998
LJ          -2.74695         3.81293       -0.969853
LJ         -0.869458         3.50527         4.50459
LJ           4.01454         5.38573        0.891063
LJ          -4.26039         3.27989         5.93963
LJ           3.89492         6.22417          3.5334
LJ           4.81553        -3.36619         5.58003
LJ           5.46729         4.53978          4.7003
LJ         -0.888861         3.03773        -3.15986
LJ          -3.56989        -1.81555        0.948989
LJ           2.10391        -5.75171         -3.3016
