108
#Comment!
LJ            4.6261       -0.937716         4.03817
LJ           4.36058        -5.62985        -1.68891
LJ          -3.82928         1.96585        0.980052
LJ         -0.277945          1.3535         3.23897
LJ           4.46225         5.97947         -4.3544
LJ          -2.31162       -0.954214         3.20836
LJ           1.99717         4.13925        -5.21757
LJ           3.98328         -5.1018         6.17564
LJ          -2.53207         3.46897         6.11001
LJ           5.36077        -6.38046        -4.67313
LJ          -4.37805       -0.604785         5.50483
LJ          0.363229        -2.75702        -3.89237
LJ           3.77871        -5.89568        -3.55773
LJ           -1.6445         6.08003         5.44611
LJ          -2.81484        -2.12774         2.38477
LJ          -4.23552         3.43922         6.42823
LJ           0.72239          3.4412        -3.78156
LJ           2.61365        -2.73468        -4.57965
LJ         0.0521238        -5.25633         3.62639
LJ          -6.36154         2.53299        -3.76139
LJ           4.62204        -4.52557          1.7088
LJ          -2.57748         2.05992        -4.89594
LJ          -1.04307        -5.93515         5.71181
LJ          -3.24225         6.37773        -4.90765
LJ         -0.253988         4.23535         5.03009
LJ          0.129651          2.9555        -4.55359
LJ           5.43604        -2.55508        -6.30284
LJ          -2.21981         2.03057       0.0904194
LJ           3.31333        -3.05594        -2.17883
LJ           5.81449       -0.573871        0.932209
LJ          -3.21385           3.727        -4.77825
LJ          -3.08189        -6.02376         6.00329
LJ          -3.38004        -5.42223        0.648234
LJ           -1.5235         3.73914        -4.05401
LJ          0.616823        -1.04382        0.650986
LJ          -5.88358          3.7531          4.6849
LJ           2.16121         2.63488        -4.48948
LJ            1.0844        -6.08401        0.697996
LJ            0.6454         1.99616         4.44721
LJ          -5.19421        -3.95219         3.19617
LJ           2.90199        -4.99731        -1.51971
LJ           1.16586        -5.64852       -0.389389
LJ           5.04911         4.97901        -3.09139
LJ            3.3101           4.357         -6.4266
LJ          -4.25772         2.46904         6.04077
LJ           -1.0047        -1.39297         5.95181
LJ            4.4419         1.48096        -2.39237
LJ           2.97891        -5.72315         4.22788
LJ          -1.78357        0.284645        -2.79498
LJ           4.54179         1.52634         3.02113
LJ            5.9749        -1.59872        -5.93745
LJ           3.73068         1.31709         5.92458
LJ          -3.02531        -4.24133        -5.52561
LJ          -6.18445         1.57157        -2.13844
LJ           4.20916        -5.14717            2.83
LJ           3.58453         1.25568        -5.24676
LJ           3.96844        0.212871         3.08551
LJ          -1.81888        -5.44008        -2.46322
LJ          0.589264         4.01029         3.78243
LJ          -2.19073        -5.17632        -6.35131
LJ          -6.45645         4.04761         3.65147
LJ           1.17653         4.51438         5.74531
LJ          -3.72099         -5.9323         4.12578
LJ          -3.02457        0.326983        -3.01844
LJ            6.2118         6.26396         4.63803
LJ          0.632579         5.02751         4.32189
LJ            5.2179        -6.16517          4.5153
LJ           1.50006         5.33751        -0.19084
LJ           5.71752         -4.3477        -5.26869
LJ           6.12968        -3.06854         2.87893
LJ         0.0736712         0.73241         2.17482
LJ          -2.60317         1.07814         4.23342
LJ          -3.78558         1.14972        -5.92774
LJ          -3.29999         1.96522         5.63568
LJ          -5.83342        0.631109          1.6548
LJ          -5.50669         4.19825        -6.29663
LJ          -6.35031         5.36257        -3.25623
LJ           5.85417         4.16727        -4.33862
LJ          -6.18198         2.25699        0.306768
LJ          -1.68824         6.30169        -2.56868
LJ            -2.985        -1.28496         3.93635
LJ            5.3133         -1.6182        -4.34173
LJ          -4.10904        -4.82901         1.11021
LJ         -0.974188         4.95283        0.557664
LJ            2.8734         5.20789        -0.92042
LJ           4.87058        -1.95307        -5.34373
LJ           1.93561         -4.6699         2.32183
LJ           5.01927         -2.8479        -3.73824
LJ           5.80216         3.43849        -2.60991
LJ          0.524404        -4.99325        -3.83418
LJ           1.99986        -5.60102         4.06848
LJ           1.30327       -0.464176         1.40957
LJ           2.06199         5.53619          4.4392
LJ          -5.25165       0.0801169         2.51634
LJ         -0.197032         1.75474         -5.7872
LJ          -4.67425        -3.39922         3.98065
LJ           6.45805        -2.22612      -0.0248952
LJ          -3.94785         2.66144         2.94886
LJ          -2.20553        -2.97327         5.56098
LJ           4.34709         5.81825        -2.59532
LJ          -3.13413          5.4296        -1.69637
LJ           1.65154         4.02437        -4.23206
LJ          -2.50254       -0.328688          4.1846
LJ          -1.84771         2.13511         1.11012
LJ          -5.46787        -1.16853         3.01141
LJ          0.624307        -4.48352        0.490359
LJ          -4.05801         5.91128        -0.95396
LJ           -3.3551        -3.95063         0.94175
