108
#Comment!
LJ         -0.210145        -1.33861        -1.63581
LJ          -2.49984        -0.67888       -0.797246
LJ           -4.8597        -3.67908         4.37772
LJ          -5.46806        -6.06081        -5.24388
LJ          -4.41291        -6.21739         -3.6224
LJ          -3.78224        -2.36024         5.37452
LJ          -4.95713         -4.3577          -3.793
LJ           3.57326         5.02867       -0.309203
LJ           2.03447        -1.11752         1.91969
LJ           2.37034         2.99763         1.79253
LJ          -1.66012        -2.56797         3.99922
LJ           3.95491       -0.332251         2.90341
LJ           4.93616         5.25674         1.60848
LJ          -1.93082        -1.93853         6.39779
LJ          -5.69917         4.23532          3.6475
LJ          -5.29623        -1.66737         6.18941
LJ         -0.567833        -5.75761       -0.076275
LJ            2.5009         1.78002         1.54058
LJ           4.07226         -3.0971         3.19041
LJ           6.36923        -5.68651         -3.5462
LJ         -0.670885           1.758        -5.77009
LJ           2.00495        0.844245         0.41475
LJ          -1.49554         1.18576        -1.72533
LJ          -4.76643        0.549766        -6.18106
LJ           1.34654       -0.332959        -3.00541
LJ           5.89253       -0.936014         1.49615
LJ           2.48161        0.377021       -0.429937
LJ          -4.56966        -0.10743        -1.84623
LJ          0.561557         3.19341        -1.99577
LJ           3.69425         2.16313        -5.70266
LJ           1.36148        -4.46657         1.44998
LJ          -1.82076         4.84277        -5.30506
LJ           5.46302        -5.91962        -5.57926
LJ           1.66243        -4.11257         4.30143
LJ          -2.44384         4.42781         5.22018
LJ           3.33996         3.07837         5.87683
LJ           0.36407      -0.0641467        -2.14463
LJ           6.39148        0.272398        0.103443
LJ          -4.36326         4.63662         -4.1609
LJ           2.70719         2.88065         3.77192
LJ          -2.82279         2.92211          5.4764
LJ            1.2451         5.45525        -3.27182
LJ          -3.04954        -3.60858         5.37469
LJ           2.65685         2.16401         2.51366
LJ           3.04441        0.787808        -1.92078
LJ           2.91688         5.49952         5.10453
LJ           2.22283        -3.18466          1.1628
LJ         -0.918925         5.09792        -2.41751
LJ            1.4662         4.86269        0.608213
LJ          0.616834        -6.31527         6.03576
LJ           3.44535         2.45401         -4.3773
LJ          0.727458         -4.1309         4.51058
LJ          -4.47656         2.51979        -2.53449
LJ          -3.78237        -1.85517        -5.68393
LJ          -1.91643         1.83475         -5.1079
LJ         -0.420319          3.1602          6.0108
LJ          -1.56264         2.72319        -5.49629
LJ           6.28321          1.2852         5.33817
LJ          -4.25961         5.85995         4.61139
LJ          -4.90245        -6.29024         2.12781
LJ         -0.116898       -0.526287         1.04245
LJ           3.65742       -0.610145        -3.90184
LJ           5.87374        -4.87379         5.49682
LJ          -4.70592       -0.687647         5.42308
LJ          -4.52507        0.214404         3.19895
LJ          -3.15079       -0.238423        0.310506
LJ          -1.03849        -2.36456       -0.860231
LJ          -1.01235         1.02247       -0.358216
LJ          -3.86191        -1.20611        0.470655
LJ          0.716978         4.03761        0.623622
LJ          -4.49981          3.9324         5.04096
LJ           4.47275         2.20516         -4.3643
LJ           2.47309         6.07925         2.34271
LJ          0.801423        -4.85557        -5.60437
LJ          -5.27011         5.66082        -0.80362
LJ           1.45219         5.49033         4.79797
LJ          -4.39885         5.86591        -5.09647
LJ         -0.859246        -5.98902        -1.12304
LJ           1.14448       -0.332351         1.53111
LJ           2.10871        -5.11167         1.06093
LJ         0.0550037        -4.81009        -2.67423
LJ          -6.08836         -4.7379        -3.57419
LJ          -2.92981         3.88706        -1.81103
LJ          0.828604        0.455383        -3.40193
LJ          0.583617        -2.28693         3.33512
LJ          -3.73184        0.664504        0.630292
LJ          -3.25123         1.67652        -5.77604
LJ           1.67683         3.59396         6.05506
LJ           3.62547        -1.46833        -2.16535
LJ          -6.11249        -4.72314        -4.83641
LJ            3.1602         1.03524         4.91007
LJ           1.75072         -3.4218         2.34443
LJ           4.21689        -5.44063        -2.20085
LJ           -4.4525        0.800981        -4.00289
LJ           3.63286         2.14567        -2.90187
LJ            2.9973        0.341007        0.947144
LJ          -5.27711        -2.56228        -5.71572
LJ          -4.76332         4.14303         -3.1113
LJ          -2.32673        -5.81836        -1.53823
LJ          -3.96215        -1.45393         4.68061
LJ           -1.7672         3.11091        -4.54779
LJ          -6.37226         3.16169         5.01468
LJ          -5.07225       -0.480758        -6.04785
LJ           5.50623         1.59727         4.30675
LJ          -2.25968         3.36775         1.94248
LJ          0.355557        -5.52832        -1.35304
LJ           1.94156        -1.70937         1.05814
LJ           4.33674         5.25836         -3.1008
