108
#Comment!
LJ          -6.39473         3.86074        0.614997
LJ         -0.716393         1.31991         5.76177
LJ          -2.90156         5.27248         2.20568
LJ           5.56645        -5.01486         3.20904
LJ          -3.60201        -4.07176        0.945262
LJ          -1.27818       0.0415032        -4.66402
LJ            3.0124        -4.31446        -2.94589
LJ           6.04833        -1.22798         5.18052
LJ          0.441936         5.00412         2.06005
LJ           5.80592         5.10812        -6.05204
LJ          -5.29848         5.50021        -3.19379
LJ          -5.01373        -4.13342         6.01305
LJ          -1.52989         0.72715         3.02104
LJ          -1.62779         1.95902        -3.68926
LJ           5.53865        -2.00497        -1.34895
LJ           3.58557         3.05746        0.499134
LJ           3.61894        -5.62828        -2.81782
LJ           3.34943        -4.90117         6.19081
LJ         -0.911724        -3.97531         1.92007
LJ           3.11387          1.7501        0.985287
LJ           -2.4566         1.17684         2.55847
LJ          -4.77162        -3.08446         3.32064
LJ          -3.88067        -5.03246        -4.61094
LJ           4.66502         2.26741        -2.83516
LJ          -1.43354        -5.83488         4.64142
LJ           2.81516        0.648313        -5.31084
LJ           6.21283       -0.613436        -1.48841
LJ          -5.51738        -2.84047        -3.61332
LJ          -1.58916        -4.40779        0.314936
LJ           5.11662        0.553485        -1.36746
LJ          -5.98027        -5.70054        -4.83579
LJ           5.88714        -3.72915        -1.32943
LJ           4.72921         1.68911       -0.839008
LJ           3.77952        -2.93136        -2.47945
LJ          -4.36704         1.06427         4.33558
LJ         -0.536699         5.17643        -1.40645
LJ           4.20486        -6.31577        -5.44533
LJ          -2.65511         5.29449         4.18671
LJ           1.32304       -0.176975         3.55509
LJ          -2.40459        -6.32441       -0.225962
LJ           2.87226          -3.883         5.00527
LJ           5.44693        -2.95477         1.39231
LJ           1.05534         1.78139        -1.47766
LJ           5.48662         4.71559         -1.7566
LJ            4.8157         3.49963         6.24052
LJ           1.82736         1.82961        0.114844
LJ         -0.677203        -1.22364        -5.27252
LJ           5.32607         -4.1386        -3.89342
LJ            2.3557         -3.8994         3.87527
LJ           4.32798        -4.46783         5.63169
LJ           4.30762        -5.22991        -5.65427
LJ           4.25413         2.93046         1.82247
LJ           2.12794         4.75808        0.726394
LJ          -2.56633         4.69765        -4.20476
LJ           4.66904       -0.238284        -3.44289
LJ          0.700745         3.55228         4.20379
LJ         -0.667855        -6.00843        -4.44663
LJ           4.65219        -6.02192        -1.42551
LJ          0.777854        -5.93658        -4.13813
LJ           4.79205        -3.63852        -2.19256
LJ          -2.80817         3.71022        -3.97265
LJ           4.25803         2.73072        -3.78232
LJ          -6.45559        -5.04289         5.63575
LJ         -0.655104         -1.9157          -4.237
LJ           0.86333        -5.07342         1.92427
LJ           2.72346        -2.42245        -4.78093
LJ          -5.26676        -5.71012         3.84999
LJ          -2.20412         6.18749          4.3761
LJ           1.89342           3.257        -4.14191
LJ           -2.8757         1.91631         3.24394
LJ          -1.63141        -2.24776        -6.33537
LJ           5.22307       0.0492655        0.714374
LJ           6.17444         2.04801        -1.20304
LJ          -2.33904        -2.99681        -2.46087
LJ           1.48007        -5.49506         1.35155
LJ        -0.0656001         4.09563        0.419965
LJ           2.55958        -6.12011        -6.32031
LJ          -4.11481         5.05769        -4.44554
LJ           3.56185         -4.3435        -3.88099
LJ           1.90928        -5.49607        -2.21771
LJ           3.40492         5.78664        -1.35239
LJ          -1.95232       -0.667734          5.1721
LJ           1.41469       -0.912093         5.42437
LJ          -4.79702         3.15737         4.45162
LJ          -5.99167        -6.44557        -3.13431
LJ           6.32079       -0.311006         4.25971
LJ          -1.99184         1.99704        0.945829
LJ           1.67313        0.686681        -5.92596
LJ          -3.96255         2.14628       -0.458723
LJ          -4.51998        -5.22815         4.51648
LJ           3.20094        -1.25672         2.58069
LJ            2.2465        -3.01808       -0.332652
LJ           2.23393         4.75471         4.15236
LJ          -1.08823         5.82632        -2.60441
LJ            1.3081        -6.35904         -1.2538
LJ          -6.25174         5.39484        -2.31117
LJ           5.38882         -1.2718        -2.07113
LJ          -3.19764        -5.97503        0.290806
LJ          -2.73791         2.74728       -0.332897
LJ           -1.5694         3.51271         5.23757
LJ           5.00949         3.94671         2.20344
LJ          -4.08925         4.82367         4.35776
LJ           4.66327         4.32864         3.39962
LJ           3.80732        -0.32765        -6.18259
LJ           4.22401        -6.01573         2.85733
LJ          -2.42808          5.3268        -5.34125
LJ          -3.43997        -1.29867       -0.653601
LJ           2.15592        -5.03765         -3.1499
