108
#Comment!
LJ            5.4252         2.40061       -0.235374
LJ         -0.273077        -1.87926         4.86983
LJ          -2.70492         3.53419         2.57694
LJ           4.33046        -4.58201         2.42125
LJ          -3.49677        -3.48446        0.604156
LJ          -1.14145        -0.72169        -3.45073
LJ           3.35939        -4.85203        -3.30601
LJ           5.82343        -2.26186         3.63298
LJ           -0.7865         5.36898         1.88764
LJ           5.45966          6.2995          5.7862
LJ          -4.89915         5.05342        -5.79398
LJ          -4.94098        -3.82526         5.93207
LJ        -0.0680241       -0.983745         2.97948
LJ          -1.23331         1.64804        -4.81068
LJ          -4.33293        -2.30913        -1.64695
LJ           4.54005         3.30389        0.872623
LJ            4.4976        -5.70166         -3.6019
LJ           3.12593        -4.64282        -6.36474
LJ         -0.390048        -1.66445         2.15749
LJ           4.23019        0.698511        0.815542
LJ          -2.26523         2.11418         2.89753
LJ          -6.39657        -1.07974         2.53082
LJ          -4.82015        -5.00058        -5.78032
LJ           3.14137        0.422688         -1.9651
LJ          -3.51952        -5.01789         4.30841
LJ           1.52494         2.58418        -3.90477
LJ           6.22069      -0.0017459        0.609661
LJ          -5.89904        -5.04591        -4.15186
LJ          -0.96041        -5.45406        0.478226
LJ           4.00085        0.262634       -0.477544
LJ           6.02129        -4.73467        -3.23327
LJ           4.57288          -2.893        -1.65826
LJ           3.22549         1.40232       -0.973042
LJ           3.79312         -3.7316        -2.20662
LJ          -5.17253       -0.609991         5.46623
LJ         -0.944976         5.34192       -0.782677
LJ           5.27819        -5.91553         -4.4558
LJ          -3.73951         4.45149         5.01293
LJ           1.63582          1.2279         3.46928
LJ          -2.83286        -5.24371       -0.964566
LJ           2.45398         -3.4334         4.66784
LJ           5.31103         -3.0093         1.89883
LJ           2.26113         1.79899       -0.243024
LJ            5.6694         3.68145        -1.16282
LJ           6.03995         2.36548         6.22654
LJ             3.953         2.39558       -0.118676
LJ          0.189564        -2.97239         5.91151
LJ          -6.30094        -3.91046        -4.02451
LJ            3.2626        -3.71504         3.86032
LJ            2.4751        -4.74951         5.43797
LJ           4.11088        -4.43894         6.04249
LJ           4.13566         2.52306         2.23893
LJ           3.11415         4.29491         1.56702
LJ          -3.72752        -6.15192        -5.61015
LJ           3.63298       0.0146374        -2.77863
LJ          0.451109         2.38142         4.31283
LJ          0.267584        -4.54338        -4.48033
LJ           5.47902        -5.48889        -2.32484
LJ           1.19484         6.43514        -3.19696
LJ           3.93461         -3.6973        -3.46211
LJ          -4.21267         3.45964        -4.89365
LJ           3.59323         3.77773        -4.90808
LJ           5.23012        -5.79884         5.04939
LJ         -0.865489        -1.75001         -3.5319
LJ         -0.320959        -6.13604         5.07391
LJ           3.05876        -3.72568        -5.46065
LJ          -5.90992        -4.56444          5.4697
LJ           -3.7242        -4.94267         5.57829
LJ           1.36137         2.67599        -2.87077
LJ          -1.69224          1.8134          3.8858
LJ          -1.10349        -2.98689         4.55078
LJ           5.08432        0.769068      0.00831593
LJ           4.62936         4.19368        0.101029
LJ           -1.5498       -0.885954        -1.27053
LJ            2.2804         -6.3825       -0.148469
LJ          -1.71437         3.95614        0.324635
LJ           4.23536        -6.46073        -5.82458
LJ          -3.66533         4.80068        -3.13797
LJ           5.41964        -4.03542        -3.71309
LJ          0.366841        -4.28656        -1.40974
LJ           3.04882         5.66083        -1.80354
LJ          -1.54832       -0.920675         5.38924
LJ           2.33503      -0.0752716         3.82289
LJ          -5.68709         3.00274         4.19365
LJ           -4.6709        -6.24282        -2.02588
LJ          -5.38649        -1.26565        -5.96361
LJ         -0.379028         1.71224         1.87328
LJ           1.55614        0.378666         -6.0952
LJ          -4.30594         1.43204         -1.5062
LJ          -4.59398        -5.22127         4.66986
LJ           3.61672       -0.519799         1.27776
LJ          0.682631        -2.33059       -0.770982
LJ           4.52021         4.43145          4.7786
LJ          0.231851         6.21373        -3.05794
LJ           3.02903         5.80022       -0.390787
LJ          -6.03077         5.17316        -1.95305
LJ           6.14607       -0.303335          -2.144
LJ          -4.82522         6.24906         1.17052
LJ         -0.414303         3.21025        0.279618
LJ          -2.69245          3.4047         5.82656
LJ           5.35094         2.26189         1.76869
LJ          -3.14378         5.29685         3.25439
LJ           5.19793         3.52846         4.20373
LJ           5.30997       -0.635125         5.91361
LJ           3.17425         -4.7768         1.50801
LJ          -3.47585        -5.87038         6.04326
LJ            -3.283        -1.07176        -1.63009
LJ         -0.463766        -4.44094        -3.49566
