108
#Comment!
LJ          -0.87249        0.208503        -1.91618
LJ          -2.31763       -0.815713        0.374035
LJ          -5.47061        -2.66667         4.46747
LJ          -5.72433        -6.16754        -4.67459
LJ          -5.48739        -6.44909        -2.95252
LJ          -2.68514        -3.24771         4.84299
LJ          -5.29753        -5.23545         -3.7603
LJ           3.87985         5.82325       -0.628669
LJ           4.30194        -1.38475         2.67758
LJ            2.3744         2.79804         1.91296
LJ          -1.17431        -2.05845         2.61791
LJ           3.63966            1.37         3.13453
LJ           4.00868         5.05912         1.22421
LJ           -1.4533        -2.30472         6.28504
LJ           6.15478         3.71541         4.45755
LJ            -5.807        -1.85165        -5.71532
LJ          -1.39125         6.35366        0.257478
LJ           2.23609         1.64281         1.57293
LJ           3.78557        -4.07383         3.93165
LJ           -6.3306        -6.09887        -3.68467
LJ          -0.82775        0.843755        -5.66702
LJ           1.86364          1.9031        0.636527
LJ         -0.460074         1.62699        -2.27061
LJ          -4.49415        0.893557         6.28733
LJ           1.31128       -0.680207        -3.90318
LJ           5.72106        -1.81631         0.98343
LJ           2.46055       -0.231729       -0.212125
LJ          -5.43207        0.788441       -0.242892
LJ           1.17745         4.67372       -0.932318
LJ           2.81869         1.56396        -5.38014
LJ           1.45361        -5.27399         2.10635
LJ          -1.93313         6.31653         -4.1979
LJ          -6.42101        -4.84817        -5.00076
LJ           2.40894        -3.18046         3.77954
LJ          -3.43987         4.54619         5.60399
LJ           3.22949         4.12352         6.25234
LJ           1.39728       -0.254371        -2.01421
LJ           4.55107       0.0561755       0.0787579
LJ            -4.976         3.02284        -4.00977
LJ           2.66149         2.37633         4.05132
LJ          -2.07981         2.29907          4.5372
LJ           1.22468           4.771        -2.62755
LJ          -3.72589        -4.06583         5.09856
LJ           3.01337         2.35055          2.8724
LJ           2.77086         0.64176        -2.27843
LJ           3.37613         5.79454         4.76443
LJ           1.63159         -1.4047         2.25879
LJ          -0.63979         4.04385        -2.58834
LJ           1.50646         5.25929         1.73254
LJ           0.87969         6.31076        -6.43072
LJ           3.41796         1.43825        -4.51336
LJ         -0.721915        -4.56458         3.80789
LJ          -3.67292         4.42071        -3.26876
LJ          -3.57007        -2.55764         -6.1349
LJ          -1.90978         1.42857        -3.97981
LJ          0.328499            4.15         6.21661
LJ          -1.30158         2.33747        -6.34283
LJ           5.29595        0.809226         5.50419
LJ          -4.86447        -6.17585         4.66422
LJ          -5.58522        -5.71878         3.68734
LJ          0.663649        0.975696        0.138966
LJ           3.77968        0.667949        -4.08388
LJ           6.33545        -4.02602         4.99611
LJ          -4.80834       0.0825395         5.35998
LJ          -4.92457        0.597094         2.28635
LJ          -3.38308      -0.0318724        0.164024
LJ          -1.49056          -2.336        -2.93268
LJ         -0.687848        0.919366        -1.24394
LJ          -4.40387        -1.36203      -0.0663702
LJ           1.52866         3.27351        0.333114
LJ          -4.14508         3.80552         5.19003
LJ           5.29295         1.90288        -3.99512
LJ            2.9188        -5.91617         2.43256
LJ         -0.133589        -4.48081        -6.24362
LJ          -4.05033         4.55663        -1.59157
LJ           2.04547         5.63479         3.69216
LJ          -4.55789         5.58161        -5.95992
LJ         -0.490446        -5.20974        -1.52891
LJ           1.98526        -1.16628        0.595175
LJ           1.96734        -5.91156         1.47402
LJ         -0.564654        -4.82441         -3.8008
LJ           6.41369        -4.79689        -3.80886
LJ          -1.97686         3.20362        -2.16244
LJ          0.915769        0.529894        -4.37694
LJ          0.824156        -3.10851         4.14285
LJ           -3.3355         0.98419          1.8215
LJ          -4.01833         1.42647        -5.92977
LJ           1.60484         3.12216         6.28642
LJ            2.9468        -1.75935        -2.16592
LJ          -5.68952        -3.89608        -5.19169
LJ            2.4058         1.28713         4.67258
LJ           2.78529        -4.66141          2.6565
LJ           2.68178        -4.18275        -2.52104
LJ          -3.87912        0.356884        -3.86741
LJ           1.54644         1.16737        -2.30085
LJ            3.2645        0.882869         1.09097
LJ          -4.81879        -2.51899        -5.16275
LJ          -5.08177         3.92913        -3.24266
LJ          -1.22312        -6.07028        -1.11105
LJ          -3.73365        -1.34941        -6.14755
LJ          -1.41083         2.49404        -5.28553
LJ          -5.48019         2.79338         4.03346
LJ          -6.33913       0.0388345          -6.013
LJ           5.49159         1.52398         3.98784
LJ          -1.79215         1.95204          2.1169
LJ          0.418257        -5.91021        -1.61895
LJ           2.95159         -1.4475         1.00665
LJ            4.5213         5.10611        -2.86706
