108
#Comment!
LJ           4.55349        0.470867         5.59611
LJ          -0.11563         4.68694         3.06145
LJ           5.80865          1.9999         3.22152
LJ         0.0632086         5.78058         3.11899
LJ           3.39388         5.83084        -4.55115
LJ           3.68971         3.56903        -3.51307
LJ          0.648195         2.68897         5.27278
LJ           2.92121        -6.19189         2.26344
LJ          0.622128        -2.84907         3.70182
LJ         -0.282384         1.82193         1.78743
LJ           4.58566         1.65143         -2.7042
LJ           -1.1272         2.17887        -5.81898
LJ          -3.41562        -2.28035         3.93474
LJ          -5.52216          4.3986        -4.91139
LJ          0.104632         2.31322         6.11772
LJ          -2.18868        0.344949        0.256902
LJ           1.38052        -2.05588        -1.86628
LJ          -1.13983        -2.49966       -0.356127
LJ            5.4148          -2.248        -6.37639
LJ          0.685105         3.38903        -2.94086
LJ            2.7791         1.85059         4.67642
LJ          0.838144        0.698864        0.949182
LJ            3.6338        -2.41144         2.07955
LJ           -6.3786        -4.56829      -0.0656037
LJ          -2.27901      -0.0401215         2.90898
LJ          -5.03197        -3.92472         5.54872
LJ            3.7106        -2.36387        -2.82275
LJ          -3.46339         6.03013         -2.2575
LJ          -5.53441        -3.56329       -0.534311
LJ           2.55825        -3.49614       -0.809074
LJ            2.7144         6.41167        -0.26116
LJ           3.08511         2.62847        0.113747
LJ         -0.147111        -2.45108         6.07744
LJ         -0.174644         1.07652        0.129865
LJ          -5.17008        0.235116        -3.84115
LJ          0.652668          4.3799         1.56364
LJ          -3.31326          0.1995         4.18875
LJ          -4.24869        -4.49523          2.3864
LJ          0.546592        -5.31547         3.40498
LJ           1.73433         2.82872         4.27608
LJ           5.45971         1.84719        0.233625
LJ          -0.23058         3.52907         4.88144
LJ          -4.56989        0.674746         2.75546
LJ           2.69061         5.15063        0.276123
LJ          -4.29221         3.61829        -5.08713
LJ           3.38301        -5.45783        -2.73912
LJ          0.311482        0.175656         4.16329
LJ          -3.48009        -5.77158        -1.99989
LJ          -4.98045        0.657381        0.104158
LJ          -5.18627        0.273971        -1.98975
LJ           5.82333        0.221362        -1.22868
LJ          0.893417        -3.50513         4.41958
LJ           6.26638         4.26422        -4.62591
LJ           4.42583         5.99753     -0.00845252
LJ          -3.31785         2.74107        -6.26579
LJ           4.00424        0.683772        0.506568
LJ          -1.40105         0.10957         1.64536
LJ           3.85946          4.7717         -4.6021
LJ          -5.93554         1.58058         1.92155
LJ           2.03271        -1.26519         2.49506
LJ          0.302148        -5.65323        -2.43622
LJ          0.167104         2.76113        -1.07966
LJ         -0.176688         1.28536         -4.0054
LJ         -0.817641         -4.5183        0.878666
LJ          -1.18766        -3.51024         2.32076
LJ          -5.78298         1.21292         5.82744
LJ          -4.92089         2.22134         1.83813
LJ           5.20955        -3.63361        -5.18813
LJ          0.211483         5.64195         4.68267
LJ           1.56342         1.15206       0.0453619
LJ          -4.03419         3.55695         3.66314
LJ           3.98137         1.39782        -3.89912
LJ           1.89311        -4.95472        -1.62232
LJ          0.825613        0.275389        -6.32589
LJ           4.52372            5.34        -2.97474
LJ              4.92        -1.53416        -2.12049
LJ         -0.609353        -4.84884       -0.186737
LJ         -0.183522          -4.149         5.26209
LJ         0.0148933         2.23947        -2.93907
LJ           4.45181         3.92771        -2.48645
LJ           4.82602         6.05643        -4.49494
LJ          0.939096         1.14248         5.87954
LJ           3.08722        -1.20048         2.16616
LJ           5.83815        -5.76427          3.7821
LJ           -2.5987        -5.24756         -2.2392
LJ            1.4909       -0.676623        0.751324
LJ          -2.50807        -2.13539         1.11897
LJ           1.55607          1.2339        -6.00988
LJ            5.4886         -5.3602        -4.53842
LJ             1.125        -4.80848          2.7769
LJ          -1.40099         -1.2891         4.40346
LJ         -0.112715        0.366934        -5.29059
LJ           -3.8767        -2.20038         5.81127
LJ           4.69373        -6.01995        -5.89463
LJ          -4.05082       -0.623989         2.44754
LJ          -2.69451         6.22269       -0.284389
LJ           3.37225         2.32927         1.30092
LJ           4.51995         5.65452        -5.50657
LJ          -3.30021        -5.87913        -3.69842
LJ          -5.79198        -2.43392        0.441215
LJ           2.85772         2.06301        -3.82197
LJ          -4.00371         5.14867       -0.736931
LJ          -1.45232         4.21116        -1.50263
LJ          -2.92262        -3.20653        -5.17981
LJ           -3.8816        -4.79252         5.42177
LJ          -1.23388       -0.242954         3.39626
LJ           2.54378      -0.0239864         1.94094
LJ          -5.81881          1.6492        -3.09283
