108
#Comment!
LJ           1.49669         2.36287         3.44261
LJ           2.10969        -5.23259         -1.1844
LJ         -0.276265         2.43392        0.997272
LJ           2.75968        -5.31747         5.45144
LJ           2.68576        -4.66131         2.52365
LJ           4.42432         4.90213        -6.17906
LJ           3.72372        -1.14885        -5.96725
LJ          -4.72509       -0.639102        -1.00558
LJ          -3.20762         1.04381          6.2871
LJ          0.764343         1.77645        0.470249
LJ           4.23106        -3.78324        -4.27281
LJ          -2.06434         3.43644         3.53992
LJ          -2.36592        -5.29764         -4.2157
LJ          0.261531         3.04268         -4.7541
LJ           3.00611        -1.21851         5.47813
LJ           1.38783        -1.55083         4.33142
LJ           1.91264        -1.14767        -1.31778
LJ           1.02486        0.451862       -0.270229
LJ           2.48524        -3.57491        -3.06562
LJ           3.03175       -0.369425        -5.51809
LJ           5.36417        -2.77884         5.30133
LJ          -1.47726         5.23833        -3.52257
LJ           5.63661        -4.94767       -0.717749
LJ          -5.92969        -2.66666        -2.30282
LJ          -0.14668        0.904349         2.90349
LJ          0.245407         4.91892          5.5185
LJ           3.08727        -1.02147        -2.21635
LJ          -2.68923        -5.90608         2.48667
LJ          -6.11389        -2.12269        0.569469
LJ           4.61688        -5.37261        -1.43114
LJ           1.60318         2.16021         1.90906
LJ          -6.05338         2.17572         1.71014
LJ          0.397946        -6.04346         3.22079
LJ          -2.08556         6.26829         1.66836
LJ          -6.30906         4.95047        -5.65866
LJ           2.87108        -5.90916          4.1316
LJ          -1.77458       -0.368767         5.46824
LJ           5.02505        -6.15538        -3.97091
LJ          -5.07649        -6.16444        -5.64252
LJ              2.04        0.950744         3.25789
LJ           6.07229         4.76917        -1.19944
LJ          -5.20603       -0.530719         5.32093
LJ          -5.49539         1.24825        -4.94771
LJ           1.85661         2.29993        0.663011
LJ          -5.22244         1.32491        -6.12266
LJ          0.672697         4.53606         6.39431
LJ          -4.92154         -5.6657         1.83397
LJ          -2.26262          6.3362        -1.99585
LJ          -1.50169          1.9243        -2.42589
LJ          -3.50814        -2.45231        0.299137
LJ          -2.02151        -2.74609         2.74943
LJ           5.51885        -4.41736        -4.97805
LJ           5.05519       -0.177425         3.79368
LJ            -2.041        -1.73278        -2.76708
LJ          -1.88993         6.31767         -3.1652
LJ           6.11532         3.04146         1.01567
LJ          -1.89767       0.0272144        0.721788
LJ           1.79942         5.00794        0.740358
LJ          -5.79822        0.852755         3.71337
LJ         -0.802606        -4.46542        0.149703
LJ           2.96305        -3.54056        0.870438
LJ           5.97765         3.08952         -4.4011
LJ           1.97174         4.49965        -3.78498
LJ          -1.98352        -4.27997         3.72437
LJ          -2.55192        -2.92025         3.66281
LJ          0.985136         6.08162         2.59732
LJ           2.66606         1.01796        0.166024
LJ          0.209625        -1.03855        -3.47124
LJ           0.34928         3.62601         3.39945
LJ         -0.705064         1.70225            2.07
LJ          -1.24271        0.802643         1.30082
LJ            5.0945        -2.75647        -4.53666
LJ           1.44464        -6.38816        0.433616
LJ           1.85245         2.47767        -4.42553
LJ          -3.40485        0.400646        -5.37813
LJ            2.9736          1.3045         -1.4723
LJ          -1.79467        -4.84322          1.6732
LJ         -0.108195         1.67141         5.39543
LJ           1.45666         3.29895       -0.995267
LJ           2.18482        -1.66212        -0.22977
LJ          -5.90866        -6.07547        -4.05783
LJ           1.35526        0.574395        -4.21275
LJ          0.650047        -2.11362          2.0631
LJ          -1.75207         4.55553         3.16862
LJ          -3.01868         -3.5908        -4.11591
LJ           3.36725          1.7756         2.94798
LJ         -0.536108        -5.77564          3.6808
LJ          0.984953         3.64466        -4.05143
LJ           5.19868         3.71396        -3.08842
LJ           1.45037         6.15945         4.96248
LJ          -2.24941         1.09836         3.99555
LJ          0.651473        -1.68921        -4.43059
LJ          -2.38235         5.23118        -4.00999
LJ           4.44029         3.85733        -5.84692
LJ           5.85547         -3.4623         3.43691
LJ          -5.45415        -4.97124         1.09855
LJ           5.81755         5.82522       -0.651004
LJ           2.24922         5.24926        -4.59512
LJ          -4.97922        -5.31247         -4.0557
LJ          -4.41869         3.21247         5.25667
LJ           2.17359         6.10811        -2.90117
LJ           5.71673         4.55546        -3.89982
LJ          -2.26708       -0.590041        -1.03711
LJ          -4.92234       -0.766837        -6.30996
LJ         -0.724254        0.019196         1.71591
LJ          -1.29581         4.92294         4.97603
LJ          -5.19824        -3.12166        0.505804
LJ           5.82845         1.76945        -3.78059
