108
#Comment!
LJ          -6.38235        -4.01113         4.42986
LJ          -3.29266         5.51405        -4.60205
LJ          -1.85692         3.10043         1.55918
LJ           4.45539        -3.54433           4.071
LJ           3.41257        -2.23789         -5.5809
LJ          -1.37887          1.7715         4.21886
LJ          -5.73522         -2.8631        -5.12632
LJ          -6.03854          4.7164         1.78649
LJ          -4.28489         3.11657         2.76806
LJ           3.93994           2.383        -5.32628
LJ           -5.6635       -0.341725         6.39174
LJ           -1.6974        -4.75985        -6.27686
LJ           1.96293         4.53604        -3.85568
LJ          -6.35994         -2.9548         1.32394
LJ           4.47116       -0.583466          1.0423
LJ           5.18475         3.28506           2.821
LJ           3.20176         1.09984         1.66149
LJ          -5.64074        -4.69964        -5.90066
LJ           -2.7656         0.88277         4.25044
LJ             5.597         1.12291         1.58311
LJ           2.85683         4.20765        -1.24615
LJ         0.0102566         3.10085         5.68413
LJ           6.34192        -2.38574         5.21781
LJ           4.07189        -3.75447        0.173579
LJ          -1.97414         4.80233         5.38738
LJ           2.89219        -6.31829         4.17926
LJ           5.39873          2.2069         6.00712
LJ          -2.23333         6.02403        -1.40797
LJ          -3.33361         4.65081        -1.22308
LJ           3.20781         3.98293        -2.56313
LJ          -1.37082        -1.32092         1.89444
LJ          -6.12428        -6.03303         1.01321
LJ          -1.98734         -4.2759         3.31211
LJ         -0.815121        -4.51756        -4.21274
LJ          -2.16337         -5.2666         -5.5025
LJ           1.04381         6.35603          1.8242
LJ           1.84745        -5.28934          6.3156
LJ          -2.21832         2.26497         1.16676
LJ          -2.54858        -4.24347        -5.63273
LJ           4.67741      -0.0180367        -4.46725
LJ           1.10503         2.76304        -4.53115
LJ           5.18235        -3.97357      -0.0213088
LJ           5.82579        -5.55943        -4.71447
LJ          0.755828        -3.65974       -0.354221
LJ          -3.75736         3.54169         5.95461
LJ           5.28462        0.179211        0.885288
LJ           3.09969        -2.73901        -6.37001
LJ          0.661049        -5.66537         3.29466
LJ           1.41342        -5.92883        -5.64656
LJ          -1.49755         5.36306         0.51699
LJ          -3.86862        -5.97624        -3.79016
LJ           5.19072        -4.06965        -1.21304
LJ          -2.87874        -3.67491        0.962616
LJ           1.46608         4.20403        -0.38098
LJ          -4.87534        -3.04071         5.71567
LJ           2.73592        -6.43183        -2.24653
LJ          -3.97907         5.67491         -1.8273
LJ           3.12003         -5.0755         -2.3753
LJ          -4.26737        -5.43113          1.2144
LJ          -4.86072        -4.51932        -2.50102
LJ           6.40961         2.36909        -1.33285
LJ           2.67415       -0.653108        -4.46384
LJ           5.54497        -3.14563        -4.01708
LJ       -0.00177464       -0.603707         5.30771
LJ           6.15769         5.44742        -3.01931
LJ           4.52131         4.38782        -1.65448
LJ         -0.470527         6.08126        -0.38967
LJ          -6.32853        -4.79596        -5.12395
LJ           5.76857        0.838271        -6.38689
LJ          -1.87891          3.5312        -2.31516
LJ         -0.631577        -1.07888         2.67306
LJ          0.916415       -0.439038         4.19675
LJ           5.89113         6.33978        -3.41429
LJ          0.618561       -0.505973        0.127012
LJ           -3.1433         1.81166        -4.43465
LJ           5.25093         4.49446         2.35771
LJ          -1.76074        -3.59527        0.150427
LJ          -4.52814         5.19831        -6.23374
LJ           1.06706         4.36351        -5.10339
LJ           4.60806        -2.87026        -3.59692
LJ           0.58299        -4.95735         -2.9691
LJ          -4.46057         1.47117         5.48479
LJ           3.82829        -2.23485       0.0590385
LJ          -4.00743        0.469426       -0.775573
LJ           3.75341         2.67678         1.19288
LJ          0.706312        0.955079        -2.80121
LJ           4.44386         6.43722        -5.43568
LJ          -4.21154         6.19261        -4.40648
LJ          -2.60199          1.5437          6.2542
LJ           2.03866         6.28841       -0.729636
LJ           0.25849        -4.14551         4.00636
LJ           4.34337        -4.88445       -0.160854
LJ           4.63688        -5.18502         4.26908
LJ          0.582026        -1.55428        -1.85579
LJ          -4.31661       -0.517303        -4.41284
LJ          -5.25616        -5.93105         2.95091
LJ          0.163275         4.70763        -3.20663
LJ          -3.98507        -3.67108         4.22317
LJ           5.95789       -0.123765        -3.69327
LJ           1.92852          1.2325       -0.681991
LJ           4.68473        -3.44844         1.09754
LJ          -2.37063         1.52622         3.29717
LJ          -2.38667        -2.03763        -4.31615
LJ          -2.90636         3.00008        0.744359
LJ          -5.93885        0.951654         5.75792
LJ         0.0548494         4.01238        0.897354
LJ          -4.41803       -0.263255         4.23928
LJ           3.03729        -4.76221        -4.40275
