108
#Comment!
LJ           5.15492        -3.71486         5.21084
LJ           -6.0138        -6.36572        -4.52993
LJ          -1.34047        0.615995         1.81948
LJ           2.59059        -1.04684         3.52856
LJ           3.28962        -2.09406         1.66781
LJ          -1.55352        0.112229         3.06014
LJ          -4.11341        -5.36034        -3.86229
LJ           5.15795         5.34955        -6.14165
LJ          -2.32648          3.2571         3.93055
LJ           1.43164        -6.12717         -5.9591
LJ          -5.42942         2.06065        -5.27592
LJ          -1.62287        -3.23918        -5.40895
LJ           2.36285         4.87075        -4.35651
LJ          -1.51997        -3.33833         1.20509
LJ          0.534942         0.90163         1.42334
LJ           6.38004         3.60617         4.00684
LJ          0.393993         2.97963        -2.08797
LJ          -2.31058        -3.12873        -6.21163
LJ          -1.20623         1.30902         3.46774
LJ           3.13849         2.28184          2.5179
LJ           2.45747         4.38139        0.159554
LJ          0.365349          2.0941        -5.70653
LJ           -6.4313        -4.47575        -6.04825
LJ           1.31618         -3.3585         2.23058
LJ          -2.02373         5.74421         5.10477
LJ           2.03643         3.50057        0.271089
LJ          -6.00379        -1.43988         5.54689
LJ           -1.8821         5.99292       -0.866835
LJ          -3.25792         5.51412        -1.20414
LJ         -0.337212        -5.62723        -2.07294
LJ           1.24004         2.48378        0.461355
LJ          -5.41967         6.23838         2.74494
LJ           -2.2465        -6.03979        0.383446
LJ          -3.59709        -4.63478        -5.64652
LJ          0.843558         5.16332        -3.23958
LJ           2.70824         5.81246         2.45214
LJ           2.93085         6.25155        -5.08966
LJ         -0.441151         -2.7633         1.61435
LJ           -3.4589         -3.8295        -6.29689
LJ          -4.90099        -1.49945         3.99519
LJ          0.256619         -1.5841       -0.895472
LJ           2.97692        -3.81477        0.891463
LJ           -6.3514         4.55929        -4.75101
LJ         -0.620784         5.86587         1.03766
LJ          -1.80751         2.35323         -6.2247
LJ          0.808426      -0.0282606        0.684957
LJ           3.34271        -2.91281         2.17495
LJ          -2.16926        -6.18494         4.70585
LJ           1.09495        -4.87967        -5.31528
LJ           1.89043         5.04244        -2.86752
LJ          -2.28508        -4.20904         -3.8919
LJ           4.93032        -1.66267        0.739784
LJ          -3.06593        -2.05423         2.66817
LJ         -0.904755         4.91704        0.764358
LJ           5.56768        -4.40293         -5.3809
LJ          0.777939        -2.85612         5.55056
LJ           6.27238         -2.4273         -2.6781
LJ         -0.629413        -3.46451        -4.33666
LJ          -4.73523         5.55748        -4.09368
LJ          -3.88906        -1.19097        -4.74822
LJ          -4.34903      -0.0674964         1.10284
LJ           1.23315        0.544944        -4.46252
LJ           -5.1651        -5.27146        -6.08607
LJ           -1.2999        -0.96345        -6.08366
LJ           6.03544       -0.109563        -4.68883
LJ          -3.65354         5.24401        -3.34554
LJ          0.484287         4.78454      -0.0459197
LJ           3.33974         6.03991        -6.17008
LJ           5.74693       -0.334037        -5.71582
LJ           1.82437           1.452        -4.93241
LJ         -0.166841        -1.00917         4.63411
LJ         -0.513867        0.513137         2.93953
LJ          -4.27613        -5.32401        -5.16442
LJ           3.58415         2.48225       -0.346111
LJ          0.536581        0.262493         -5.9536
LJ           5.55269         4.19216         3.79005
LJ          -3.19656        -4.61217        -1.37694
LJ          -5.00195         4.94922        -5.81072
LJ           3.05053         3.07146        -3.22707
LJ         -0.751938        -3.89706        -3.35471
LJ          0.557555        -3.97073        -4.16866
LJ         -0.849973         1.62445         5.54753
LJ           1.54234        -4.46561         2.32031
LJ          -4.44953         -1.7985         2.82293
LJ           4.69245         1.17299        -1.57218
LJ         -0.487113        0.384925         6.29851
LJ           4.00596        -4.36889         5.87359
LJ          -5.94919        -5.76474        -3.30356
LJ           6.41523         1.62017        -5.89818
LJ           3.60315        -6.14483        -3.01787
LJ          0.914609         -3.8957         1.34909
LJ           1.89797        -2.58808        0.313156
LJ           5.27314        -4.72013         5.79059
LJ           1.90638        0.746176        -6.02923
LJ          -3.28734         0.23356        -3.00557
LJ          -3.75914         -3.8116         4.53058
LJ          -3.81347         6.12051         -1.9047
LJ          -4.58031        -3.41757         3.53709
LJ          -5.29824        -3.66221        -4.94904
LJ           3.88414         1.59841         1.93995
LJ          -5.08733         -1.0312        0.771573
LJ          -2.15069         0.90743         6.40249
LJ         -0.607884       -0.754399        -1.35341
LJ          -1.58649         2.06053         2.48883
LJ           5.70853      -0.0819362         5.94063
LJ          0.626494         5.33971         1.59391
LJ          -4.55086          2.0027         2.44191
LJ           4.67072        -3.73404        -5.31689
