108
#Comment!
LJ          -3.88168         4.19025        -4.99463
LJ         -0.469255         5.91742         1.19176
LJ          -3.88706          1.9785         3.09394
LJ          0.259278        -2.00321        0.753005
LJ          -4.33808        -1.51496       -0.453285
LJ          -3.23646         1.08639        -5.15325
LJ           2.65224        -6.07722        -4.72608
LJ          -4.83694         -1.0455        0.651278
LJ          -5.02133         -6.4432         1.55777
LJ           5.76427         3.73762         5.71991
LJ          -5.99192        -3.35353       0.0133887
LJ           4.56144        -3.05162        -4.58188
LJ          -4.88917        -1.20499          5.0784
LJ          0.142628         0.52428         4.61476
LJ           2.12923         1.30467        -4.95022
LJ           6.02507         4.10795          1.0247
LJ            6.1267         3.91853        -3.91501
LJ          -6.22853         6.22235       0.0398737
LJ          -1.27541         1.30776        0.756509
LJ          -4.33721         2.49751        -1.69449
LJ          -1.32063         3.86058         5.62695
LJ           1.21108         2.36885         2.60275
LJ           5.42867        -4.21563        -1.69479
LJ         -0.807541        -2.57623         3.71075
LJ           -6.0687        -3.68952         2.78093
LJ          -1.98094        -4.43969        -2.36213
LJ           6.21995         4.95074        -0.42873
LJ           -2.9936         5.22846        -6.33024
LJ           1.99664         4.70392        0.407605
LJ           1.32672        -1.89171        0.295297
LJ           6.13918        -2.29852        -2.70433
LJ            3.1983       -0.145454        -1.30052
LJ           6.08989       0.0624149        -2.70455
LJ           3.15705        -5.12155        -3.67898
LJ           6.16584       -0.573059         3.79985
LJ           -1.8696         5.56385       -0.474479
LJ          -4.42516         5.49598         5.31355
LJ           5.33308         3.11987          6.3499
LJ            2.4906         3.73933          3.3966
LJ          -2.02154        -4.61117        -3.39524
LJ           3.12382        -1.53856         2.61284
LJ           1.41229        -4.87594          1.8109
LJ           2.42168        0.558624        -5.62995
LJ           4.90538        0.328705         4.74653
LJ          -4.14863        -1.68876         4.16739
LJ           4.40685         3.18741        0.824979
LJ          -3.51228         3.96797         2.55379
LJ          -5.47798        -5.77197        -1.80425
LJ           2.71866        -2.50796         3.47312
LJ           4.63302         4.96089        -4.65709
LJ           3.52036        -4.17901         6.21375
LJ           2.04251      -0.0627331         2.64387
LJ          -5.53286          2.7596         2.09494
LJ          -5.91991          -5.379         1.15664
LJ            1.2092         1.51552         -2.8747
LJ           4.04722        0.055138         3.56762
LJ           1.64844       -0.750208        -1.53908
LJ           4.70185        -4.86327        0.324818
LJ           4.53144        -5.62467       -0.340202
LJ           2.34744        -6.23627        -6.05763
LJ          -3.45814       -0.363284        -5.92513
LJ           1.90222        -5.69179         4.77394
LJ         -0.974065        -5.86805          1.6831
LJ         -0.656248        -4.74826        -2.71558
LJ          -2.18222         3.79999       -0.291592
LJ           4.11036        -2.95091        -5.67658
LJ            5.2357         1.33604        -6.28009
LJ            4.5038        -2.04115        -4.96873
LJ         -0.958357         1.02632         1.78531
LJ         -0.142223        0.370559         2.91758
LJ           1.62512         -4.5738        -0.47017
LJ            6.2301      0.00189753        -1.65295
LJ           1.97129         4.68502          6.2224
LJ         -0.209985         3.85729          2.3048
LJ           4.97751          4.9075         -1.7505
LJ          -5.71804         2.05027       -0.953211
LJ          -3.73972        -4.92305         -3.9635
LJ           -4.4122         4.93777         2.71574
LJ          -2.10418        0.598643        -3.63478
LJ          -3.74771        -1.29216        0.764615
LJ           4.18284         1.58053        -5.28402
LJ           -1.8021        -1.93022        -5.91533
LJ           2.95766         5.18106        -1.41793
LJ          -3.44299         2.90784          2.4938
LJ         -0.440572        -5.15201        0.996173
LJ           -4.4463        -3.80846         2.24533
LJ           2.97018         1.16779         5.01285
LJ           1.29071        -0.23124         6.40234
LJ          -4.91548       -0.615427        -4.68536
LJ          -4.75625         -4.8246         2.78148
LJ           1.17908       -0.764324         1.01562
LJ         -0.765788       -0.445862          1.2323
LJ          -4.69364         6.12422        -5.87396
LJ          0.564945         6.24327        -3.39851
LJ           -5.5401         2.02551         1.04226
LJ          -5.18786         4.64972        -0.84909
LJ          -3.94966       -0.873085        -2.08572
LJ           3.78214        -5.65212         5.05311
LJ           6.33423         5.39635        0.577879
LJ           6.32684         3.06444        -5.38418
LJ           1.06146         1.08407         2.75801
LJ          -1.51218         5.97062         4.17715
LJ           3.59853        -1.04452        -5.97645
LJ          -2.71462        -3.85666         5.96869
LJ         -0.373212        -1.30403        -2.47214
LJ           4.39136        -4.50189         3.76976
LJ          0.346748        -4.09334        -3.55317
LJ           6.00196        -3.36575         6.42286
