108
#Comment!
LJ           1.25407          2.6373         2.29166
LJ           1.10312        -4.54909        -1.70675
LJ         -0.437889         2.86837         1.37912
LJ           3.65967        -5.06878         5.85627
LJ           1.87061         -5.0684        0.926865
LJ           5.18339         4.13928         6.04906
LJ           4.11436        -1.91163        -5.38405
LJ          -2.24829        0.511873        -1.19892
LJ          -4.50492         2.07035        -5.70215
LJ          0.217189         2.03842         1.30162
LJ           2.35665        -4.32471        -3.58422
LJ           -2.0517         3.53251         2.51887
LJ          -2.05913        -6.15001         6.35027
LJ           2.02475         1.85895        -5.26296
LJ           4.45801        -2.39924         4.63105
LJ           2.50522       -0.517056         5.12928
LJ           1.57105      -0.0745145        -1.24909
LJ            1.8812         1.75668      -0.0853241
LJ           2.10515        -1.35698        -2.56682
LJ           4.01208       -0.741925        -5.37307
LJ          -6.14233        -3.93911         5.72279
LJ         -0.510867        -5.81469        -3.92239
LJ          -6.10814        -4.74474        -1.19955
LJ          -5.82613        -2.01877        -2.83204
LJ        -0.0762143         1.57326         2.63581
LJ          -2.30005         4.42174         5.18666
LJ           2.50533        -0.61536        -1.79444
LJ          -2.06005        -5.11578         4.18533
LJ          -5.15056         -2.6916        -0.76443
LJ           4.74874        -6.22028        -1.85341
LJ           1.09905        0.269618         1.60814
LJ          -5.51005          2.0279         1.89862
LJ         0.0203553         5.35396         3.32218
LJ           -3.1462         6.32714         2.64125
LJ           6.02847         5.44531        -6.28906
LJ           2.81187        -4.50554         4.39832
LJ           -1.3903       -0.078082         -6.3857
LJ             5.441        -5.46744         6.24872
LJ          -6.03203        -6.44787        -5.00333
LJ           1.88595         1.59588         2.75417
LJ           6.30855         5.18946         -1.7283
LJ           6.37407         -1.6553         5.74277
LJ          -5.60388        0.298905        -4.98947
LJ           1.13866         1.72685        0.790438
LJ          -4.53908         1.16108        -4.93871
LJ          0.206849         4.09207         5.65388
LJ            -5.892         5.27036         1.21742
LJ          -1.37247        -6.36997        -2.16576
LJ         -0.430899         2.22727        -3.03668
LJ           -2.9454        -3.18425         1.20653
LJ         -0.637236        -3.84668         4.22073
LJ           4.39812        -5.06608        -5.64816
LJ           4.34377          2.1589         2.57249
LJ          -3.55675        -0.10753         -3.8965
LJ          -2.17623        -6.41857        -3.31755
LJ          -5.71085         3.35764          1.6647
LJ          -1.55157         0.12651        0.505559
LJ            1.2969         4.87618         2.47328
LJ          -5.61763         0.71009         4.17374
LJ         -0.640932        -4.52755        -1.43904
LJ           4.48121        -4.71967         2.09321
LJ          -5.40733         2.74076        -5.24837
LJ           1.96854         4.64891        -3.76091
LJ          -2.04079        -3.82658         4.01038
LJ          -2.88733        -2.93299         4.23405
LJ          -1.47917         3.78308         1.78933
LJ           2.25508         0.49082        0.882902
LJ           2.92443       -0.415214        -2.85382
LJ          0.242477         2.93558         3.24233
LJ             -1.09        0.213856         1.51754
LJ          -2.12933          1.5559         1.69576
LJ           5.49246        -4.42506        -4.60838
LJ          0.843701         5.75056         1.23403
LJ           2.39911         3.41443        -3.27117
LJ          -2.21816       -0.698904         5.97644
LJ           2.40408         2.02521        -2.38827
LJ          -2.94699        -4.69458         3.50269
LJ         -0.226742         3.07521         4.75347
LJ           1.72477         4.90487        -1.13121
LJ           1.74588        -1.21932       -0.438415
LJ           6.34142        -5.39267        -3.58398
LJ            1.1039       0.0212541        -3.43922
LJ         -0.292167        -2.96895         1.66071
LJ        -0.0313558         4.43522          2.9581
LJ           -3.1245        -3.52281        -4.46702
LJ           1.97486         3.18776         3.90194
LJ         -0.716785          5.7568         4.00851
LJ           1.35126         3.69802        -4.12769
LJ           5.39593         2.61454        -2.77133
LJ           1.93836         5.42769         5.87828
LJ          -3.21786          1.4252         4.21011
LJ          0.243947        -2.01441        -3.81025
LJ           -3.5393         -5.1078        -3.53319
LJ           5.02625         3.55515        -5.89514
LJ           5.07383        -4.93747         4.58584
LJ          -6.24146        -4.34264         1.37432
LJ           6.22307        -6.42164        -1.37792
LJ           1.20893         5.94933        -3.87417
LJ          -4.62475        -5.18909        -3.53571
LJ          -4.12765         4.72855        -6.34948
LJ           1.37855         5.65443        -2.04063
LJ           4.86062         3.72219         -4.8937
LJ          -2.82594        -2.47339        -1.80295
LJ          -5.46399       -0.195288         6.10977
LJ           1.51993       -0.731387         1.58025
LJ          -1.61932         6.37442         4.87793
LJ          -3.73623        -3.52264      -0.0411841
LJ            5.6334         2.57314        -4.31022
