108
#Comment!
LJ           5.31013        -4.13853         4.99051
LJ          -4.84284         5.92921        -4.46079
LJ          -2.08299          1.8641         2.29364
LJ           3.51575        -2.09638         3.68249
LJ           3.29029        -2.01415         -1.8614
LJ          -1.30902        0.814234         3.12357
LJ          -4.56731        -4.33412        -4.85029
LJ           5.96519         5.13024         4.50428
LJ          -2.88118         3.00287         3.11829
LJ           2.44072         4.75514        -5.75115
LJ          -5.68148         1.22683        -5.53202
LJ          -2.74256        -3.56964        -5.16439
LJ           2.30576          4.9424        -3.87079
LJ          -3.89743         -3.1805         1.22916
LJ           2.16369        0.230952         1.20406
LJ           5.88711         3.31383         3.45269
LJ           1.53096         2.36543       -0.252083
LJ          -4.31578        -3.44631         6.36035
LJ          -1.55384         1.24009          4.2094
LJ           3.52774         1.73606         1.68087
LJ           2.29052          4.4784       -0.939775
LJ          0.302582         2.24238        -6.37087
LJ          -6.23163        -4.17205          6.0003
LJ           3.04351        -3.19845         1.02774
LJ          -2.90696         6.26469         4.76774
LJ           2.50717         4.63825         1.94724
LJ           6.06626        0.794784         5.08637
LJ          -2.25511        -6.29307        -1.13495
LJ          -2.41173          5.0681        -1.02148
LJ           1.23924          5.8225        -2.41152
LJ          0.594218        0.864776         1.51768
LJ          -5.76646        -6.37563          1.9187
LJ          -1.75425        -6.12303        0.832166
LJ          -2.11358         -4.8219        -4.89782
LJ         -0.583542         6.33432         -4.2791
LJ           2.07173          5.9863         2.23927
LJ           2.58175         -6.1021        -6.01336
LJ          -1.31843       -0.437985         1.33852
LJ          -3.52652        -4.11874        -5.58934
LJ          -5.87277       -0.481937         6.37016
LJ           0.84506         0.64483        -2.50004
LJ           4.24449        -3.90519        0.341683
LJ           6.28657         5.81801        -4.73538
LJ          0.113105         -5.3437        0.397773
LJ          -2.21119          2.6954        -6.38452
LJ           3.16181       -0.166535        0.773654
LJ           3.21105        -2.89897         4.44389
LJ         -0.752572        -5.91002         4.00672
LJ           1.03416        -5.59961        -5.48208
LJ          0.717868         4.95545        -1.05225
LJ          -2.91538        -5.09651        -3.78824
LJ           5.20086        -2.63053       -0.374817
LJ          -2.87236        -2.82133         1.91653
LJ          0.224881         4.10357        0.232541
LJ          -6.11672        -3.02826         -5.9362
LJ           3.01025        -4.88334         -5.2615
LJ          -5.44551        -4.64646        -2.26281
LJ          0.821542        -3.83882        -3.62984
LJ          -4.61863        -6.35726        -1.52019
LJ          -3.72752        -3.13703        -4.17077
LJ          -4.76152        0.653652        -1.44587
LJ           2.24167       -0.408652        -4.35219
LJ          -6.38285        -4.11033        -4.94995
LJ         -0.593163        -0.83307         5.98591
LJ            6.0567         2.51304        -3.89405
LJ          -5.80644         4.72591        -2.27458
LJ          -1.29362         6.01927      -0.0585368
LJ           4.13892        -5.31833        -5.50057
LJ           5.87732        0.465872        -5.75218
LJ          0.136801         2.69661        -3.68726
LJ         -0.475548        -1.30341         3.75123
LJ          0.335527        0.128725         3.73801
LJ           -5.5574        -5.95573        -4.72892
LJ           2.00522         1.07635        0.563411
LJ          -1.53105        0.730058        -5.13416
LJ            5.3513         4.38029         3.00445
LJ          -2.50257        -4.09402       -0.695814
LJ           -4.7627         4.99633        -6.14282
LJ            2.0382         3.40161        -4.18671
LJ            2.1855        -3.38061        -3.16395
LJ          0.468561        -4.87454        -3.54019
LJ          -2.64913         1.77891         5.50258
LJ           2.03605        -3.48113         1.64093
LJ          -4.25737       -0.683869         1.11807
LJ           4.45913         2.05425       -0.409306
LJ         -0.173164         1.30988        -5.06778
LJ           4.17588        -4.92717         6.38039
LJ          -4.82969        -6.23821        -3.68447
LJ          -4.79949        0.495587         6.35719
LJ           2.92467        -6.31177        -1.88995
LJ          0.392332        -4.01528         2.67242
LJ            2.9086        -3.92088       0.0323174
LJ           5.00624        -5.27649          5.4794
LJ          0.331841       -0.258389        -4.03839
LJ          -4.37487        0.338338        -2.28228
LJ          -3.60913        -5.90847         4.31222
LJ          -1.96871         5.01453        -2.19679
LJ          -4.32787        -3.50484         3.83964
LJ          -5.59954        -1.81576        -4.25868
LJ           3.27436         1.34215        0.251751
LJ           6.39044        -2.12087         1.03002
LJ          -2.93709         1.09491         4.67886
LJ          -0.83114        -1.12147        -2.84067
LJ          -2.16866          2.6827         1.33646
LJ           5.97302       0.0155902         6.04044
LJ          0.360355         4.79544         1.63019
LJ          -4.56024        0.894727         3.26239
LJ           4.06378        -4.00626        -5.18354
