108
#Comment!
LJ           1.13054        -4.46752        -1.02224
LJ          -2.74674       -0.440395        -1.18147
LJ          -3.32116        -5.81617         4.33995
LJ          -5.48876        -5.06767        -5.77029
LJ          -2.25282        -6.40249        -3.37459
LJ          -4.33179        -1.02445         2.86194
LJ          -6.18799        -2.84703        -4.12704
LJ           2.77516         3.32661        0.227874
LJ          -1.79086       0.0109947         1.33512
LJ           2.02423         3.01904         1.04823
LJ         -0.563766        -3.41136         5.81155
LJ           5.64148       -0.225088         3.07775
LJ          -5.96571          5.7124         2.40432
LJ          -3.07186         -1.6549        -6.19118
LJ          -2.92511         4.87977          2.8134
LJ           6.43511        -0.90131         6.30242
LJ           0.45016        -3.96735        0.555055
LJ           2.73031         2.04298         1.52477
LJ           4.13255        -5.70494        0.912044
LJ           6.38584         -4.5764        -3.72218
LJ          -1.47726         3.99722        -5.96278
LJ           1.32329       -0.866767       -0.327571
LJ          -3.21411       -0.276935        0.710932
LJ          -4.91666       -0.395915        -4.75172
LJ          0.386985        0.529928        -0.17968
LJ           6.21382         1.08269         2.57952
LJ            2.6852         1.18343       -0.381336
LJ          -2.52018        -2.30824        -5.27043
LJ         -0.614952       -0.721351        -4.00501
LJ           5.26018         3.84714        -4.91953
LJ          0.245964        -2.56169       0.0373579
LJ          -2.58773         3.52532         4.73521
LJ           3.93072         5.23663         6.14752
LJ           5.11377        -5.26883         5.44829
LJ         0.0126083         3.82185         3.84888
LJ           3.14782        0.668126         5.35342
LJ          -1.12267       -0.329515        -2.93313
LJ          -4.11897       -0.798574        0.799948
LJ          -2.92579        -6.15438        -2.54579
LJ           2.68415         3.27301         2.21265
LJ           -4.1589         4.78601        -5.34146
LJ           1.49079         -5.7692        -4.73468
LJ          -3.95812        -1.95636        -5.09521
LJ           1.68674         2.63047         2.04457
LJ           3.97354          1.4838        -2.04846
LJ           1.21681          6.1189         5.16364
LJ           3.30116        -2.85167       -0.704004
LJ          -1.88868        -5.98003        -2.32707
LJ           1.67711         4.01556        -1.78765
LJ           0.38949        -5.99994         4.97266
LJ           2.52748         4.42983        -5.08063
LJ          -1.53526        -3.20953        -6.08903
LJ          -6.34729         -1.3637        -1.19241
LJ          -3.26714        -0.96498        -5.36309
LJ          -1.17494        0.224268         -5.1025
LJ          -1.51012         2.15732          5.0632
LJ          -1.52697         2.35347        -3.53687
LJ          -4.31818         2.19089         5.62068
LJ          -3.82637         3.28856         4.39519
LJ          -3.50917         5.23597        -1.41116
LJ          -2.68402        -3.55292         2.14776
LJ           3.47025        -3.36561        -2.91231
LJ           4.63161         5.73215        -5.97953
LJ          -3.63541       -0.640844         5.30458
LJ          -3.69289       -0.995638         4.20248
LJ          -2.01558         -1.1351        -1.88085
LJ          0.228778        -1.82838         2.19521
LJ          -2.45742        0.723446        0.507697
LJ          -2.53731        -1.12991         1.05665
LJ          -1.45696        -5.96587        0.845666
LJ          -4.42682          4.5788         4.14402
LJ           4.29159         2.97567        -4.02479
LJ           1.71537         3.79436         2.47399
LJ           2.59607        -6.04944        -4.18521
LJ            4.9131        -4.83364        0.917832
LJ          0.930808         5.08149        -5.45349
LJ          -4.50339           6.181        -4.72187
LJ           -1.0006          5.4534         -0.1527
LJ         -0.393037         3.56925         2.99592
LJ            1.5652         5.66039       -0.203419
LJ           2.80626        -3.50094        -2.05852
LJ          -3.95566        -4.22556        -2.77383
LJ          -4.65923         5.66577        -1.00531
LJ          0.335837          1.0642        -1.36312
LJ          -1.12831        -1.77219         4.77743
LJ          -3.51995         2.81872        -1.87613
LJ          -2.83931         2.35222        -5.85491
LJ           1.59733         3.84769         6.10412
LJ           4.93366       -0.734992        -2.62038
LJ           6.12078         5.98855        -5.19192
LJ           5.25296        0.843306         5.18199
LJ           1.31807        -2.34221        0.203763
LJ          -5.55666         4.51764        -1.73666
LJ          -5.68226         1.66165        -4.52669
LJ          -5.18015         3.71781        -5.65397
LJ           3.89788        -1.16657         1.36802
LJ           6.18462         -3.9132        -5.40898
LJ          -2.91444         5.83556        -4.02046
LJ          -3.70694         -5.1366        -2.37221
LJ          -3.87377         -3.0912        0.916317
LJ          -2.33196         4.63195        -3.79662
LJ           4.56703         4.38308        -6.45726
LJ           -3.4884        0.805306        -5.70195
LJ           5.36626         2.00719         4.57085
LJ          -3.37141        -6.43828         1.59028
LJ          -1.06503        -5.35665        -0.20323
LJ         -0.727919        -3.76807        0.188447
LJ            3.9579         5.65561        -3.59435
