108
#Comment!
LJ          -2.99742          5.1352        -6.18679
LJ          -0.59548          5.3621        0.303522
LJ          -4.23525         2.06299         2.95597
LJ         -0.592792       -0.876676        0.670864
LJ          -4.63668       -0.874675       -0.435656
LJ          -4.04447         1.20652         6.39527
LJ           2.15927          -6.252        -5.22032
LJ          -5.76154       0.0806041       -0.411418
LJ          -6.23002        -6.19404         1.83061
LJ          -6.39134         3.70547          5.0717
LJ          -6.23846        -2.04016       -0.821128
LJ           3.84485        -2.99034        -4.46239
LJ          -3.42293       -0.707955         5.92084
LJ          0.650221         0.37086         3.77006
LJ           3.12124          2.6539        -5.20227
LJ          -6.45515         4.90179         1.31332
LJ          -5.79628         2.65977        -3.60724
LJ          -4.85342         6.33817       -0.554711
LJ          -1.00705         1.71908         1.62269
LJ          -3.74452         3.26609        -1.74588
LJ           -1.2324         4.28218          6.1553
LJ          0.452646         2.76137         2.73364
LJ           4.95366        -4.19626       -0.286617
LJ          -1.60444        -3.21626          4.9133
LJ          -6.25781        -3.52994         2.55461
LJ          -2.02624        -3.15234         -3.0671
LJ           5.34458         5.74929        -1.17522
LJ           -2.2367         4.79784         6.05203
LJ           3.35177         4.92032        0.016283
LJ          0.373052        -2.45136        0.588941
LJ           5.42614        -2.54051        -2.89023
LJ           2.69689       0.0727664         -1.0432
LJ          -5.93821        0.130094        -3.05424
LJ           2.98709        -5.58346        -4.36566
LJ           6.30881       -0.664041         2.83155
LJ          -2.13742         5.50055       -0.755382
LJ          -3.83789         4.77763         4.97409
LJ           4.54181         3.97097        -5.50846
LJ           2.42577         4.11177         3.32978
LJ           -1.9463        -5.28239         -4.2869
LJ           3.26502       -0.781725         2.51541
LJ           0.58539        -5.25703         3.08461
LJ           3.29377       -0.837164        -4.73202
LJ           5.18789       -0.077938         6.45084
LJ          -3.60319        -2.79244         3.22776
LJ            4.6183         2.13367         0.59419
LJ          -3.91425          4.0503         1.99797
LJ          -5.40123        -5.90978        -1.49183
LJ           2.49963        -2.07329         2.86557
LJ           4.67472         4.47636        -4.46198
LJ           2.96025        -3.41088        -6.30487
LJ            0.4244       -0.833335          3.5106
LJ          -4.50683         2.10931         1.93359
LJ          -5.52135         6.44587        0.365081
LJ          0.634817         2.75442        -3.17769
LJ            4.4612       -0.187212         3.25596
LJ           1.90161       -0.474899       -0.695685
LJ           5.14771        -4.40717        0.784193
LJ           5.10992         -6.0536       -0.106995
LJ           2.49358         6.20844        -6.12135
LJ          -2.66456       -0.816456        -6.38685
LJ           0.84328        -5.36755         4.27051
LJ          -2.50114         6.00224         1.23261
LJ         -0.619653        -4.93638        -2.85858
LJ          -1.89966         3.39303        0.651586
LJ           4.45994        -2.23352        -5.09092
LJ           5.55774         1.06337         6.32533
LJ           3.34398        -1.71531        -4.12611
LJ          -1.46828        0.341006         2.78286
LJ          0.107489      -0.0177392         2.71391
LJ           2.20134        -5.08141        -1.42919
LJ          -6.31372       -0.192525         -2.0333
LJ           1.49331         4.66749        -5.39342
LJ         -0.354166          3.9131         3.36326
LJ            5.6433         4.77496        -1.72131
LJ           6.45454         1.47575        -1.75937
LJ          -2.46854        -4.11971        -3.21412
LJ          -5.48223         5.32241          4.6763
LJ         -0.955888          2.0318        -3.77273
LJ          -3.16489        -1.12191         1.05881
LJ           3.79352        0.421162        -5.61755
LJ          -1.90921         -2.1339        -5.56866
LJ           3.00153         6.45724        -2.56193
LJ          -2.81788        0.917611         2.09343
LJ         -0.127293        -4.33561          1.0933
LJ          -3.83284        -2.85794         1.80878
LJ           3.72376        0.956917         5.71101
LJ           1.39677      -0.0849522         6.35841
LJ          -5.15291        -1.23436        -4.78362
LJ          -5.29071        -5.41848         2.27951
LJ          0.710315        -1.44172        0.984151
LJ         -0.644027          0.5158         1.75336
LJ          -4.15691          6.3432        -6.14643
LJ          0.631623         6.25408         -3.4032
LJ          -4.57032         1.09806        0.836854
LJ          -4.92649         4.52785       -0.730888
LJ          -2.97953        -0.73618        -1.84692
LJ           3.31824        -5.61556         5.77245
LJ          -4.90344         5.42624        0.168736
LJ           5.03262         2.99511         -5.2506
LJ         0.0333617         1.63389         2.62798
LJ          -1.66825         6.21881         4.77882
LJ           2.34978        -1.93087        -5.14134
LJ          -1.76467         -4.8013         6.31431
LJ           -1.0621       -0.453256        -3.33986
LJ           2.50959        -4.43808         4.27431
LJ           1.61141        -5.33503          -3.521
LJ           4.43643        -3.08173         5.81369
