108
#Comment!
LJ           5.32629         -2.4416         4.51713
LJ           5.18821        -6.06304        -3.65802
LJ          -2.23247        0.299553         1.73477
LJ           0.10045         1.35358         2.54933
LJ           3.87441         3.84678         6.02624
LJ         -0.718277         0.55787         2.35673
LJ         -0.498863         5.70196        -4.51015
LJ           3.83832         5.76354        -4.35869
LJ          -1.00506         3.51821         5.72048
LJ           2.95458        -5.71676        -6.30022
LJ          -4.97094         1.45317        -5.55014
LJ           0.77424        -2.29666        -5.23139
LJ           2.28397         4.42276        -4.15496
LJ         -0.673535        -5.95333         3.37551
LJ          -2.22768        -0.33812        0.716867
LJ          -5.23394         4.48131         5.11885
LJ          -1.36346         4.90742        -5.17375
LJ          0.289654        -3.47232        -5.50478
LJ         -0.477555        -2.50916         4.10463
LJ           5.23974         3.06886         6.32917
LJ           4.38512         5.26477         2.21821
LJ          -2.14431         2.60116        -5.64931
LJ           2.38037        -4.70923        -6.14617
LJ         -0.407693         -5.4344         6.41121
LJ          -0.26689         5.32061         5.58615
LJ         -0.141599         2.65071        -3.06898
LJ           6.38066        -3.01977         5.36301
LJ           -1.6621         3.99264       -0.501085
LJ           6.20117        -5.14857         -1.9065
LJ          -4.05554        -2.52363       -0.532834
LJ          -1.82224         3.01106         -2.6381
LJ           -4.7346         5.48429         4.75421
LJ           -2.9136        -5.79717        0.382642
LJ          -3.34501        -6.23934        -5.25161
LJ            1.2969         2.00351        -1.09703
LJ           4.22763         4.92356         3.15007
LJ           2.36068         4.60154        -5.22267
LJ           2.05274        -5.30295         0.84563
LJ         -0.684473       -0.512315         5.05499
LJ          -5.91918          -2.459         4.69715
LJ           1.50633        -3.85908       -0.658133
LJ          0.925172        -5.07157         1.06023
LJ           5.95371         4.53306        -4.74531
LJ          0.879537         5.94998         3.86397
LJ          -2.70267         2.36957         6.44383
LJ          -2.17661       -0.112858         3.71358
LJ           2.74158         5.58638        -1.19256
LJ          -6.34574         6.39346         5.55844
LJ         -0.118522       -0.813691        -4.29826
LJ           3.99373         3.75527       -0.476904
LJ          -5.47212        -2.46388         5.62653
LJ           3.88752         0.30433         3.41853
LJ          -2.74823        -2.22997          5.5728
LJ           -3.9056         2.86687       -0.845806
LJ           4.59711        -5.96625         5.59855
LJ          -5.03788       -0.315294       -0.348698
LJ           4.76139       -0.214032        -5.88385
LJ          -1.36474        -4.51155        -3.30286
LJ          -1.88345         3.86097         5.15432
LJ          -2.82424         3.66223        -5.51057
LJ          -6.14157          2.6398         2.84311
LJ        -0.0370406         3.20815         6.21538
LJ          -2.16672         5.74544        -6.06934
LJ          -2.52122       -0.601669        -4.37582
LJ           6.40023        -4.27507        -6.07692
LJ          -2.03745         4.92215         5.69866
LJ           5.29611         5.93473         3.32738
LJ          0.697406         3.47667         3.48712
LJ           5.38387        -3.43472        -6.20825
LJ           3.69225        -1.66626         5.58321
LJ            0.5217       -0.274363         3.54255
LJ        -0.0371503         2.46792         3.20714
LJ           -4.3091         4.55224         -5.1072
LJ           -4.7866         1.85009        -4.63072
LJ           5.63639         0.48119         4.09587
LJ           6.41444         3.98694         5.38807
LJ          -5.05553        -6.42185        -2.54903
LJ          -5.68678         4.41812         -4.0653
LJ           5.30686         2.50276        -1.17287
LJ          -1.53818        -5.54931        -2.68875
LJ          -2.44718        -1.28044         5.85357
LJ           2.34155       -0.614891        -5.52715
LJ          -1.39119        -4.19948         1.97452
LJ          -1.96362         5.43499         2.20512
LJ           4.01056         2.35524        -1.79697
LJ           1.76268         -1.6687        -5.55765
LJ           2.88371        -4.21451         3.89576
LJ           4.97374        -4.63311        -3.21191
LJ           4.81382         4.04812        -3.76467
LJ            3.1544        -6.03398        -4.40461
LJ           1.96912        -4.49781         1.78113
LJ          0.689414       -0.764529         1.32545
LJ           4.50844        -4.54599         5.14911
LJ           5.03443       -0.634723          4.3621
LJ          -1.03397        0.386997         -4.5511
LJ          -4.69987        -2.42432         4.78319
LJ          -5.49152        -3.98667       -0.579596
LJ          -3.70028        -1.01409         3.70765
LJ          -3.92212        -3.92075        -6.07723
LJ           4.31886         2.55857         5.91814
LJ          -3.12601         2.29022       -0.245436
LJ           1.68211          3.6127        -3.98577
LJ          -1.02721        -0.59792         2.32635
LJ          -1.62907         2.58834         1.55663
LJ           6.31062       -0.329353         4.23834
LJ        -0.0271025        -6.29886        0.776857
LJ           -4.4252         4.34188        0.640899
LJ          -5.53352        -3.54541        -2.22492
