108
#Comment!
LJ          -5.56425         5.58334         1.35234
LJ          -1.08592         4.70323        -4.80884
LJ          -2.73616        -5.51614         1.67927
LJ          -5.81282        -5.61258         4.33596
LJ          -3.39716        -5.08981          1.0655
LJ          -1.47294         1.08076        -6.20785
LJ           4.00594        -3.68386        -2.12809
LJ          -6.27966        0.656308         -6.3476
LJ           1.86992         4.48092         2.01335
LJ           6.10564         3.65361        -4.66409
LJ          -5.38371        -5.55037         -1.0642
LJ          -4.21026         -4.5123         5.89795
LJ         -0.811149         1.37223         3.13663
LJ         -0.838641        0.279114        -1.90364
LJ           2.10047        -2.28139       -0.663352
LJ           3.04623         4.47207       -0.246052
LJ           3.40795        -4.80536       -0.877638
LJ            5.0288        -5.53339          5.4283
LJ          -1.47113         6.27027         1.45593
LJ           1.26047         1.60104          1.3279
LJ          -4.36644         1.83858        0.651844
LJ          -3.19993        -5.72118         4.36167
LJ          -3.51147        -6.27025        -4.25845
LJ          -5.38661         3.52044        -2.10397
LJ          0.650799         5.90234         5.42553
LJ           2.96895       -0.185973        -5.24492
LJ           6.27669       -0.161157        -2.91716
LJ          -5.63661       -0.344831        -2.91928
LJ          -2.46827        -3.21806        0.325971
LJ           6.28441        0.471812        -2.10577
LJ          -4.76679         6.37948         6.33814
LJ           6.19956        -4.06934        -1.55216
LJ          -5.72527         1.85877       -0.985708
LJ           4.65517        -3.49815        -3.11211
LJ          -4.39651         2.97909         4.09169
LJ         -0.926196         5.34618        -2.70454
LJ           3.32697         5.98683        -6.19716
LJ          -2.81218         4.50654         2.50658
LJ           1.09937        -1.98858         3.84091
LJ         -0.618286         4.96798       -0.236784
LJ           2.85377        -4.38646         4.74475
LJ           5.57925        -2.90377        0.778028
LJ         -0.914367         1.62015        -2.74655
LJ           4.77739         5.66388        -1.84677
LJ           3.44609           4.962         6.33573
LJ         0.0883499         1.11936        0.539468
LJ          -1.60485       -0.113044        -2.90604
LJ           3.61883        -4.12986        -3.06364
LJ           1.66249        -4.16283          4.8129
LJ           5.50191        -5.04594         6.24789
LJ           5.02557        -5.39135        -5.56335
LJ           4.59806         3.80099         1.36494
LJ           1.18889         5.65997       -0.305067
LJ          -1.33622         4.10716        -2.26457
LJ           6.01626       -0.646184        -3.82877
LJ          0.714504         3.89379         4.29986
LJ          -1.02999         5.23982        -3.98685
LJ           4.43872        -6.04303       -0.576889
LJ         -0.405184        -5.16832        -5.10946
LJ           5.42839        -3.30369       -0.649391
LJ          -1.99954         3.57943        -3.04564
LJ           3.97204         2.02468        -4.12136
LJ          -6.22196        -4.41312         6.38944
LJ         -0.942159         -1.2778        -5.50779
LJ         -0.814932        -1.81229        0.739252
LJ           2.41245       -0.760061        -3.81829
LJ          -3.68817        -6.42045         2.82294
LJ         -0.905131         6.30408         2.69159
LJ           2.60508         3.83164        -5.71675
LJ          -3.51911         2.43442        0.793584
LJ          -1.70255        -1.19956        -3.79221
LJ            5.3369       -0.766071         1.14631
LJ          -4.65737       -0.434344        -2.41513
LJ          -2.68459         -4.2309        -2.84817
LJ           3.45739         6.25147        0.460042
LJ           1.74275         3.75074         0.73438
LJ          0.549724        -5.25478         5.44019
LJ          -4.38436         5.73257        -5.92835
LJ           2.16879        -4.37301        -3.84774
LJ           2.79788         5.05137         -2.2503
LJ            2.9262         5.44502         -0.9933
LJ          -2.52813       -0.274095         5.09815
LJ          0.246761        -1.68449        -5.75219
LJ          -3.49703          3.7093         4.79374
LJ           5.59248          5.4518        -4.78759
LJ           4.46162       -0.126548         1.68447
LJ          -4.43374         2.58309       -0.328524
LJ          0.781461          1.9417        -5.63502
LJ          -5.95878         1.84606        0.991092
LJ          -4.86336        -5.35278         3.89591
LJ           2.62614        -2.05794         4.10326
LJ           4.14589          -3.775       0.0364971
LJ           1.19665         5.96353         3.32858
LJ          -1.70671         4.87215        -1.69388
LJ         -0.224035         -5.1417        -2.55536
LJ           5.85374         5.99957        -2.26341
LJ           3.58276        -2.94689        -3.36726
LJ          -2.61643        -4.51436        0.387871
LJ          -2.98644         3.16613       -0.461858
LJ         -0.536715         3.62524         4.57597
LJ           4.35265         5.15322         1.26089
LJ          -4.41191         3.84691         5.71749
LJ           3.96416         5.52972         3.37656
LJ           4.37649        -2.28517         6.03528
LJ            5.2558          5.3597         4.23287
LJ          -1.26041         3.51028        -4.03531
LJ          -3.54804        -1.61511        0.441837
LJ           2.94548        -5.64511        -3.66499
