108
#Comment!
LJ           6.11474       -0.746528        -6.24251
LJ         -0.744546         3.50605        -5.64127
LJ          -5.42921         2.03622         3.69118
LJ          -1.40357         3.79518         2.24542
LJ           5.35495         3.09748        -1.81422
LJ           5.39932         2.57214        -0.67871
LJ           1.42212         3.65702        -6.04611
LJ           3.20672         3.92245         5.94815
LJ           2.58074         -3.0858         1.92096
LJ          -2.56343         2.95943         1.73152
LJ            5.4502         1.53484        -3.09379
LJ         -0.125879         1.62675        -4.43777
LJ          -1.38145         2.54095        -6.38672
LJ           5.31643         2.82002        -6.45645
LJ          0.589142         3.70223         6.06501
LJ          -4.05014         3.37871       -0.972384
LJ           -0.4834       -0.338917        -2.53119
LJ          -2.39652        -4.51758        -1.12728
LJ          -5.09519       -0.789411         4.79715
LJ          -2.46186         4.43932        -1.78382
LJ           1.31578         4.50435         5.80275
LJ         -0.124226         2.46822         2.65273
LJ           3.67743        -4.02959         2.54557
LJ          -4.83006        -4.34316        -1.24468
LJ          -5.41203       -0.531152         2.12799
LJ          -2.99734         5.53568         6.08548
LJ           3.64695        -3.94039        -3.32417
LJ          -3.50686         5.71507         1.24504
LJ          -5.82755         -5.9346       -0.500222
LJ           0.31092        -2.58668       -0.417405
LJ           2.99625        -5.00784        -1.38465
LJ          0.995076        0.938098         0.62953
LJ          -1.47562        -2.74672        -3.96106
LJ         -0.543015         -2.8992        -3.52806
LJ          -5.61275       -0.844121        -1.61917
LJ          -1.76731         4.17477        0.561281
LJ          -2.85678         1.97389         5.05696
LJ         -0.552631        -4.19462         5.36317
LJ           1.82313         5.95757         3.07126
LJ          0.564739         5.15243         5.29222
LJ           4.78252        0.132343         1.70144
LJ           0.35212         6.24401         4.18531
LJ          -5.85357        0.678288       -0.724161
LJ           3.63564        -4.97516       -0.300167
LJ          -2.83263         5.93408        -3.63995
LJ           4.46524         -3.0924        -1.04083
LJ           3.18034          1.9742         2.76464
LJ          -3.74404        -6.16454         -1.7691
LJ           6.44171        0.357559         1.73926
LJ           6.42994          1.1531        -2.46701
LJ           2.93618          1.3184        -2.67984
LJ           5.18266        -2.72367         4.47634
LJ          -5.45679         1.45918        -1.36508
LJ          -4.59003         2.72327       -0.278335
LJ          -2.85212        -1.23031          2.7028
LJ           3.55714       -0.180049        0.971952
LJ         -0.176119         0.80718         1.61949
LJ           5.18613         5.97946          5.5757
LJ          -3.35698         3.13186        0.864141
LJ           2.09725          1.4641         4.18315
LJ         -0.211113         5.16804         -3.8915
LJ          -3.62262         2.17223        -0.41996
LJ          -1.46163         1.67386        -1.60773
LJ        -0.0551631        -3.98171        -1.75883
LJ          -1.15025        -5.19899         2.53356
LJ          -6.12617        -4.70064         -6.1278
LJ          -4.41678          1.5718         3.67464
LJ           1.61274        -4.46425         -3.1482
LJ         -0.272635        -5.12248         4.03915
LJ           1.63459        -1.55957        0.637619
LJ          -6.16533         4.92117         5.96613
LJ           5.72783         2.69543        -3.53095
LJ           1.77053         6.43087        -2.18718
LJ          0.936357         1.03859        -6.37613
LJ         0.0377332         -5.9751        -2.49695
LJ           6.00849        -2.43749        -2.46592
LJ           0.12143         -4.9851         -1.4052
LJ           1.98559        -5.90784         1.36714
LJ        -0.0377861         2.72969        -4.78586
LJ           6.04985        -4.48913        -2.35359
LJ           2.91403        -4.68772        -4.78628
LJ         -0.336831        0.123423         -6.1385
LJ            4.6838       -0.905868       -0.445552
LJ           2.76504          -4.151         4.13886
LJ          -2.41951        -6.12926        -1.34338
LJ          0.529371      -0.0702947        0.917855
LJ           -4.6479        -1.04386        -2.00292
LJ           2.31382        0.438942         6.30211
LJ           6.23939        -4.03726        -4.85507
LJ           2.60257        -2.83182        0.833582
LJ           -1.6792        -2.43435         3.19264
LJ         -0.632364       0.0769691         4.97006
LJ          -3.65485        -3.71926         5.89333
LJ           4.02405        -6.28558        -4.78802
LJ          -3.01483       -0.958184         1.18079
LJ          -1.59601         5.39066        -1.86677
LJ           1.67185        0.455987      -0.0567385
LJ           3.18288         5.72476        -6.35574
LJ          -2.78075        -4.05513        -3.40311
LJ           6.27182         6.19385        -2.15289
LJ        -0.0449165         1.72846         6.40404
LJ          -2.44742         5.76067        0.794969
LJ          -1.18369         6.26908        -2.97693
LJ          -1.63699        -5.21582        -5.33954
LJ          -2.38523         3.82024        -6.40209
LJ           0.32321        -2.70335          2.7998
LJ           2.66317         1.73576         5.07469
LJ          -3.20809        0.857023        -4.80305
