108
#Comment!
LJ            1.4636         3.28237         1.48286
LJ          0.354476        -4.00822        -2.03842
LJ         -0.966592         3.48386         2.01089
LJ           4.46609        -4.87276         6.23643
LJ           1.08655        -5.53302      -0.0703618
LJ           5.80264         3.39156         5.19098
LJ           4.26087        -2.32722        -4.91027
LJ         -0.448417          1.2661        -1.24773
LJ          -4.09739         1.53332        -6.04465
LJ          0.364077         2.19536         1.74779
LJ          0.644853        -4.57472        -2.86289
LJ          -2.90158         3.05237         3.00041
LJ          -2.00506         5.99029         5.09333
LJ           3.33766         1.10993        -5.50342
LJ            5.4782        -3.23205          4.0733
LJ            3.3226        0.206705         5.70089
LJ           1.09036        0.672714       -0.853865
LJ           2.19977         2.47588        0.290072
LJ           2.39543        0.100492        -2.66216
LJ           4.83231        -1.13879        -5.35505
LJ          -5.22878        -4.79798         5.97564
LJ        0.00632797        -4.51818        -3.95112
LJ          -5.17563        -3.86137        -1.55246
LJ          -5.74117         -1.5726        -3.18716
LJ         -0.784116         1.77962         2.91828
LJ          -3.98386          4.1873         4.93766
LJ           2.63819       -0.303112        -1.11139
LJ          -2.15995        -4.78613         4.76168
LJ          -4.33203        -3.27271        -1.69207
LJ           5.20587         6.01172        -2.04739
LJ          0.676014       -0.380318         1.30954
LJ           -5.1519          2.2172         2.00762
LJ           0.22892         5.62271          3.6052
LJ          -3.86572        -6.46216         3.41566
LJ           5.75507          4.6697          5.7376
LJ           2.84267        -3.59942         4.54239
LJ          -1.50968      -0.0784991        -5.76308
LJ           -6.3877        -4.74823         4.75843
LJ          -6.09556        -6.32965        -4.54686
LJ           1.37397          2.1293         2.28903
LJ          -6.44453         5.18126        -2.17166
LJ            5.4951        -2.33836         6.04896
LJ           -5.0463         0.13716        -5.15192
LJ            1.2234         1.64381        0.501372
LJ          -5.11925         1.46969          -4.237
LJ          0.264748         5.01183         5.82481
LJ           6.35824         3.84516        0.787806
LJ          -1.05789         -6.1758        -2.86243
LJ          0.361595         2.44665        -3.47213
LJ          -2.37373        -3.63005         1.85573
LJ         -0.028903        -4.63855         5.22562
LJ           3.21138        -5.01502        -5.92631
LJ            3.8217         3.80938         1.71015
LJ          -4.08605    -0.000454849        -4.10396
LJ          -2.07471        -6.17597        -3.21209
LJ          -4.92702         3.34274         2.13448
LJ          -1.37553        0.385835         0.17428
LJ          0.417736         4.62317         3.71336
LJ           -5.4812         0.58751         4.56631
LJ         -0.466708        -4.67463        -2.66927
LJ           5.77453        -5.37687         2.82205
LJ          -5.92141          3.7414        -5.15728
LJ           2.13291         4.33663        -3.87459
LJ           -1.9674        -3.00156         4.05016
LJ          -3.13569        -2.92002         4.56709
LJ          -1.77688         2.39087        0.130226
LJ             2.041      -0.0843335         1.44531
LJ           4.36824        -0.23396        -2.22452
LJ           0.39959         1.74361         3.00527
LJ          -1.75227       -0.917547         1.56204
LJ          -2.21413         2.00979         1.97641
LJ           5.80838        -5.65455        -4.49716
LJ          0.362594         5.31095         1.84623
LJ           2.51471         4.24979        -2.75077
LJ          -1.02792         -1.2235         4.97278
LJ           1.98032         2.70204        -3.10679
LJ          -3.16322        -4.55853         5.56394
LJ         -0.575627         2.81499         3.15121
LJ           2.14432         5.04138      -0.0605371
LJ           1.39447       -0.409369       -0.962334
LJ            5.6754        -4.78538        -3.08342
LJ          0.529049        -0.42581        -2.93343
LJ         -0.987699        -3.56276         1.38678
LJ          0.729911         3.56507         2.11048
LJ          -3.25646        -3.57399        -4.58066
LJ          0.791614         3.91089         4.51829
LJ          -1.34507         4.93419         4.72126
LJ           1.46758         3.57163        -4.23106
LJ           5.59352         1.83367         -2.8829
LJ            2.2466          4.8932        -6.41358
LJ          -3.90702         1.65708         4.35724
LJ         0.0123647        -2.16832        -3.30011
LJ          -3.78383        -3.11952        -3.14002
LJ           5.44833         3.29271        -5.74093
LJ           3.70424        -5.92607         4.86556
LJ           6.12688        -3.94171         1.57839
LJ           6.10863        -6.18888         -1.9547
LJ          0.623336         6.09447        -3.17508
LJ          -4.69885        -5.18624        -3.22158
LJ          -3.91902         5.78629        -5.42058
LJ          0.539419        -6.10545        -2.31666
LJ            4.3904         2.95463        -5.23918
LJ          -3.29947        -3.81676        -2.32068
LJ          -5.91865        0.164429         5.76992
LJ           3.23617        -1.61407         1.34006
LJ          -1.11707         -6.1347         4.13089
LJ          -3.00788        -3.77747       -0.527391
LJ           5.43094         3.50105        -4.71382
