108
#Comment!
LJ           5.29327        -3.48623         5.07045
LJ            6.1125         -5.6477         -4.8712
LJ          -1.21959       -0.171829         1.89126
LJ           2.06645       -0.589505         3.36069
LJ            3.0738       -0.446496         3.01326
LJ          -1.74338        0.254601         2.95775
LJ          -3.50903          -5.723        -4.19784
LJ           4.66179         5.50154        -4.80022
LJ          -1.94891         3.31814         4.35255
LJ            1.4532        -5.85316        -6.32361
LJ          -5.53116          2.4372        -5.23039
LJ         -0.587449        -3.25595        -5.64948
LJ           2.36038         4.82504        -5.09954
LJ          -0.73286        -3.49909        0.938464
LJ         -0.337398         1.24676         1.45749
LJ          -6.07793         3.68543          4.3603
LJ         -0.226349         3.36939        -3.13245
LJ          -1.87825        -3.42927        -6.09762
LJ         -0.960446        0.112742          3.9121
LJ           3.69197         2.77096         3.59664
LJ           3.12955         5.07029        0.883272
LJ        -0.0270003         2.54168        -5.54718
LJ           6.03093        -4.61453        -5.33966
LJ          0.707755        -3.91284         3.33119
LJ          -1.42873         5.56557         5.25002
LJ           1.23814         3.24532         -0.5115
LJ          -5.48965        -2.67769         5.95211
LJ          -1.75201         5.53763       -0.877642
LJ           -4.0968         5.73542        -1.40115
LJ          -1.26364        -4.79384        -1.92776
LJ          0.358054         2.65536       -0.376042
LJ          -5.22015         6.05433         3.22848
LJ          -2.44507        -5.94305        0.409348
LJ          -4.17856        -4.27631        -6.08126
LJ           1.19766         4.48566        -2.67108
LJ           3.04538         5.68972          2.5448
LJ            2.8072          5.7385        -4.53461
LJ          0.461214        -4.01621         1.48716
LJ          -2.75579        -2.87456         5.98015
LJ          -5.35762        -1.68956          3.9163
LJ        -0.0365152        -2.84612       0.0830623
LJ           2.09907        -4.29782         1.53455
LJ          -6.25322         3.84444        -4.90206
LJ         -0.439993         5.99955         1.89408
LJ          -2.12156         2.42401        -6.40229
LJ         -0.757305        0.215812        0.807558
LJ           3.29822        -3.95909         1.28523
LJ          -3.02568         6.39368         5.20314
LJ          0.996919        -3.55836        -4.87069
LJ           2.97264         5.29794        -3.66418
LJ          -2.98629        -3.61218        -4.71995
LJ           4.66058        -1.13691         1.42472
LJ          -3.36295        -1.53597         3.08475
LJ          -1.75944         4.33094        0.408405
LJ           5.03238        -5.18098        -5.51517
LJ         -0.552151        -1.68683         4.30374
LJ           5.58268        -1.14472        -2.94779
LJ         -0.959587        -3.84871        -4.05402
LJ          -4.07773         4.75121        -5.06843
LJ          -3.69259       0.0982879        -4.93817
LJ          -4.21883       -0.644234         2.57094
LJ           0.73465          1.5656         -5.0863
LJ          -4.25631        -5.81509        -6.25265
LJ          -1.61507       -0.861634        -5.61441
LJ            6.2073        -1.39775        -4.66739
LJ          -3.24997         5.47079        -4.82067
LJ           1.83779          4.3185        0.692468
LJ           2.51258         5.05706         -6.0967
LJ             5.531        -1.09526        -6.09897
LJ            2.4205        0.669656        -5.43502
LJ         0.0652226       -0.915544         4.76323
LJ         -0.237428         1.04978          2.5179
LJ          -4.39468        -5.58437        -4.70916
LJ           4.87787         2.35298        -1.41395
LJ           1.92897        0.427334         6.34987
LJ           5.48909         4.17958         4.22092
LJ          -3.61752        -5.00656        -1.77129
LJ          -5.21738         4.96696        -5.35707
LJ           3.59392         2.95297        -2.68787
LJ          -1.38261        -4.27333        -3.19617
LJ         -0.164751        -2.91391        -4.55521
LJ        -0.0146331         1.13113         5.90661
LJ           1.19715        -4.48067          2.3162
LJ          -3.72183        -3.27198         2.61304
LJ           4.79076        0.690627        -2.20337
LJ          0.072276       -0.627138          6.0981
LJ           3.55989        -4.33999         5.32955
LJ           6.10835        -6.03795        -3.18845
LJ           5.61325         2.41605        -5.33174
LJ           3.95979        -6.08686        -3.71387
LJ           1.41798        -3.71808        0.942643
LJ           1.46268        -1.88711        0.675701
LJ           5.40699        -4.43041         5.53295
LJ           2.86616        0.081857         5.99614
LJ          -2.65616        0.148098        -3.47012
LJ          -4.15075        -2.36397         4.33262
LJ          -4.49604         -5.7628          -1.435
LJ          -4.42667         -3.2479          3.5506
LJ          -4.96226        -4.43445        -5.12528
LJ            4.2959         1.72625         2.79365
LJ          -4.11231       -0.260922        0.724692
LJ          -1.28423         1.21437        -5.56166
LJ         -0.484855       -0.567742        -0.46548
LJ          -1.55807         2.15838         2.01996
LJ           5.90598       -0.100746         5.55304
LJ           0.49955         5.65596         1.23254
LJ          -4.53275         2.63651         1.96754
LJ           5.32382        -3.62261        -4.78288
