108
#Comment!
LJ          -4.52377        -3.68703         3.20587
LJ          -2.17566         5.83364        -4.70193
LJ         -0.665449        -5.83946        0.184229
LJ           6.24501        -5.54766         5.17668
LJ           6.43404        -1.96067        -3.03629
LJ          -2.76685         2.03238         4.40991
LJ            5.2352        -2.42899        -4.19619
LJ          -5.05624         4.41525         -2.4122
LJ           6.00158         3.58864         2.45333
LJ           6.36173        0.481643        -4.62332
LJ          -6.33364         -1.5681         3.29203
LJ          -1.35113        -5.07895          5.7968
LJ          0.990914         2.93838         5.71211
LJ            2.4808         -3.0478        0.692376
LJ          -5.13387        -2.53825        0.336123
LJ           3.53233         3.49646         1.72746
LJ           5.57263        -1.26555         2.93256
LJ          -4.84781        -5.64892          5.5282
LJ          -2.68306         2.64124         2.51515
LJ          -3.87786         1.22102         1.70881
LJ           4.94167          2.7277        -1.22207
LJ          -1.24769         4.07481         5.14745
LJ          -6.17386        0.931721         4.84662
LJ           5.94842        -5.67495        -1.80275
LJ         -0.117515         4.16861           6.282
LJ           3.16513        -2.99171        -5.35188
LJ           5.14628         1.90128        -5.01004
LJ          -3.17055         4.01585        -1.88364
LJ          -2.68011          1.2584       -0.541052
LJ           6.05949         2.55637        -1.87536
LJ           -3.7534        -4.83036         3.03384
LJ           5.89552        -5.54174       -0.115477
LJ          -2.62009         -1.4058        -5.60302
LJ           1.35455        -3.67629        -3.13192
LJ          -4.38342         6.20885         6.11287
LJ         -0.542254        -5.84661         1.43034
LJ           1.17506        -4.96909        -6.13432
LJ          -3.28891         2.94673        0.275246
LJ          0.163311        -3.21145         5.64602
LJ           2.63962         1.66853        -1.65305
LJ           1.53034         5.63481         5.84849
LJ           5.40029        -3.25933        0.411143
LJ          -5.90076        -1.56248        -4.15377
LJ           2.21501        -4.47371       -0.835195
LJ           -6.2732         4.98764         5.13133
LJ          -4.45951          0.2347        0.775226
LJ          0.860136         5.91787         2.96354
LJ           2.84837        -5.18429         1.79307
LJ           2.25125        -5.21958         5.85215
LJ          -4.37551        -6.21891         2.68251
LJ          -5.12933         5.67897        -3.72922
LJ           4.67711         6.19509       -0.813827
LJ          -1.13208        -4.33433       -0.702239
LJ           1.79124         5.31727       -0.728533
LJ          -4.72602        -2.88011         6.12126
LJ           2.80466         5.16087         2.02578
LJ          -2.36425         4.89007        -3.35683
LJ           5.58267         6.41091      -0.0453311
LJ          -3.55726        -4.12173         5.24868
LJ           -5.2817        -4.14876      -0.0978422
LJ           3.04024         4.58669        -1.47193
LJ            3.0744        0.353507        -4.71553
LJ          -5.01978        -3.39425        -5.17607
LJ         -0.403815       -0.744026         6.05367
LJ          -5.63208         4.53504       -0.419547
LJ           3.10267          3.0358        -2.82178
LJ         -0.962575         5.50297        0.410094
LJ          -5.19463        -5.04099         -1.7657
LJ            4.3812         2.37827         5.65911
LJ          -4.19655         3.16591         -1.0726
LJ          -1.32492       -0.774249        0.332624
LJ           2.96045       -0.942625         2.87195
LJ           1.78451        -4.56566        -4.05702
LJ         -0.892997        -3.11443       -0.869314
LJ          -5.69558         3.51977        -3.33097
LJ           4.94119         4.14535          1.1939
LJ          -2.60563        -3.49502         2.15543
LJ          -3.72393         5.27471        -6.18625
LJ          0.970081         6.12119        -4.37088
LJ           3.77406       -0.181509        -2.64362
LJ           1.09952         -5.1653        -2.24425
LJ          -3.65501        0.940852         5.07031
LJ          -5.03353        -1.91828        -2.18488
LJ          -3.63357         2.47609        -3.84302
LJ           3.30633         3.39593          3.8812
LJ           2.42278       -0.167454        -2.39181
LJ             5.283         4.52627        -2.86471
LJ          -2.78935         4.75475        -6.06797
LJ          0.491552          2.0963          3.7749
LJ          -1.07603         5.83125         1.65337
LJ        -0.0856293        -4.68513         5.75094
LJ          -6.18401          -4.731       -0.811913
LJ           3.69034        -5.52258          2.2386
LJ          0.804509        0.550006         1.11503
LJ          -4.21853        -2.54835        -5.97907
LJ            4.6806        -6.05555        0.406254
LJ           2.50502        -6.39958        -4.56709
LJ          -2.40203        -4.57675         3.25271
LJ           1.90079         2.29814        -3.25192
LJ         -0.159364         2.38708         1.79888
LJ            3.2004        -6.07506      -0.0177562
LJ          -2.13526         1.92669         5.41278
LJ          -5.86637        -3.84066         6.11759
LJ          -5.23262         5.48928         2.54686
LJ           6.16095         1.42227        -6.18102
LJ         -0.510979         3.03214       -0.749176
LJ          -4.50873        -1.52789         4.16562
LJ           1.46738        -6.11633        -3.03144
