108
#Comment!
LJ           6.18499        -4.10269         4.54689
LJ          -3.70541          5.5692        -4.58686
LJ          -1.99001         2.85941         1.85712
LJ           4.19346        -3.11189          3.9278
LJ           3.20924        -1.89778        -4.64444
LJ          -1.18865          1.5591         3.85776
LJ          -5.35069        -3.25338        -5.17366
LJ          -6.32572         4.83178         2.53645
LJ          -3.81513         3.03124         2.80663
LJ           3.52768         3.06016        -5.46248
LJ          -5.62328       0.0523896        -6.13318
LJ          -1.94353        -4.40481        -6.01906
LJ            2.0899         4.71401        -3.72842
LJ          -5.65783        -3.01875         1.29365
LJ           3.75888       -0.324357         1.13798
LJ           5.36247         3.19758         3.02804
LJ            2.6636         1.52174         1.20058
LJ          -5.42417        -4.41497        -6.15435
LJ           -2.3709        0.810418         4.44812
LJ           4.98474         1.16155          1.5588
LJ           2.73425         4.27226        -1.33124
LJ         0.0955045         2.85717         5.93059
LJ          -6.34725         -2.9986          5.5748
LJ           3.85339        -3.62839        0.478778
LJ          -2.23246         5.21871         5.21114
LJ           2.77863         6.07467         3.55559
LJ           5.52331         1.93908         5.66064
LJ          -2.24666         6.25143        -1.36108
LJ            -3.098         4.71524         -1.1503
LJ           2.63372         4.48788        -2.43541
LJ         -0.813112        -0.68067         1.71811
LJ          -6.03625        -6.13197         1.27256
LJ          -1.92342        -4.80665         2.61143
LJ          -1.17876        -4.67324        -4.43568
LJ          -1.68135        -5.61355        -5.08364
LJ           1.35106         6.22017         1.92634
LJ           2.13092        -5.50194         6.37787
LJ          -1.94878         1.43282         1.19953
LJ          -2.94502         -4.1869        -5.59719
LJ           5.28755       -0.274746        -5.04154
LJ           1.11356         2.22974        -3.92204
LJ           4.95649        -4.11249       0.0169397
LJ           5.88751        -6.12027        -4.80535
LJ          0.575277        -4.13739       -0.139118
LJ          -3.30118          3.3329         6.14204
LJ            4.8007        0.144124        0.904393
LJ           3.14128        -2.74545         6.05778
LJ           0.25169        -5.77141         3.50602
LJ           1.20829        -5.86375        -5.51213
LJ         -0.905382          5.1254       0.0604042
LJ          -3.52641        -5.66256        -3.75099
LJ           5.22988        -3.60433       -0.994053
LJ          -2.88918        -3.41646         1.26827
LJ            1.1525         4.11557       -0.220163
LJ          -5.13718         -2.8206         6.10123
LJ           2.89356        -6.08766        -3.12574
LJ          -4.41922         6.43153        -1.94955
LJ           2.47486        -4.64076        -2.70296
LJ          -4.35334        -5.69736        0.445024
LJ          -4.54061        -4.09895        -2.95151
LJ          -6.01949         1.88374        -1.35968
LJ           2.68569        -0.83344        -4.40082
LJ           5.83604         -3.3897        -4.25223
LJ        0.00953669        -0.61131         5.26342
LJ           6.14161         4.57607         -3.2972
LJ           5.25685         4.49032        -1.79467
LJ         -0.677669         6.23576       -0.305048
LJ            5.8369        -4.81803        -5.19269
LJ            5.9281         0.80455        -6.25971
LJ          -1.25841         3.52534        -2.69636
LJ         -0.592956        -1.19767         3.03728
LJ          0.602535       -0.319709         4.33086
LJ           6.33854        -6.36692          -3.678
LJ          0.972412      -0.0901927        0.249026
LJ          -2.68361         1.50403        -4.62308
LJ           5.32622           4.559          2.5475
LJ          -1.95003         -3.7402       -0.126412
LJ          -4.61024         5.13251        -6.23731
LJ           1.29111         4.04641        -4.90247
LJ           3.92883        -3.04848        -3.43523
LJ          0.500822        -4.96501        -3.12895
LJ          -4.01556         1.63881         5.40802
LJ           3.15692        -2.44857        0.544495
LJ          -4.07948        0.138368       -0.235024
LJ           3.98665         2.55425        0.704455
LJ          0.379008        0.974782        -3.47337
LJ           4.32508        -6.09117        -5.81889
LJ          -4.41969         6.29658        -4.17327
LJ          -3.17977         1.15797         6.39667
LJ           2.29407         6.39772        -1.04452
LJ           0.30118         -4.0679         3.62826
LJ           3.87914        -4.68132       -0.202095
LJ           4.73148        -5.20832         4.58421
LJ           0.36784        -1.25918        -2.44859
LJ          -4.32356       -0.275798        -3.80591
LJ           -4.7885        -5.92445         3.33993
LJ         -0.492263         4.56094         -2.9397
LJ          -4.07775        -3.62004         4.10971
LJ           6.37266       -0.618348        -3.81351
LJ           2.35049         1.23282       -0.523373
LJ           5.22225        -3.00593         1.16587
LJ          -2.70455         1.48292          3.5003
LJ          -1.80201        -1.70934        -3.92187
LJ          -2.74304         2.94579        0.865697
LJ          -6.32223        0.669008          5.8067
LJ          0.128814         4.22925         1.18285
LJ          -4.47959       0.0503423         3.94888
LJ           3.32953        -4.52531        -4.64785
