108
#Comment!
LJ           0.98781         2.53967         2.88219
LJ           1.58054        -4.87007        -1.46158
LJ         -0.392006         2.76533         1.12082
LJ           3.22671         -5.2121          5.5559
LJ           2.39811        -4.76403          1.5917
LJ           4.82865         4.62679         6.25783
LJ           3.99213        -1.69871        -5.68247
LJ          -3.43152      -0.0122623         -1.1081
LJ          -3.79853         1.66268         -6.2395
LJ          0.123419         1.68531         1.27682
LJ           3.45591        -4.18688        -4.06186
LJ          -2.08686         3.51063         2.97495
LJ          -2.19962        -5.73611        -5.48399
LJ           1.15166         2.37541        -5.08126
LJ           3.78398        -1.84774         5.02064
LJ           1.96565        -1.00085         4.75139
LJ           1.64033       -0.542897         -1.2234
LJ           1.52245         1.08667       -0.171658
LJ           2.27433        -2.47125        -2.80775
LJ           3.49225       -0.416297        -5.40816
LJ           6.12457        -3.38679         5.53967
LJ         -0.900046         6.21904        -3.81697
LJ           6.22754        -5.22496       -0.972943
LJ          -5.87577        -2.32223        -2.58631
LJ          0.428593         1.44975         2.35895
LJ           -1.1543         4.63408         5.33767
LJ           2.92224       -0.803941        -2.00256
LJ          -2.35085         -5.4235         3.53638
LJ          -5.64964        -2.38827       -0.145185
LJ           4.62112         -5.8206        -1.68402
LJ           1.19827         1.30749         1.77709
LJ          -5.80658         2.16522         1.76882
LJ          0.275884          6.0255         3.22483
LJ          -2.65092         6.25858         2.14729
LJ           6.14993         5.96288        -5.67554
LJ           2.84662        -5.13439         4.37985
LJ          -1.48898       -0.205657         6.01182
LJ           5.52224        -6.23107        -5.43552
LJ          -5.94169        -6.40603        -5.21087
LJ           2.03143         1.17792         3.07055
LJ           6.20602         4.93087        -1.49709
LJ          -5.93763        -1.16101         5.55503
LJ          -5.65791        0.662694         -4.8862
LJ           1.61404         1.69778        0.911819
LJ          -4.84503         1.27121        -5.48572
LJ          0.398913         4.08883         5.90216
LJ          -5.42671          6.1831         1.51873
LJ          -1.76482         6.45629        -2.00193
LJ         -0.937656         2.08519        -2.74872
LJ          -3.32386        -2.89196        0.696297
LJ          -1.27073         -3.3545         3.51757
LJ           4.84675        -4.65619        -5.24031
LJ           4.68054         1.05749         3.14676
LJ          -2.84313       -0.871431        -3.37791
LJ          -2.02411         6.41784        -3.15385
LJ          -6.18766          3.1414         1.39762
LJ          -1.72218       0.0325726         0.55266
LJ           1.49085         5.12923         1.51765
LJ          -5.70173        0.778919         3.95497
LJ         -0.720301        -4.49523       -0.689882
LJ            3.6248        -4.27397         1.60247
LJ           -6.0868         2.94195        -4.88416
LJ            1.8825         4.81265        -3.47962
LJ          -2.07107        -3.91562          3.9322
LJ          -2.66669        -3.10066         3.99738
LJ         -0.367852         4.89435         2.19109
LJ           2.27644        0.955099        0.543389
LJ           1.66132       -0.717652        -3.12473
LJ          0.337494         3.31371         3.23992
LJ         -0.602131         1.07655         1.65339
LJ          -1.92228         1.22922         1.49058
LJ           5.30429        -3.73831        -4.62162
LJ           1.19892         5.93413        0.973379
LJ           2.13887         2.96064        -3.83176
LJ          -2.84061       -0.221824        -6.16911
LJ            2.6814         1.68916         -1.9605
LJ          -2.45124        -4.69895         2.44843
LJ        -0.0988731          2.5923         5.20434
LJ           1.57169         4.23749        -1.16901
LJ           1.95059        -1.47376       -0.326083
LJ          -6.14959        -5.79204        -4.09539
LJ            1.1839        0.362041        -3.86011
LJ          0.153899        -2.57214         1.84808
LJ          -0.73745         4.27308         3.10811
LJ          -3.07383        -3.54758        -4.30312
LJ           2.69617           2.581           3.481
LJ         -0.622627        -6.46257         3.84875
LJ           1.32099         3.77794         -3.9892
LJ           5.28155          3.1359        -2.84297
LJ           1.71266         5.77255         5.44986
LJ          -2.76448         1.27026         4.10849
LJ           0.41766        -1.89389        -4.13734
LJ          -3.07958        -6.34724        -3.83086
LJ           4.71263         3.53891        -5.82362
LJ           5.43932        -4.25273         4.02539
LJ           -5.8839        -4.62087         1.24302
LJ           6.12278        -6.29707       -0.986729
LJ           1.67587         5.65393        -4.24773
LJ          -4.82102        -5.25239        -3.75696
LJ          -4.26511         4.01863         5.95394
LJ            1.7967         5.47055        -2.64004
LJ           5.26664         4.18024        -4.39442
LJ           -2.5481        -1.60318        -1.43815
LJ          -5.19384       -0.448664          6.3236
LJ          0.461515       -0.422506         1.64628
LJ          -1.51721         5.71797         4.97422
LJ           -4.2624        -3.30892        0.308649
LJ           5.70074         2.11282        -4.06122
