108
#Comment!
LJ           5.46961        -2.90986         4.81675
LJ           5.33703        -5.93627        -4.15007
LJ             -1.67       -0.366312         1.83089
LJ          0.700296        0.682763         3.00972
LJ           3.59804         2.68441         5.24386
LJ         -0.575603        0.658767         2.32594
LJ          -1.33632         6.19527        -4.34988
LJ           4.39722         5.32383        -4.03989
LJ          -1.23037         3.42334         5.22195
LJ           1.99998        -5.56489          6.2477
LJ          -5.22131         1.86642        -5.48238
LJ          0.425194        -2.79706        -5.55348
LJ           2.24045         4.36145        -4.29435
LJ         -0.424335        -5.73533         2.77171
LJ          -2.00476        0.437093        0.627759
LJ          -5.72049         4.15498         4.92936
LJ          -1.26448          4.4514         -4.9582
LJ         -0.369023        -3.45779        -5.69685
LJ         -0.638667        -1.65629         4.27078
LJ           4.89937         3.32295         5.46903
LJ           3.90142         5.55303         1.62336
LJ          -1.49791         2.92709        -5.39561
LJ           3.45742        -4.45278        -5.83398
LJ          0.387824        -5.21344         5.84302
LJ         -0.581704         5.41902         5.47778
LJ          0.227121         2.68235        -2.33666
LJ            6.3568        -3.49595         5.54135
LJ          -1.65592         4.51093       -0.628957
LJ          -5.89613        -5.80042        -1.80648
LJ          -3.21345        -3.17882       -0.989005
LJ          -1.35984         2.89465        -1.93234
LJ          -4.83903         5.68082         4.19962
LJ          -2.77823        -5.83858        0.371597
LJ          -3.81437        -5.52194        -5.79538
LJ           1.50524         2.88199        -1.55398
LJ           3.60621         5.21239         3.14468
LJ           2.51913         5.14114        -5.22109
LJ           1.93599        -5.22598        0.612145
LJ          -1.13574        -1.30181          5.0856
LJ          -5.82212        -2.18163         4.36461
LJ           1.08671        -3.58702       -0.331422
LJ           1.16442        -5.04296         1.65603
LJ           6.20059         4.09161        -4.95839
LJ          0.117968         6.39013         3.13697
LJ          -2.52139         2.27725         6.33354
LJ          -2.39276        0.267159         2.75761
LJ           2.67447        -6.20607       -0.351761
LJ          -5.15634         6.21156         5.72698
LJ          0.431017        -1.43442        -4.62198
LJ           3.86671         4.34667         -1.5719
LJ          -4.96719        -2.79487         6.14131
LJ           4.10274       -0.125469         2.77684
LJ          -2.92197        -2.03427         4.76623
LJ          -3.31353         3.30153       -0.489979
LJ             4.626        -5.93865         6.41545
LJ          -3.77686        -0.77144          1.0757
LJ           4.91227       -0.248233        -4.80899
LJ          -1.23696        -4.31805        -3.52842
LJ          -2.62752         4.14663         5.96875
LJ           -3.1448         2.56275        -5.21452
LJ          -5.49549         1.30779         3.03982
LJ          0.296349         2.77125        -6.32549
LJ          -2.52418         5.96291        -5.97396
LJ          -2.21833       -0.805592        -4.78675
LJ           6.26878        -3.48954         -5.4598
LJ          -2.61736         5.26123         6.14949
LJ           4.64056         5.03941         2.55405
LJ           1.24667         3.94665         4.50605
LJ           5.43422        -2.72041        -6.12775
LJ           3.28093        -1.01899          6.2207
LJ          0.452134        -0.51401         3.85694
LJ         -0.267621         1.51257         2.71625
LJ          -4.30913         5.44752        -4.96555
LJ          -5.74891         2.00817        -3.60035
LJ           4.47207        0.536963         4.91805
LJ           6.03916         3.90486         5.06844
LJ          -4.63475        -6.07326        -2.34847
LJ          -5.47506         4.61514        -4.31457
LJ           4.75104         2.65531        -1.62986
LJ          -1.49157        -5.17621        -2.76289
LJ          -1.91291        -1.46816        -6.02275
LJ           1.55169        -0.17652        -5.99105
LJ         -0.590037        -4.08033         2.13834
LJ           -2.5003        -6.24166         2.33658
LJ           4.37968         1.54825          -2.097
LJ           1.13833        -1.35779        -5.60223
LJ           3.07163        -4.25147         4.31299
LJ           5.04985        -5.40475        -3.22352
LJ           4.69744         4.15147        -4.19944
LJ           3.66706        -5.98261        -4.56171
LJ           1.84042        -3.89645         1.29009
LJ          0.373834       -0.770068         1.35373
LJ           5.50329        -4.03194         5.35296
LJ           4.46286       -0.623235         4.75587
LJ          -1.46639        0.238208        -4.35722
LJ          -4.73123        -2.04697         4.55484
LJ          -5.23166        -4.41776       -0.727835
LJ          -3.80644        -1.69577         3.54659
LJ          -4.28363        -3.99546        -5.55359
LJ           4.52615         2.14963         4.77032
LJ          -2.93372         1.38777        0.300317
LJ          0.757366         2.72274        -4.32376
LJ          -0.43817       -0.322263          1.6696
LJ          -1.57445         2.48627         1.63755
LJ           6.24142       -0.190237         4.61936
LJ          0.133866         6.28146        0.838366
LJ          -4.47662         3.83873         1.05814
LJ          -6.12367        -3.48431        -3.10865
