108
#Comment!
LJ           2.53709        0.312325          2.2056
LJ           4.90418        -1.51908          1.6811
LJ           6.29471         3.14855        0.135757
LJ           2.01695        -3.72616         2.64244
LJ           5.43163         3.78516        0.187013
LJ          -1.32498        -2.46525         2.50105
LJ           6.36884         1.82216        -4.31807
LJ            6.3823        -1.12114         1.23751
LJ          -6.03647         4.34651          2.7621
LJ          -4.53753         3.99004        -3.86129
LJ          -4.62922        -0.82521        -6.33619
LJ         -0.173007         -0.5202        -2.90094
LJ           3.66228       -0.554728        0.561239
LJ          -3.81288         5.69154        -2.21914
LJ          -1.50305        -4.42492        -6.36748
LJ           -3.1593        0.498582        -6.17675
LJ           4.11278         2.50539        -1.28493
LJ           5.31791       -0.809581      -0.0917483
LJ           3.55973         3.05631         5.68642
LJ          -4.72381         1.87827         2.22447
LJ           3.68496         4.78431        -2.22302
LJ          -5.92139       -0.873611        -1.67507
LJ          -3.58961        -3.04015         5.04722
LJ           -5.0001         4.92499         -3.3661
LJ           2.44492         1.90812       -0.446944
LJ            2.6987         0.13398        -5.08876
LJ          -5.91171        0.832532        -2.36919
LJ          -2.41179      -0.0970966        -2.34923
LJ          -1.35307       -0.388155        -2.83403
LJ           2.12478         0.37208         3.74502
LJ          -3.69499         3.82369         5.19112
LJ          -1.95675        0.582611        -3.76366
LJ          -4.07474        -3.38659         3.74651
LJ           1.86477        -1.89132        -3.18302
LJ           1.53216        -3.11449         5.26461
LJ          -4.33021         1.69616         5.30562
LJ           1.22918       -0.998037         -3.5699
LJ         -0.898862        -6.00601        -1.67453
LJ        -0.0523462          3.5619         3.63736
LJ          -5.06676        -4.45899        -1.30938
LJ            3.7987        -5.39117         -4.4125
LJ          0.273035        -6.02024        -1.48028
LJ           2.54548         4.68101        -2.94969
LJ           6.17081         3.64515         -3.8877
LJ          -3.17663       -0.576708        -6.37948
LJ         0.0643316        -2.41239         5.79487
LJ          -3.76822        -3.75153        -1.73444
LJ           4.08158        -5.27282         2.48497
LJ          -3.61576        0.653956         0.83908
LJ           5.20657        -2.33906        -3.69288
LJ          -3.81557        -2.35122          -5.361
LJ           5.67355         2.85301        -4.54646
LJ          -1.97845         6.43333        -4.33936
LJ           3.18545        -2.16124        -3.06426
LJ           1.26012        -4.71716         2.24101
LJ          -4.29984         4.83883       -0.160201
LJ           2.83731          3.5413        -3.14032
LJ          -3.00214        -4.66213        -4.34391
LJ           3.17571         5.00892         3.26696
LJ          -2.62144        -0.54021        -5.15654
LJ          -4.29339         3.01258         6.08525
LJ           2.66547        -4.47171         4.20754
LJ           6.21252         5.07864         3.49782
LJ          -5.28061         1.66036        -2.01428
LJ           4.33274         2.83852        0.639712
LJ           1.14314         4.52767         4.50446
LJ           3.40318          3.2616         1.14012
LJ          -1.47915        -4.82162        -3.56794
LJ           4.69911       -0.781243        0.862001
LJ          -3.09928        -5.73283        -1.31193
LJ          -2.45738          2.4184         2.22116
LJ           5.67424       -0.686679         5.81056
LJ          -3.33305        -1.38913         4.43466
LJ          -6.09198         4.43156         5.22314
LJ          -3.26574        0.434372        -1.38824
LJ          -6.00992           2.463          5.0592
LJ           4.49257         3.99669        -2.38811
LJ           2.61004         3.86252        -4.20708
LJ          -2.53674         1.26978         1.34052
LJ          -3.23987         -5.3622        -2.73561
LJ          -4.69797         6.15508          2.9535
LJ          -4.56472        -4.45893         6.26737
LJ          -5.80495        -4.36305       0.0467108
LJ           2.16615         -5.8853        -2.45914
LJ           4.08693        -1.29289      -0.0122115
LJ           4.34148        -3.58105        -5.57945
LJ           1.65871         6.37102         2.42019
LJ           5.49242         -1.7673        0.954723
LJ           6.13343          3.6129         -1.0761
LJ          -2.47287         -2.5563        -3.81537
LJ         -0.905863          3.1951         2.79624
LJ         -0.292789        -1.80741        0.385844
LJ           2.52841         4.06802         2.96156
LJ          -1.58164         1.50516        0.781966
LJ           1.38903         4.65054         5.74238
LJ          -4.39359        -5.56446         1.25255
LJ           4.44746          1.1976         1.34581
LJ          -5.39793        -2.58542       0.0450348
LJ           1.29302        -1.88211        -5.01693
LJ           6.35487        -5.79758          1.9337
LJ          -3.22693        -6.36003        -3.78976
LJ           1.72241        -6.21457           5.513
LJ          -5.50038        -2.22347         2.93774
LJ           -1.2912        0.692888         2.22656
LJ          -4.98251          1.1147        0.888023
LJ           4.55519        -5.21191        -1.43012
LJ          -3.99089        -3.53294        -3.65682
LJ          -1.67437         5.15398         5.17603
