108
#Comment!
LJ          0.989335         1.91555         1.74139
LJ           5.04344        0.631649         4.87327
LJ           5.25986         2.10514         1.37368
LJ           2.00834         5.06081         2.80091
LJ           3.76544         1.70337         2.30696
LJ           0.98056        -2.32604         1.46254
LJ          -5.63272         2.52069         -3.0793
LJ          -4.05901         1.66306       -0.911556
LJ           4.84788          4.7388          1.7955
LJ           -3.4795         4.30888        -3.65201
LJ          -3.52239        -2.42609        -5.61229
LJ          -1.53602         2.99837        -3.61012
LJ           3.07609          2.2676         1.71157
LJ          -2.66909        -5.63321        -1.32409
LJ         -0.745592          6.2768        -4.61688
LJ          -3.24816        -2.33454         6.29919
LJ           3.46328         1.40221        -1.15035
LJ           5.39749       -0.321581         1.76169
LJ           5.65681        0.870122        -5.69732
LJ          -3.98962        0.893836         4.38052
LJ           5.04004         6.43487         -3.9059
LJ            3.2365       -0.629473        -1.17625
LJ          -5.96958        -2.12264         4.76338
LJ           -2.9973         3.14723        -3.08739
LJ           4.47193          1.1901        -2.57341
LJ           2.12405       -0.233283         -6.3484
LJ          -5.99836        0.539308       -0.703903
LJ          -4.03013        0.609338        -3.76183
LJ         -0.151052        0.631252        -4.90687
LJ             1.149       -0.534735         4.22691
LJ          -4.40189         2.78613         3.37314
LJ          -2.21299         2.77613        -1.65947
LJ          -5.56307        -2.49357         6.25654
LJ           2.59085        -3.50424        -2.63864
LJ           1.57494        -3.25216        -5.82611
LJ          -4.93924         1.00022         5.26086
LJ           1.15879        -4.30155        -2.47456
LJ          -1.48216        -6.04865        -3.54491
LJ         -0.778087         3.47784         3.20302
LJ          -4.61635         -4.3729         -1.9351
LJ           4.18005        -5.48497        -5.90871
LJ         -0.269038        -5.62913        -2.37743
LJ          -1.13161         3.96798        -4.90707
LJ          -4.84706         3.21492        -4.38548
LJ          -4.33527        -2.11463         6.40731
LJ           1.39318        -2.29579          5.0137
LJ          -6.03585        -5.86903        -0.18137
LJ           4.31783        -5.12358         1.78291
LJ          -4.77371        0.848023         3.63187
LJ           5.45649        -4.22302        -0.44125
LJ          -2.22511        -3.39232        -5.38236
LJ           -4.5948         1.98626        -3.40089
LJ          -2.80641        -5.50996        -2.90686
LJ           3.16457        -4.41517        -1.11501
LJ          0.704123        -4.61121         3.29942
LJ           6.35667        -5.86882        -4.53505
LJ           3.70163         6.27382        -2.93766
LJ          -3.66781        -3.62601        -5.24047
LJ           3.34412         4.19113         2.92725
LJ           -1.6722         1.46115        -3.53337
LJ          -3.61758         3.61212         5.72664
LJ           2.95432        -2.21978         3.53736
LJ           4.09654         2.33572          3.0687
LJ          -5.18091         4.02116        -1.13929
LJ           4.04285         2.33808         1.28957
LJ           2.25328         4.98181         3.94862
LJ           2.01523          2.0302       -0.840791
LJ          -4.60369        -4.95479        -5.24591
LJ           4.69915      -0.0895977         4.03025
LJ          -3.12838          6.1254        -3.69804
LJ          -3.56639         2.64567         1.91143
LJ           3.94666       -0.778171         5.62845
LJ           -3.8085         -1.3167         4.54468
LJ           5.71786         5.56077         6.36641
LJ          -1.79969         1.76948        -2.33744
LJ          -5.65976         1.61487         3.20009
LJ           4.50173         4.46499        -1.61792
LJ         0.0288404         3.86504        -5.74444
LJ          -2.27879         1.14268       -0.608196
LJ          -3.30333        -4.76309         -1.9249
LJ          -4.60731         4.33026         1.43637
LJ          -3.39833        -6.45069         4.99075
LJ          -4.15579        -4.02427        -1.04742
LJ            2.0922        -6.14251        -3.10292
LJ           6.35734         1.76679       0.0933793
LJ           4.45006        -4.05413        -5.95195
LJ           2.90671         6.24074         3.76438
LJ           5.74654       -0.308399         2.82474
LJ           6.08748         3.94639        -2.04607
LJ         -0.388653        -1.13014        -5.89667
LJ          -1.53743         0.20236         2.96168
LJ          -1.15716        -2.66186        0.116919
LJ           2.73111         4.71719         2.09804
LJ           -2.1256         2.11455       -0.212026
LJ           2.33453         5.57758         4.85151
LJ           -4.7496         6.19322         1.37334
LJ           3.09446         2.97639         3.01922
LJ          -5.07376       -0.859904       -0.394855
LJ           2.90019        -2.20773        -4.38148
LJ          -5.39334        -5.32231         3.96758
LJ          -2.90297         5.83992        -5.10373
LJ           2.26284        -4.24007         3.82732
LJ           5.86441        -3.04131         1.86603
LJ          0.906629        0.163414         2.87416
LJ          -4.38096         2.58768          1.2146
LJ          -5.88536        -5.72318           -2.47
LJ          -3.83444        -1.77328        -3.64616
LJ         -0.915218         3.09309        -5.71586
