108
#Comment!
LJ            3.9711        0.900356         5.16523
LJ          0.650957         5.53166         1.86233
LJ           4.46255         2.33382         2.50477
LJ          0.610417         6.23527          3.7535
LJ           3.31159        -6.34928        -5.80467
LJ            3.3682         4.19593        -4.19256
LJ          0.484964          1.7671         4.94487
LJ           3.19627        -5.10065        0.848055
LJ          -0.18006        -2.52809         3.89945
LJ          0.270883         1.43897         1.69639
LJ           4.54945         1.10307        -2.95488
LJ          -1.20654         2.46486        -6.44806
LJ          -3.35396        -2.92155         2.29617
LJ          -4.61428         4.75685        -4.47815
LJ         -0.139741         1.88852         6.31559
LJ          -1.28708       -0.830799        0.870833
LJ            1.9496        -2.73087        -1.52254
LJ         -0.808224        -1.79946      -0.0366838
LJ           4.64488        -2.89091        -5.65254
LJ           1.39703           2.315        -3.38507
LJ           3.03457        0.883649         4.44737
LJ           1.16263        0.850187        0.353019
LJ           3.99177        -2.81525         1.69477
LJ          -6.31068        -4.30404       -0.594738
LJ          -2.08496       -0.106192         2.81187
LJ             6.355        -4.87868         5.41695
LJ           3.75556        -1.93071        -2.62946
LJ          -2.99656         5.75862        -2.62465
LJ           -6.1475        -2.61666        0.134209
LJ           3.22065        -3.93205        -1.04866
LJ           2.70673          5.5565        0.268656
LJ           4.18415         2.81822        0.268498
LJ          0.232335        -2.59889         4.96008
LJ         -0.734908         2.44367         0.21136
LJ          -5.09758        0.938194        -4.28699
LJ           1.34479         4.56043         2.19406
LJ           -3.2753       -0.255117         3.66992
LJ          -5.54857        -4.95733         1.42326
LJ         -0.659481        -5.18871         4.41332
LJ           1.97935         1.83336         3.83392
LJ           5.55669         2.54289       -0.111223
LJ         -0.987208         2.35744         4.72025
LJ          -4.64779         1.21005         3.92832
LJ           2.37974         4.54052        0.296068
LJ          -4.92257         2.95044        -5.59388
LJ           2.91077        -6.31878        -3.37627
LJ         -0.893392       -0.761817         3.56242
LJ          -3.58191        -6.10511        -2.18223
LJ          -4.25641         0.98362       -0.417139
LJ          -4.85033       -0.346097        -1.54692
LJ          -6.08948       -0.352732       -0.536308
LJ         -0.741918        -4.31511         4.95428
LJ           5.84075         5.90934        -5.62766
LJ           2.95321        -5.72616       0.0972801
LJ          -2.80627         3.77591        -4.70892
LJ            4.1976         1.10258        0.385523
LJ          -1.77861       0.0924196         1.56075
LJ           3.23576          5.2913        -3.47727
LJ          -6.07608         1.31835          2.5874
LJ           1.30046        -1.97908          2.1363
LJ          0.671931        -4.91702        -1.94018
LJ           1.39339         2.87568        -1.57226
LJ          0.569031         1.96094        -4.57871
LJ         -0.905165         -4.7799         1.64662
LJ          -1.39231        -3.53259         2.02574
LJ          -5.68075        -1.29569         5.56867
LJ          -5.99836         1.82975         1.22498
LJ          -6.21238        -3.00514        -6.14147
LJ          0.172153         5.03131         4.59054
LJ          0.900076         1.94993        0.453196
LJ          -3.31648          3.0535          2.8899
LJ           3.60536        0.985899        -3.73231
LJ           2.02816        -4.42004        -1.50101
LJ           0.89041        0.523483        -6.07013
LJ            5.6628         4.52583        -3.41819
LJ           4.50499        -1.18253        -1.97565
LJ         -0.981022         -4.5815        0.506724
LJ         -0.363952         -3.0852         5.94495
LJ          0.118469         2.13789        -2.51627
LJ            3.9963          1.9777        -2.51165
LJ           5.54489         5.78629        -3.89658
LJ            1.1997         1.46083         5.99875
LJ           2.95565       -0.967713         2.60221
LJ          -6.00772        -6.29605         3.64651
LJ          -2.53767        -4.70881        -2.65829
LJ           2.20413       -0.548889        0.722222
LJ          -1.70722        -2.56325         2.26009
LJ           1.11782         1.23508        -5.13601
LJ           5.21962        -5.82794         -4.2275
LJ           1.21339        -5.01507         3.00658
LJ          -1.20922       -0.401804         4.59357
LJ          0.329038         0.40504         -4.6947
LJ          -3.57032       -0.681665         6.43724
LJ           4.27574         6.16447        -5.97417
LJ          -4.11463       -0.792562         3.06775
LJ          -3.26029        -6.36755       0.0281664
LJ           3.80199         2.92631         1.44849
LJ           4.73154         5.19816        -5.54089
LJ          -3.70241        -5.99996          -3.785
LJ          -5.41799        -1.36577         1.54621
LJ           3.32518          2.8905        -3.24961
LJ          -4.65899         5.10595        -1.37263
LJ          -1.48779         3.44504       -0.950931
LJ          -3.27376        -2.45063        -5.37227
LJ          -4.58636        -3.29483         5.09272
LJ          -0.66075         1.12137         4.22378
LJ           3.19203       -0.642032         1.60315
LJ          -6.17457         1.66091        -3.09864
