108
#Comment!
LJ           0.30342        -2.29606        -1.41907
LJ          -2.74261       -0.514066        -1.28674
LJ          -4.38972        -4.35451         4.35892
LJ          -5.21855        -5.89537        -5.51112
LJ          -3.70049         -6.2351         -3.9355
LJ          -4.30562        -1.64776         5.52922
LJ          -5.28145        -3.67629        -4.00462
LJ           3.34815         4.47682      -0.0661287
LJ           1.01666        -1.44307         1.99182
LJ           2.34363          2.9079         1.48102
LJ          -1.95455        -2.92246         4.94236
LJ           4.35288        -1.56893         2.84115
LJ           5.56233         5.39625         1.86011
LJ          -2.33772        -1.70791         6.45216
LJ          -4.88434           4.436         3.23614
LJ          -5.46418         -1.8558         6.22714
LJ         -0.125185        -5.19165       -0.122446
LJ           2.62562         1.89682          1.3174
LJ           4.19972        -2.66158         2.63566
LJ           6.21065        -5.38431        -3.49871
LJ         -0.732956         2.27694        -5.72978
LJ            1.5528       0.0565348        0.608113
LJ          -2.11972        0.849833        -1.19788
LJ          -4.90114        0.336671        -5.72487
LJ            1.2895       -0.252516        -2.01859
LJ           6.00911       -0.291303         1.82316
LJ           2.72373        0.741755       -0.774504
LJ          -3.95009       -0.726063        -2.93876
LJ          0.128682          2.1743        -2.74356
LJ           4.29274         2.71254        -5.56178
LJ           1.01662        -4.00029        0.693443
LJ          -1.78992          4.0698        -6.22848
LJ           4.90978         6.31517        -5.88323
LJ           2.74549        -4.46771         4.65075
LJ          -1.80287         4.24398         5.01042
LJ           3.33758         2.30189         5.67844
LJ         -0.220841         -0.1498        -2.48077
LJ          -5.24724        0.395585         0.15635
LJ          -3.97856         5.59482        -3.68743
LJ            2.7668         3.04196          3.3004
LJ          -3.31313         3.48199         6.13902
LJ           1.23726         5.91807        -3.69189
LJ          -2.72271        -3.01358         5.58499
LJ           2.23805         2.37545         2.62264
LJ           3.19167        0.944965        -1.65426
LJ           2.30731         5.27527         5.29824
LJ           2.59356        -3.73956        0.555106
LJ          -1.10413         5.84057        -2.27005
LJ            1.5212         4.59433       -0.190277
LJ          0.472883        -6.12117         5.70019
LJ           2.97091         3.15181        -4.54491
LJ         0.0724661        -3.88546         5.34691
LJ          -5.07411         1.31964        -2.11618
LJ          -3.75911        -1.36085        -5.51348
LJ          -1.60294         1.66868        -5.78833
LJ         -0.950358         2.39183         6.01739
LJ          -1.66819          3.1422        -5.14077
LJ          -5.89499          1.5538         5.45026
LJ          -3.86539         5.18677         4.56305
LJ          -4.42173         6.22952         1.07165
LJ          -1.04764        -1.42086         1.47097
LJ            3.5684        -1.49189        -3.70076
LJ           5.56113        -5.46838         5.86766
LJ          -4.44753       -0.557024         5.25972
LJ           -4.2348      -0.0714528           3.841
LJ          -2.51203       -0.701729      -0.0922556
LJ         -0.646059        -2.25435         0.52009
LJ          -1.32134          1.0121        0.100053
LJ          -3.57703        -1.30303         0.76437
LJ        0.00642809         4.95095        0.812511
LJ          -4.75931         4.02021         4.86791
LJ            4.3493         2.30968        -4.53069
LJ           2.23975         5.42593         2.38494
LJ           1.44685        -5.14993        -5.18849
LJ           -6.1106          6.4186       -0.274742
LJ            1.2961         5.41661         5.65177
LJ          -4.65502         6.19817        -4.75835
LJ         -0.929345        -6.45523       -0.841628
LJ          0.705527        0.747362         2.08026
LJ           2.15585        -5.16533         0.65642
LJ          0.631277        -4.68478        -2.01997
LJ           -5.3702        -4.65881        -3.10862
LJ          -3.61327         4.36167        -1.60723
LJ          0.607622        0.665984        -2.73087
LJ          0.498985         -1.7939         2.71261
LJ          -4.28044        0.933992        0.040897
LJ          -2.99217         1.84224        -5.72818
LJ           1.78235         3.94092         5.86456
LJ           4.07667        -1.22664         -2.2145
LJ          -6.17261        -5.50992        -4.90416
LJ           3.69604        0.940252         5.03948
LJ           1.39839        -2.29833         1.81191
LJ            5.2878        -6.32224        -1.99194
LJ          -4.84226         1.11548        -4.11696
LJ           5.06509           2.704        -3.52969
LJ            3.2035       -0.110471         1.03778
LJ          -5.66453        -2.56809        -6.03343
LJ          -4.33408         4.34165        -3.38212
LJ          -2.75447        -5.60661        -1.76735
LJ           -3.9408        -1.99058         3.43892
LJ          -1.98405         3.73323         -4.0285
LJ           5.91775         3.52076         5.60302
LJ          -4.22877        -1.07245         6.28869
LJ           5.47437         1.76585         4.31435
LJ          -2.58624         4.34401         1.82103
LJ         -0.215731         -5.5272        -1.31902
LJ          0.979999        -2.29588         0.84508
LJ            4.2114         5.37472         -3.2561
