108
#Comment!
LJ          -1.85387         4.32879         2.68115
LJ           4.78953         2.75808        -2.08041
LJ           3.63791         2.34218         3.63395
LJ           -1.8228        -2.61925         1.28368
LJ             1.339        -2.27321        -6.01314
LJ           6.06652        -2.35158        -0.51699
LJ          -1.49527       -0.746746        -4.23191
LJ          -1.65857         3.50295       -0.467772
LJ           -6.4466          5.4515       -0.455973
LJ          -1.60539         2.37252       -0.386726
LJ          -2.67683        -4.11706        -5.83087
LJ          -2.65549         4.76304         3.72235
LJ           1.01202         4.69433         -5.5881
LJ         0.0307486        -3.44761        -5.47273
LJ           4.51812        -5.87894       -0.738277
LJ         -0.968343        -5.55009         5.33291
LJ          -1.49996        -5.31334        -1.88226
LJ           3.83523       0.0611501         5.98813
LJ          -2.28827        -4.17829        -2.24928
LJ           -5.2514        -3.12299        -5.61208
LJ          -5.23085         -2.9306         2.31633
LJ          -5.94979         2.48333        -1.40809
LJ           2.26235        -3.15953        -3.85655
LJ          0.803558         4.42199        -2.81688
LJ          -3.06563         3.10884        -5.79129
LJ         -0.912349        -1.21883         3.87315
LJ           -5.5393         5.91332         2.79593
LJ           4.50634         2.72767        -4.18768
LJ           1.39521         4.71107         4.28132
LJ          0.455426        -1.73492         2.49142
LJ          -4.30437         -1.5105      -0.0276861
LJ          -1.43295       -0.977519          2.4572
LJ          0.688988        -1.42889        -5.89562
LJ           2.33324        -1.06197          1.9847
LJ           1.31691        -3.19874        -1.73593
LJ          -5.77427        -3.53164        -4.67411
LJ           -1.6336         1.11567         1.27837
LJ          -2.68274          5.0008         5.38952
LJ          -1.76159          4.0223         1.65316
LJ          -1.48716         5.80793        -3.75967
LJ           4.83955        -6.20436         3.64561
LJ           1.74701         -4.7717        -3.10073
LJ           4.72796          2.1254         4.08458
LJ          -2.03154         1.40227        -2.54024
LJ          0.787884         1.91533         2.87787
LJ           4.25871       -0.995761         3.00108
LJ           1.44834        -2.08459         2.17316
LJ           5.78273        -6.07939       0.0659481
LJ           3.91458         3.94556         4.46084
LJ           4.08831         5.18767         3.82184
LJ         -0.909773        -6.04319         -3.2969
LJ          -1.23109         4.01116        0.510594
LJ          -5.29612         -3.6011        -2.70463
LJ           1.38274        -3.66823         4.94341
LJ          0.570995        -4.42897        -5.25578
LJ          0.491789         4.09143         2.36467
LJ           1.38869         3.16045        -2.31748
LJ          -4.14321        -4.90831         4.95947
LJ           1.65853         3.27117         3.79856
LJ           2.53498         5.81162       -0.551545
LJ          -2.72355         3.86115         3.15708
LJ           4.14988         1.96834         1.25538
LJ         -0.958063        -3.26475         3.20303
LJ          -4.87214         -5.5105       0.0212698
LJ           3.17519        -5.53058         4.98097
LJ           3.43411         4.42228        -5.33606
LJ         -0.521806        -1.13789        -6.02593
LJ          -3.22688        -2.43026         5.32423
LJ           4.84012         3.46234       -0.694118
LJ          -1.23084         5.66125        -4.98461
LJ          -4.63267         2.16047         3.92971
LJ          -5.90833        -2.11379         2.84881
LJ          -4.13658       -0.654428         6.31713
LJ           2.64774        -5.29643        -3.90406
LJ           -1.3112         1.25341        -3.62902
LJ          -3.16162         2.11266       -0.732306
LJ          -6.16968         6.10635        -2.85554
LJ          -4.56418         2.13966         4.94954
LJ          -2.51676         1.90615        -4.62208
LJ         -0.974037        -2.27059        -1.50881
LJ          -5.69097        -5.35587        -0.75576
LJ         -0.974023         2.82438         3.32023
LJ          -2.20604        0.528061       -0.935179
LJ          -1.45947         2.02322        -6.28739
LJ         -0.666833         2.25051        -2.15994
LJ           5.14055        -2.37772          5.9332
LJ          -6.25598         -5.3223         1.97611
LJ           3.98034          3.9895         6.09987
LJ           5.25819         6.45156        -2.60133
LJ           3.23104         1.24424         2.86353
LJ          -2.00445        -5.48278         5.01413
LJ          -3.35549        -4.15871        -0.52215
LJ          0.505916         3.36631         3.42688
LJ           -2.8316         1.95311        -5.82145
LJ           3.31482          2.8282         2.73544
LJ           5.63148         3.26654         6.30141
LJ           2.24697         6.10766        -4.32999
LJ         -0.768139        -3.35088        0.991746
LJ           5.78012         -2.8658        -6.26195
LJ           6.02378         6.46313        -5.52755
LJ          -2.49512          2.5004         2.36426
LJ           2.94135        0.615606       -0.534061
LJ           5.92107        -5.03177       -0.940544
LJ           2.33718        0.562916          4.8144
LJ          -3.67862       -0.697073        -2.67341
LJ          -2.05959        -6.17583        -4.25213
LJ          -4.21301         1.22711       -0.637278
LJ          0.613141         3.78965        -6.18262
