108
#Comment!
LJ          0.894638         2.02939         1.70529
LJ           5.03985        0.752415         5.04097
LJ           5.06235         2.06156         1.50523
LJ           1.93261         4.77725          2.9679
LJ           3.56989         1.48714         2.34627
LJ            1.1483        -2.31546         1.37922
LJ           -5.4548         2.60888        -3.08774
LJ          -3.87517         1.89753        -1.05414
LJ           4.68098         4.75076         1.73672
LJ          -3.33124         4.31566        -3.57418
LJ          -3.54663        -2.52759        -5.56098
LJ          -1.65991         3.19614        -3.67571
LJ            3.0544         2.42796           1.875
LJ          -2.49887        -5.52215        -1.47142
LJ         -0.711804         6.11912        -4.45456
LJ          -3.27957        -2.59294         6.17228
LJ           3.37087         1.20418        -1.17204
LJ           5.39469       -0.278463         1.94802
LJ           5.81209        0.706863         -5.5849
LJ          -3.96943        0.824214         4.56158
LJ           5.12239        -6.42086        -4.09492
LJ           2.90453       -0.570439        -1.18066
LJ          -6.13383        -2.13838         4.80656
LJ          -2.86547         3.02806        -3.12882
LJ           4.62411         1.18397        -2.67257
LJ           2.08314       -0.264022        -6.44336
LJ          -6.04533        0.665401        -0.61177
LJ          -4.18339        0.676207        -3.82948
LJ        -0.0592559        0.732171        -5.05845
LJ           1.06939       -0.596354         4.23918
LJ          -4.44546         2.72896         3.21968
LJ           -2.2678         2.82341        -1.50489
LJ          -5.80371        -2.42396         6.35357
LJ           2.59317        -3.65502         -2.5536
LJ           1.56633        -3.24697        -5.70255
LJ          -4.96982         0.87482         5.19533
LJ           1.21541        -4.53684         -2.3714
LJ          -1.54776        -6.05208        -3.67064
LJ         -0.832757         3.46876         3.16806
LJ          -4.69784        -4.39646        -2.01477
LJ           4.19213        -5.56949        -6.00206
LJ         -0.253929        -5.58853        -2.40911
LJ          -1.39421         3.88146        -5.07834
LJ          -4.74489         3.13034        -4.38509
LJ          -4.24227        -2.11921         6.44271
LJ            1.5101        -2.29687          4.9641
LJ          -6.27102         -5.9417      -0.0889799
LJ           4.33206        -5.11303         1.73249
LJ          -4.90807        0.937292         3.85939
LJ           5.47535        -4.36706       -0.200409
LJ          -2.13765        -3.54607        -5.40869
LJ          -4.48111         1.93141        -3.23275
LJ          -2.93056        -5.43506        -2.79112
LJ           3.21265        -4.36175       -0.895553
LJ          0.708034        -4.60592         3.38803
LJ          -6.39376        -5.64472        -4.88482
LJ           3.52465         6.40824        -2.81607
LJ          -3.65098        -3.52676        -5.29395
LJ           3.31304         4.10874         2.89653
LJ          -1.54769         1.65501        -3.40687
LJ           -3.5675         3.66973         5.69175
LJ           2.96803        -2.05877         3.48941
LJ           4.05716         2.14528         3.04918
LJ          -5.18854         4.20225        -1.08209
LJ           4.03958         2.41774          1.4947
LJ           2.32205         4.91546         3.87245
LJ           1.91746         1.99758        -1.04955
LJ          -4.83363        -4.90953        -5.38791
LJ           4.70346     -0.00522364         4.31993
LJ           -3.1034         6.12037        -3.83569
LJ          -3.61681         2.64856           1.927
LJ           3.82303       -0.774498         5.60258
LJ          -3.84733        -1.30163         4.56624
LJ           5.63489         5.64442         6.45084
LJ          -1.69874         1.97919        -2.43361
LJ          -5.56759           1.527         3.07725
LJ           4.54662         4.57615        -1.61979
LJ         -0.207391         3.84567        -5.86955
LJ          -2.25277         1.08648       -0.781683
LJ          -3.19431         -4.8152        -1.84738
LJ          -4.60041         4.19546         1.31963
LJ          -3.31291          6.3308         4.89662
LJ          -3.95954        -4.01565         -1.0912
LJ           1.96129        -6.29013        -3.22693
LJ          -6.31914         1.85366       0.0366124
LJ           4.47372        -4.01288        -5.99342
LJ           3.00566           6.284         3.81341
LJ           5.76181       -0.191479         2.90829
LJ           6.07701         3.96483        -2.10961
LJ         -0.187702        -1.00214        -6.03364
LJ          -1.56508      -0.0145889         3.06053
LJ           -1.2173        -2.72552        0.105279
LJ            2.8488         4.71988         1.99368
LJ          -2.21005          2.2093       -0.360246
LJ           2.42203         5.69119         4.76166
LJ          -4.83798         6.10989         1.53146
LJ           2.96233         3.15862         3.13075
LJ          -4.94226        -0.92333         -0.3377
LJ           3.00801         -2.2314        -4.39289
LJ          -5.30475        -5.28817         4.11801
LJ          -2.91299         5.75867        -5.28792
LJ            2.2897        -4.09375         3.68862
LJ           5.74444        -3.09465          1.7855
LJ           1.07303        0.133563         2.93452
LJ          -4.36106         2.69487         1.21394
LJ          -5.69868        -5.77035        -2.55763
LJ          -3.82086        -1.69859        -3.54246
LJ         -0.825679          2.9876        -5.52561
