108
#Comment!
LJ           5.09234        -3.85798         5.30408
LJ          -5.77372          6.3983         -4.3781
LJ          -1.45785        0.790473          1.8226
LJ           2.73132        -1.18104         3.56258
LJ           3.33271        -2.26857         1.13077
LJ          -1.46166        0.180807         3.02924
LJ          -4.30072        -5.25865        -3.86418
LJ           5.28774         5.31183         6.42341
LJ          -2.42546         3.23429         3.81172
LJ           1.43487        -6.18208          -5.838
LJ          -5.47084         1.93878        -5.31983
LJ          -1.81715         -3.2327        -5.29255
LJ           2.35817         4.88495        -4.28378
LJ          -1.89515        -3.33524         1.19036
LJ          0.741746        0.827735         1.44742
LJ           6.33085         3.51677         3.93656
LJ           0.56813          2.8794        -1.80302
LJ          -2.59677        -3.06549        -6.36605
LJ          -1.34378         1.55005         3.39955
LJ           3.00324         2.12147         2.20082
LJ           2.38336         4.45508      -0.0675624
LJ          0.484413         1.93577         -5.7486
LJ           6.33574        -4.53294        -6.34296
LJ           1.61389        -3.25692         2.03456
LJ          -2.21228         5.79848         5.06697
LJ           2.10183         3.21871         0.48488
LJ          -6.14624        -1.09584         5.43168
LJ          -1.95888         6.12132       -0.842093
LJ          -2.99122         5.49021        -1.13178
LJ        -0.0897017         -5.8496        -2.12012
LJ           1.51376         2.47318        0.691306
LJ          -5.47428         6.28806         2.61375
LJ          -2.18014        -6.08958        0.350145
LJ           -3.3871        -4.80482        -5.44017
LJ           0.58931         5.34706        -3.42478
LJ           2.61321          5.8443         2.42263
LJ            2.9511         6.35045        -5.26381
LJ         -0.569454        -2.38564         1.57172
LJ          -3.56624        -3.91952        -6.22528
LJ          -4.96855        -1.31705         4.37275
LJ          0.308808        -1.20107        -1.17008
LJ           3.18989        -3.63834        0.769137
LJ          -6.35275         4.77169        -4.72605
LJ         -0.498299         6.18882        0.949557
LJ          -1.70619         2.26328         -6.1899
LJ           1.21437       -0.122544        0.645514
LJ           3.34252         -2.9323         2.54807
LJ          -1.91102        -6.09551         4.56903
LJ            1.1665        -5.29201        -5.46803
LJ           1.77868         5.00076        -2.52795
LJ          -2.36397        -4.35336        -3.86129
LJ           4.99384        -1.80851        0.559232
LJ          -3.01723         -2.1762         2.56455
LJ          -0.77577         4.70848        0.717565
LJ            5.7835        -4.15465        -5.37332
LJ           1.12599        -3.16665         5.88154
LJ           6.46109        -2.77597        -2.60865
LJ         -0.497113        -3.42985        -4.30782
LJ          -4.85794         5.78109         -3.8167
LJ            -3.939        -1.54093        -4.69239
LJ          -4.39899       0.0614451        0.691401
LJ           1.42455        0.314356        -4.37516
LJ          -5.36903        -5.06655        -5.92724
LJ          -1.19931       -0.969138        -6.22487
LJ           6.01028        0.288941        -4.60651
LJ          -3.85769         5.20277        -2.97998
LJ         0.0999918          4.9715       -0.177409
LJ           3.56052          6.3249         -6.1241
LJ           5.77616       -0.219644        -5.58581
LJ           1.58289         1.58002        -4.84617
LJ           -0.2156        -1.07591         4.50255
LJ         -0.416629        0.400939         3.07845
LJ          -4.34383        -5.44216        -5.22427
LJ           3.22537         2.51566      -0.0570561
LJ          0.177167         0.26048        -5.79384
LJ            5.4915          4.2634         3.64609
LJ          -3.08931        -4.52418        -1.27079
LJ          -4.95118         4.94892        -5.87999
LJ            2.8995         3.10794        -3.37418
LJ          -0.24349        -3.80888        -3.23376
LJ          0.611024        -4.19948        -4.05451
LJ          -1.09196          1.7165           5.497
LJ            1.5959         -4.3744         2.23644
LJ          -4.43872        -1.60587         2.55305
LJ           4.66172         1.31224         -1.3949
LJ         -0.613707        0.737721        -6.43375
LJ           4.22718         -4.3703         6.01047
LJ           -5.7049        -5.71576        -3.41358
LJ          -6.22775         1.41724        -6.01995
LJ           3.50006        -6.16808        -2.83744
LJ          0.786408        -3.94778         1.57152
LJ           2.01466         -2.8037        0.232086
LJ           5.18565        -4.71943          5.8691
LJ           1.54932        0.949422        -5.69593
LJ          -3.46182        0.253864        -2.88499
LJ          -3.70027        -4.18362          4.5237
LJ          -3.61478         5.82147        -2.06243
LJ          -4.56383        -3.41826         3.56616
LJ          -5.21072         -3.3282        -4.83182
LJ           3.75474         1.59151         1.72698
LJ          -5.33403         -1.2198        0.805354
LJ          -2.35007        0.878462         6.12655
LJ         -0.604586       -0.844009        -1.56826
LJ          -1.59858         2.02659         2.55381
LJ           5.67453       -0.031656         5.93128
LJ           0.61526         5.25408         1.64074
LJ          -4.55476         1.82835         2.57128
LJ            4.5148        -3.80524        -5.48711
