108
#Comment!
LJ           5.26959        -3.48809         5.07355
LJ           6.26234        -5.80483        -4.81394
LJ          -1.20818      -0.0308947          1.8934
LJ            2.1976       -0.667718         3.37879
LJ           3.07648       -0.750133         2.78514
LJ          -1.78112        0.200335         2.99789
LJ          -3.65119        -5.65001        -4.14306
LJ           4.75517         5.47158        -5.04611
LJ          -2.01831         3.30801         4.27606
LJ           1.44611        -5.90206        -6.26019
LJ           -5.4937         2.36699        -5.23517
LJ          -0.74486        -3.26211        -5.56943
LJ           2.37405         4.88125        -4.85495
LJ         -0.862117        -3.45741         1.00056
LJ          -0.15446         1.18054         1.48656
LJ          -6.13055         3.65564         4.30106
LJ         -0.117533         3.29421        -2.94258
LJ          -1.96833        -3.37793        -6.12706
LJ         -0.976464        0.338761         3.87326
LJ           3.57339         2.70499          3.4191
LJ           3.02453         4.94863        0.753419
LJ         0.0391108          2.4787        -5.57925
LJ           6.26393        -4.53422        -5.42186
LJ          0.708935        -3.78264         3.01868
LJ          -1.51796         5.57941         5.22846
LJ           1.39229         3.37053        -0.35169
LJ          -5.58338        -2.45298         5.88103
LJ          -1.77008         5.61973       -0.883986
LJ           -3.9343         5.65793        -1.35608
LJ          -1.09138        -4.95121        -1.94413
LJ          0.489655         2.59325       -0.221858
LJ          -5.25637         6.08807         3.14021
LJ          -2.41167        -5.95536        0.410167
LJ          -4.04258        -4.30942        -6.03101
LJ           1.14067         4.61026        -2.76562
LJ           2.98491         5.71342         2.53139
LJ           2.81199         5.80214        -4.63003
LJ          0.325305        -3.80537         1.64872
LJ          -2.88742        -3.04228         6.09049
LJ          -5.25872        -1.66262         3.87749
LJ         0.0170209        -2.61905       -0.103964
LJ           2.26316        -4.20105         1.38386
LJ          -6.28388         3.96949        -4.86613
LJ         -0.452873          5.9533           1.724
LJ          -2.07367         2.43548        -6.37438
LJ         -0.463346        0.177166        0.770631
LJ           3.31637        -3.76394         1.45103
LJ          -2.88779        -6.45091         5.10715
LJ          0.973927        -3.75816        -4.91217
LJ           2.76263         5.23422        -3.60583
LJ          -2.76565          -3.723        -4.50055
LJ           4.71227        -1.23233         1.29827
LJ          -3.30698        -1.63082         3.01065
LJ          -1.60219         4.44618        0.480758
LJ           5.08395        -5.07261        -5.49748
LJ         -0.280229        -1.85652         4.55592
LJ           5.70731        -1.37924        -2.89433
LJ         -0.894812        -3.75309        -4.16457
LJ          -4.22946         4.89105        -4.89833
LJ          -3.73181        -0.13739         -4.9076
LJ          -4.24636       -0.531086         2.31826
LJ          0.806255         1.37001        -4.94682
LJ          -4.43299        -5.74851        -6.26638
LJ          -1.56188       -0.885197        -5.69533
LJ           6.18553        -1.16392        -4.65141
LJ          -3.28604         5.43333        -4.53598
LJ           1.60138         4.34593        0.525787
LJ           2.66794         5.23049        -6.15138
LJ           5.56055       -0.948776         -6.0798
LJ           2.34784         0.82883        -5.31795
LJ        -0.0137511       -0.901666         4.90378
LJ         -0.302926         0.96312         2.50257
LJ          -4.47186        -5.36218        -4.78992
LJ           4.64323         2.38082        -1.21504
LJ           1.66754        0.381798         6.44608
LJ           5.46828         4.19739         4.13789
LJ          -3.52708        -4.91367        -1.70087
LJ          -5.16762         4.96619        -5.45647
LJ           3.49483         2.97393        -2.78718
LJ          -1.38164        -4.20267        -3.28471
LJ         0.0203373        -3.15054        -4.50067
LJ         -0.163538         1.23336         5.83005
LJ           1.26916         -4.5167         2.35769
LJ          -3.86376        -2.96916         2.67617
LJ           4.77409        0.773129        -2.09146
LJ        -0.0241712       -0.536713           5.939
LJ           3.62004        -4.34662         5.42892
LJ           6.26604         -5.9872        -3.18664
LJ           5.74111         2.26766        -5.43948
LJ           3.89871          -6.091        -3.58109
LJ           1.36614        -3.76899        0.975927
LJ           1.54945        -2.00297        0.607864
LJ           5.39874        -4.52105         5.58858
LJ           2.70922        0.200064         6.14151
LJ          -2.76854        0.165145        -3.38056
LJ          -4.06933        -2.63378         4.38714
LJ          -4.40336        -5.93677        -1.52707
LJ          -4.46863        -3.30806         3.55478
LJ          -5.01544        -4.50464         -5.0766
LJ           4.23889         1.67996          2.6199
LJ          -4.29178       -0.400793        0.711983
LJ          -1.44613          1.1383        -5.72576
LJ         -0.511942       -0.599259       -0.638862
LJ          -1.57335         2.15659         2.10173
LJ           5.86962       -0.102719         5.65053
LJ          0.496531         5.61323         1.31789
LJ          -4.53637          2.5217         2.05359
LJ           5.19099        -3.60875        -4.86433
