108
#Comment!
LJ          -5.15221        -3.61921         3.73115
LJ          -2.41877         5.78295        -4.63027
LJ          -1.14801         5.75163        0.716172
LJ           5.66314        -4.95777         4.82592
LJ           5.59959        -1.01807        -4.30503
LJ          -2.82186         1.94441         4.67498
LJ           5.54985        -2.04564        -4.63776
LJ          -5.11028         4.25169        -1.00744
LJ          -6.06144          3.4281          2.5798
LJ           5.63683       0.0945207        -4.88092
LJ          -6.07776        -1.28715         4.38358
LJ           -1.3137        -5.09216         5.98671
LJ           1.35856         3.33827        -5.77171
LJ           3.75142        -2.94343         1.01646
LJ          -6.21672        -1.90396        0.615958
LJ           4.17092         3.33811         2.03962
LJ           5.35206       -0.411239         3.27051
LJ          -5.00369        -5.52076          6.1155
LJ          -2.95433         2.02143          2.9297
LJ          -5.05655          1.0791         1.56604
LJ           3.89799          3.0653       -0.855516
LJ         -0.718618         3.97102         4.94489
LJ           5.90215       -0.141903         4.11229
LJ           5.11231        -4.68395        -1.46067
LJ         -0.776413         3.78408         6.16279
LJ           3.19325        -4.07483         -6.4217
LJ           5.15271         2.24353        -5.49388
LJ          -2.73609         4.75157         -1.6525
LJ          -2.92418          2.2965       -0.605438
LJ           5.27033         2.82595        -2.34656
LJ          -3.10922        -3.64533         2.63312
LJ          -6.38795        -5.57361        0.183618
LJ          -2.36383        -2.29009         6.01697
LJ          0.669207         -3.9947         -3.3727
LJ          -3.76303        -6.07663        -6.42945
LJ         -0.052979        -5.88247         1.67677
LJ          0.848037        -4.82952         6.31141
LJ          -2.91759         2.72119        0.786792
LJ         -0.715963        -3.34508         6.30342
LJ            3.2205          1.0441        -2.27068
LJ             1.346         4.85048         6.40061
LJ           5.51829        -3.48915        0.283925
LJ           6.38397        -3.11296        -4.18069
LJ           1.69493         -3.7751         -0.7709
LJ          -5.48879         4.47622         5.35194
LJ          -5.38489         0.38258        0.897234
LJ           1.55859        -5.56969         4.06505
LJ           2.12008        -5.29394         2.27782
LJ           2.19952         -5.7003         6.36458
LJ          -3.45185         6.33223         2.00229
LJ           -4.7411         6.12388        -3.70961
LJ           4.60492        -5.89317        -1.13556
LJ          -1.83201        -4.27542       -0.302325
LJ           1.24022         5.19324       -0.551784
LJ          -4.59342        -3.49475          5.2711
LJ           2.75758         5.60079        0.748419
LJ          -2.86676         5.08784        -2.86609
LJ            5.6003         6.09673       -0.972555
LJ          -4.07438        -4.33404         4.33236
LJ          -5.74084        -5.29433       -0.582835
LJ           4.33234         4.17031        -1.35334
LJ           2.88987     0.000603408        -4.68194
LJ          -5.43611        -3.31743        -4.95333
LJ         -0.272363       -0.694735         5.82063
LJ          -6.36238         5.81826        -1.05304
LJ           3.26404         3.62804        -2.49198
LJ         -0.236182         5.38012        -0.32596
LJ           -5.4401        -4.98019        -2.84921
LJ           4.96954         1.76479         5.77017
LJ           -3.9378         3.54941        -1.47085
LJ          -1.09044         -0.8396          1.1188
LJ           2.30426       -0.779246         3.29627
LJ           3.27163          -5.147        -3.88106
LJ         -0.499257        -2.25509       -0.543418
LJ          -4.90021          2.9806        -3.72727
LJ           5.17345         4.41909         1.48635
LJ          -2.09808        -3.38937         1.47301
LJ          -4.21408         5.37883        -6.29386
LJ          0.713226         5.52132        -4.78129
LJ           4.07305        -1.09239        -2.91491
LJ          0.776391        -4.94691        -2.49638
LJ          -3.94035         1.25232         5.15413
LJ          -6.34275        -1.97826        -1.51892
LJ          -3.73054         1.77577        -2.84817
LJ           3.18913         3.09359         3.14381
LJ           1.80485        0.256046        -2.13713
LJ           5.01637         5.11531        -3.74277
LJ          -3.15191         5.01083        -5.56612
LJ         -0.455374         2.39734         4.90981
LJ           0.28204         5.79076        0.853625
LJ          0.194138        -4.65712         5.48602
LJ           5.93994        -4.63532       -0.408305
LJ           4.05949         -5.3635         2.91577
LJ          0.910191       -0.556939        0.226352
LJ          -4.27719        -1.57532         6.40308
LJ            5.9022        -5.88764         1.10106
LJ            2.0742         5.78191        -4.10606
LJ          -2.87335        -4.26587         3.85614
LJ           3.35739         1.65241        -3.58879
LJ          0.486229         1.86571        0.635316
LJ           3.53807        -5.24277        0.452015
LJ           -1.7308         1.58592         4.51596
LJ          -4.69626        -3.26463        -5.86895
LJ          -4.39318         4.61217         1.48762
LJ           6.43914         1.00293        -6.12751
LJ         -0.327888         3.31288       -0.240107
LJ          -4.33788        -1.30346         5.24574
LJ           1.92196        -5.71486        -3.42941
