108
#Comment!
LJ        -0.0267721         3.33485         1.55828
LJ           4.95834         1.93212        -5.88794
LJ           4.55889        0.915164          2.9097
LJ             0.389         1.81107         2.22793
LJ           1.93208       -0.407046         3.06288
LJ           3.10014        -2.22257        0.472858
LJ          -2.98738         2.48316        -3.41344
LJ          -2.60835           3.051        -1.72702
LJ           4.86573         4.90827        0.901056
LJ          -2.67133         4.40799        -2.28604
LJ          -3.02675        -2.63829        -5.24564
LJ          -2.23942         4.00516        -5.24641
LJ           1.98595         3.92532         4.24593
LJ          -1.06517        -4.68011        -3.19023
LJ          -0.57182         5.76726        -2.37993
LJ          -3.10132        -4.88091         5.95011
LJ           1.81929         -1.2463        -1.43738
LJ           5.34228        0.360834         3.84652
LJ          -5.32166        -1.15485         -4.3101
LJ          -4.39154       -0.184464         6.20434
LJ           6.25044        -5.31681        -6.44578
LJ         -0.544486        0.427117         -1.2598
LJ           4.92978        -2.28794         5.87502
LJ          -1.02857         2.54482        -3.06184
LJ           6.40282         1.13156        -3.80295
LJ           1.44638       -0.842538         5.46576
LJ          -6.22126         2.62246        0.637877
LJ          -5.76238         2.16717        -4.18463
LJ           1.00714         1.73708         6.02741
LJ          0.533899        -1.06183         4.00147
LJ          -5.13306         1.24196         1.47231
LJ          -1.90477         6.13497       -0.906549
LJ           4.48698        -1.64282        -5.98622
LJ            2.4207          -4.012        -1.12034
LJ           1.51672        -3.15478        -4.26926
LJ          -5.15148        -1.04941         5.93611
LJ          0.750258         5.73246       -0.899751
LJ          -1.73693        -6.37467        -5.06852
LJ          -1.42578         3.34641          2.7373
LJ          -4.69557         -5.2324        -2.77591
LJ           4.58955        -6.24179          5.6945
LJ          0.321413        -5.20337        -2.72065
LJ          -4.10313         2.48829         6.07221
LJ          -3.63521         1.74638        -4.17095
LJ          -3.24818        -1.32492         5.41924
LJ           2.89135        -2.07998         4.24958
LJ           3.99472        -5.85628         1.51142
LJ           4.82076        -5.00903        0.850497
LJ          -6.36189          2.5608         4.60763
LJ           5.19779         6.37617         2.32341
LJ          -1.72675        -5.22294        -5.69935
LJ          -3.37609         2.34551        -1.97601
LJ          -3.81225        -5.15441        -1.97862
LJ           3.30966        -3.94268         1.68337
LJ           0.94692        -4.45606         4.40691
LJ           4.49347        -5.21885         4.72918
LJ           2.40856         6.38639        -2.30596
LJ          -3.53144        -3.97149        -6.18247
LJ           2.95452         3.94647         2.52495
LJ          0.121873         3.64603        -2.55719
LJ          -2.84652         4.35128         5.20481
LJ           3.37596        -0.49695         2.64253
LJ           2.30126        0.486029         2.24104
LJ          -5.25718          6.1483       -0.342398
LJ           3.15681         3.86803         4.00748
LJ           3.67715         4.72045         4.29322
LJ          0.927093         1.49145        -3.42947
LJ          -3.91094        -3.18607         6.20477
LJ           4.57863        0.891679         -5.3553
LJ          -2.90719          5.6815        -6.00923
LJ          -3.64646          2.7014         2.80192
LJ           3.72147       -0.506464         4.64444
LJ          -4.15315        -1.02973         4.97804
LJ           4.48622        -6.37055        -5.38305
LJ          -1.24381         3.87494        -3.22613
LJ          -4.06532         1.18548         2.14938
LJ           5.33282         5.67791        -1.77825
LJ          -3.04945         3.39489          6.0578
LJ          -2.52126         1.79442        -2.18858
LJ          -1.58641        -5.62894        -1.38738
LJ          -4.72894         4.93239      -0.0211905
LJ          -2.36998         4.58391         3.91713
LJ          -2.93641        -2.51275       -0.970485
LJ          0.583102         5.01489        -4.49127
LJ          -3.48953         2.34562       -0.290424
LJ           4.77255        -3.79583         6.42894
LJ           4.58616        -6.04951          3.5893
LJ           5.97359         1.19258         4.35576
LJ           5.76586         4.36047        -2.67069
LJ           1.15371        0.825088          5.6026
LJ          -1.87853        -2.50516         4.21419
LJ          -1.95961        -3.46237      -0.0721655
LJ           1.88543         4.33222         1.76998
LJ           -3.3913         1.24285         -1.3482
LJ           2.98321         5.59337         3.99942
LJ           -5.8537         5.08638         3.30933
LJ            2.2034         4.15299         5.52894
LJ          -3.44198        -1.62746        0.294541
LJ           4.21743        -2.53914        -4.57328
LJ          -4.91577        -5.15303         5.67911
LJ          -2.98592         5.00065         6.23732
LJ           2.44104        -2.37038         2.12239
LJ             4.869        -3.91222        0.769734
LJ           2.44449       0.0666931         4.09498
LJ          -4.79735         1.55627       0.0889034
LJ          -3.68721        -5.99905        -3.61709
LJ          -3.66457       -0.846534        -2.38379
LJ          0.052157         2.34188        -4.62882
