108
#Comment!
LJ          -4.53494         2.33199          -6.305
LJ         -0.202928         3.56279        -2.22372
LJ          -4.62326         2.19363         3.04614
LJ          -1.57927         1.64993         1.00261
LJ          -5.91767         1.14174       -0.659698
LJ          -5.92538         1.40526         2.94119
LJ           1.81699         5.41621        -5.67772
LJ           5.09148         1.83886        -3.80798
LJ           4.66021        -5.05435         1.81084
LJ          -4.40698         3.73104         3.53936
LJ           5.84104         1.37694        -2.65981
LJ           2.03076       -0.363229        -4.30505
LJ          -1.99537        0.904379         6.29213
LJ           3.07272         1.57664         5.01453
LJ          0.782195         4.97342        -6.37148
LJ          -4.86768          4.8707        0.417653
LJ          -3.08945        0.827622        -2.98223
LJ          -3.26952         -6.2013        -1.59332
LJ          -2.94975         0.99076         3.13166
LJ          -3.04349         4.99068        -1.46983
LJ           0.22595         5.33145         -5.2251
LJ          -1.03844         3.62554          4.1007
LJ           3.38437        -4.13578         1.65304
LJ          -3.31122        -4.77129        -4.74027
LJ          -6.05595        -2.39561         2.21201
LJ          -1.46448         1.47162        -4.89681
LJ           3.38566        -5.87505        -3.59983
LJ          -2.43155         5.29399         4.05471
LJ           5.92933         5.88303       -0.602669
LJ          -1.82468         -1.8651        0.184999
LJ           3.55973         -3.6402        -2.36894
LJ           1.99659        0.859026       -0.416501
LJ          -4.08629        -1.18808        -3.29372
LJ           1.57634        -6.43127         -4.9792
LJ           6.30061       -0.808923        0.502043
LJ          -2.10818         4.75623       -0.351672
LJ          -2.13693         3.56796         4.72631
LJ           2.98443        -6.03447         -4.7808
LJ           2.18344         4.99228         3.15833
LJ          -1.28323         6.32928        -6.39713
LJ           3.95902       -0.100319         2.61997
LJ          0.466749        -5.91444         3.70813
LJ           4.37793       -0.394276        -2.87088
LJ           4.43465        -2.13127        -2.37714
LJ          -2.46694        -4.68941       -0.454564
LJ           5.22637       -0.511578       0.0398494
LJ            6.3917         3.12698         1.67458
LJ          -5.19719        -5.80375        -1.84334
LJ           3.44154        0.222427         1.78804
LJ           5.33693         3.35756        -2.38163
LJ           1.52295        0.684223        -4.05097
LJ          -3.72081        -2.08196         4.30471
LJ          -2.66793        0.929681        0.474963
LJ          -5.07788         3.81861        0.304264
LJ         -0.422048        -5.77404         -1.2566
LJ           4.29464       -0.881374         2.01068
LJ           1.40285      -0.0558494         1.17848
LJ           5.90034         -5.2577         3.23052
LJ          -5.90812         5.68344        0.554018
LJ           2.40484         4.69964        -6.21005
LJ           0.68303        -3.36265        -4.73175
LJ          -2.25328         -2.6069        -4.82065
LJ          -2.82356         2.79972        0.425576
LJ          -1.05659        -4.54429         -3.0685
LJ          -1.34656         4.43762         1.98783
LJ           5.40845         -2.5359        -4.07654
LJ          -5.91302         1.23783         5.23709
LJ           2.36872        -3.12069        -3.32088
LJ          -1.58305        -1.78386          3.4147
LJ          -1.04706      -0.0458777        0.837293
LJ           4.42102         6.38476         -4.6443
LJ          -5.94172         1.24111        -3.04147
LJ           1.38374         5.40638        -3.28803
LJ         -0.456211         3.21447         4.85023
LJ          -4.99422          5.5547        -1.36597
LJ           6.09116        -1.25909        -3.26625
LJ        -0.0193478        -4.41506        -2.41486
LJ           5.04258         5.99908         -3.2954
LJ          0.622751         3.87751        -5.31762
LJ          -3.63542        -2.18837       -0.298341
LJ           1.87099        -2.92521        -4.92835
LJ          -1.42369         -1.5253         -5.5629
LJ           4.84383        -2.93928        -3.34761
LJ        -0.0286974        -2.25375         3.37394
LJ          -1.18184        -5.15899        0.406314
LJ          -1.78206        -1.04545         2.28492
LJ           5.99565       0.0537907        -4.86127
LJ           1.86721        0.203424         6.31042
LJ          -5.77531        -2.67997        -4.97094
LJ           5.65657        -4.65334        0.906826
LJ         -0.843664        -1.94702         1.46943
LJ         -0.559778        0.616315          3.1837
LJ          -3.42722        -5.13624        -6.40264
LJ           1.92755         6.43585        -4.02041
LJ          -2.32188       -0.935546        0.708182
LJ          -3.11003         3.89447         -1.8066
LJ         -0.665459       -0.439713        -1.16517
LJ           2.70577         5.76055         5.98023
LJ          -3.37354        -5.21034        -1.30865
LJ           5.48886         2.87517        -3.89451
LJ         -0.348318         1.48565         4.06333
LJ          -1.95343         5.52005         3.00333
LJ        -0.0822089        -4.78566        -4.33699
LJ          0.186974         5.84416        -6.25313
LJ          -2.52933         1.21182        -5.29329
LJ           1.92127        -3.18144         3.57895
LJ           1.56478         4.09266        -5.56935
LJ          0.514109        -1.20554         6.10428
