108
#Comment!
LJ           5.27131         2.09923       -0.512432
LJ        -0.0758552        -2.66311          4.9664
LJ          -2.66201          3.1537         2.68566
LJ           4.13512        -4.43646         2.29151
LJ          -3.47185        -3.36554         0.52816
LJ          -1.15445       -0.714143        -3.15855
LJ           3.65296         -4.9152        -3.40731
LJ           5.80521        -2.44736         3.27662
LJ          -1.05195         5.43861         1.83935
LJ           5.41443         6.20414         5.86414
LJ          -5.00466         5.26006        -6.38024
LJ          -4.91659        -3.86041         5.88745
LJ          0.436972        -1.11998         2.97121
LJ          -1.14905         1.57566          -5.046
LJ          -3.68111        -2.32844        -1.71446
LJ           4.78296         3.40357        0.816985
LJ           4.61478        -5.69629        -3.68412
LJ            3.1627        -4.94119         6.19995
LJ         -0.469836        -1.38043         1.87111
LJ           4.27693        0.432254        0.800021
LJ          -2.19641         2.37847         3.09652
LJ           6.16507       -0.672789         2.38209
LJ          -4.99486        -5.00446        -6.05907
LJ           2.73718        0.141915        -1.59646
LJ          -3.83514        -4.82337         4.34633
LJ           1.24549         3.01529        -3.70534
LJ           6.13823        0.194113         1.05542
LJ          -6.18596        -5.48693        -4.20671
LJ         -0.839215        -5.68132        0.504091
LJ           3.83486        0.363306       -0.181462
LJ           6.19888        -4.56865         -2.9029
LJ           4.44292        -2.63672        -1.69205
LJ           3.40307         1.21134        -1.02962
LJ           3.72566        -4.08611        -2.49016
LJ          -5.25298       -0.875862           5.612
LJ          -1.03634         5.36638       -0.643153
LJ           5.64808        -5.74824        -4.10624
LJ          -3.98278         4.26978         5.12437
LJ           1.72312         1.45923         3.49533
LJ           -2.9195         -5.0159        -1.10445
LJ           2.39181        -3.41411         4.45228
LJ           5.27906        -3.02649         2.02438
LJ           2.08099         1.92508        0.211032
LJ           5.67054         3.41906       -0.926379
LJ           6.29768         2.13103         6.21844
LJ           4.30763         2.51137      -0.0655108
LJ          0.340963         -3.3306         5.51093
LJ          -6.16853        -4.11197        -3.92697
LJ           3.39655        -3.65999         4.04253
LJ            2.0615        -4.73535         5.44556
LJ           4.06852        -4.28065         5.94058
LJ           4.24169         2.43774         2.23835
LJ           3.34854         4.17713         1.72893
LJ          -4.01527         -5.6872         -6.0375
LJ           3.53918      -0.0288537        -2.81281
LJ           0.40325         2.12165         4.32549
LJ          0.443044        -4.21363        -4.32302
LJ           5.59069        -5.40005        -2.59331
LJ           1.55791          6.4167        -3.01692
LJ           3.70077        -3.86278        -3.55421
LJ          -4.25633         3.12109        -5.02304
LJ           3.44981         3.99254        -5.13899
LJ           4.83107        -5.60584         4.70287
LJ         -0.869649        -1.87813        -3.42147
LJ         -0.570465        -6.35904         5.73422
LJ           3.13492        -3.74302        -5.38356
LJ          -5.82828        -4.29747         5.77198
LJ            -4.126        -4.46927         5.56885
LJ           1.25309         2.52071        -2.52046
LJ          -1.48536         1.78762         3.84813
LJ         -0.927748         -3.0633         4.16283
LJ           5.14394        0.842416       -0.355249
LJ           4.37889         4.52064        0.449403
LJ           -1.4238       -0.436016        -1.02669
LJ           2.44037         6.34786       -0.513063
LJ          -1.99704         3.82215        0.265025
LJ           4.49559         6.42618        -5.83497
LJ          -3.60106         4.78618        -2.90605
LJ           5.63753        -3.56854        -3.81084
LJ          0.037156        -4.03234        -1.27391
LJ           2.98531         5.64176        -1.89285
LJ          -1.56969       -0.987655          5.5038
LJ           2.48922        0.174589           3.449
LJ           -5.8803         2.97479          4.1417
LJ          -4.41478        -6.23865        -1.79389
LJ          -5.24059        -1.57758        -5.30668
LJ        -0.0655062         1.66443         2.07707
LJ           1.54328        0.321694        -6.11743
LJ          -4.37628          1.2811        -1.72587
LJ          -4.80867        -5.25882         4.96085
LJ           3.70971       -0.342723        0.979307
LJ          0.351761        -2.19478       -0.867775
LJ           4.82589         4.52262          5.0243
LJ          0.223439         6.23969        -3.11714
LJ           3.39456         5.64991       -0.169323
LJ          -5.98833         5.14021        -1.88028
LJ           6.28056       -0.119922        -2.15259
LJ           -5.1601         6.10744         1.34987
LJ         0.0223757         3.42574        0.460524
LJ           -2.9563         3.40951         5.92638
LJ           5.25866         1.95438         1.64923
LJ          -2.89445         5.35254         3.08648
LJ           5.49857          3.1928         4.24654
LJ           5.63138       -0.701133         5.73735
LJ           2.88582        -4.54759         1.19649
LJ          -3.73356        -5.56534         5.83437
LJ          -3.23048        -1.05907        -1.83945
LJ         -0.947093        -4.37711        -3.68771
