108
#Comment!
LJ          0.156433         3.01868         1.48633
LJ           4.98717         1.65586        -6.37366
LJ           4.70589         1.09983         2.68206
LJ          0.845178         2.47889         2.57529
LJ           2.19807        0.152356         2.61597
LJ            2.5837        -2.23173        0.688965
LJ          -3.39181         2.78001        -2.94133
LJ          -2.99045         2.94456        -2.03442
LJ           4.61707         4.85168         1.13074
LJ          -2.65791         4.44857         -2.4307
LJ          -3.14005        -2.47588        -5.26731
LJ           -2.2148         3.94155        -4.75286
LJ            2.2004         3.56198         3.59515
LJ           -1.1218        -4.94827        -2.78133
LJ         -0.788328         5.07332        -2.93137
LJ          -3.71862        -4.55947         5.75167
LJ           2.28498       -0.594394        -1.37035
LJ             5.229        0.284316         3.15082
LJ          -5.79063       -0.675519        -4.64138
LJ          -4.21115        0.141864           5.818
LJ           5.93866        -5.68244        -5.82796
LJ          0.298831        0.141341        -1.23154
LJ           5.43502        -2.26971         5.47326
LJ          -1.47592         2.47245         -3.1985
LJ           5.90911         1.13215        -3.49412
LJ           1.91445       -0.707208         5.62284
LJ          -6.29112         2.08257          0.2968
LJ          -5.41257          1.7153        -4.12268
LJ          0.714556         1.53514        -6.38694
LJ          0.601653       -0.969444         4.07558
LJ          -4.97065         1.77897         1.67885
LJ          -2.14397         5.05986        -1.36446
LJ            5.1658        -1.80925        -6.03152
LJ           2.46936        -4.41451         -1.6077
LJ           1.52283         -3.1813         -4.6446
LJ          -5.02585       -0.562752         5.57248
LJ           1.14233         6.40709        -1.35518
LJ          -1.81497        -6.35106        -4.73101
LJ          -1.28176          3.3824          2.8589
LJ          -4.89931        -4.86139        -2.55883
LJ           4.45716        -6.18516         6.10305
LJ        -0.0426453        -5.24591        -2.65423
LJ          -3.42144         2.78678        -6.40852
LJ          -3.90893         2.13139        -4.28026
LJ          -3.74315        -2.20703         5.93629
LJ           2.52633        -2.19305         4.45589
LJ           4.59273         -6.1294        0.905756
LJ           4.65636        -4.96546         1.11956
LJ          -5.97679         2.16744         4.50316
LJ           5.46813        -5.92547         1.82075
LJ          -1.77712          -4.771        -5.63821
LJ          -3.83824         2.00696        -2.25895
LJ          -3.65129        -5.34844        -2.29357
LJ           3.67585        -3.91989        0.970705
LJ          0.873243        -4.50261         4.14365
LJ           5.29833        -5.14852         5.47752
LJ           2.46082        -6.01743        -2.23571
LJ            -3.529        -3.95031        -5.74971
LJ           3.10521         4.06446         2.55767
LJ          -0.37044         3.29137        -3.00248
LJ          -3.08174         4.18568         5.46596
LJ             3.099       -0.761342         3.05137
LJ           2.93706        0.947155         2.43943
LJ          -5.26521         5.69422       -0.575947
LJ           3.56507         3.33024         3.41585
LJ           3.41932         4.81473         4.24514
LJ           1.19057         1.62993         -2.8108
LJ          -4.09575        -3.09341         6.21132
LJ           4.62479        0.655041        -6.23003
LJ          -2.84976         5.92595         -5.3172
LJ          -3.57677         2.72705         2.63168
LJ           3.25761       -0.578391         5.13626
LJ          -4.24099        -1.07627         4.90384
LJ           4.77664         6.39745        -5.66714
LJ          -1.03486         4.11589        -2.85344
LJ          -4.42701         1.09088         2.46112
LJ           5.08792         5.43388        -1.70803
LJ          -2.26583         3.58244         6.25559
LJ          -2.26235          1.4244        -1.96215
LJ          -2.08776        -5.35431        -1.39198
LJ          -4.65643         4.57297        0.362956
LJ           -2.6019         5.07091         4.12726
LJ          -3.16046        -2.97515        -1.06659
LJ          0.951494         5.43312        -4.17943
LJ          -4.19515         2.31534       -0.337968
LJ           4.67306        -3.83611        -6.35031
LJ           4.19354        -6.17496         3.65894
LJ           5.94877        0.802434         4.06771
LJ           5.88135         4.21231         -2.5587
LJ           1.01534        0.305225         5.87415
LJ          -1.79647        -1.85688          3.9092
LJ          -1.74064         -3.2732     -0.00522448
LJ           2.25494         4.53905          1.6226
LJ          -3.09259         1.47904        -0.89008
LJ           2.78161         5.73493         4.22386
LJ           -5.5886         5.35729         2.85105
LJ           2.23559          3.8488         4.95137
LJ          -3.83872        -1.43597        0.139614
LJ           3.90025        -2.45788         -4.5104
LJ          -4.52932        -4.97254         5.43409
LJ           -2.9828         5.11374         6.40499
LJ            2.4013        -2.83687         2.52994
LJ           4.66564        -3.69839         1.05598
LJ           2.35591       -0.176761         3.73418
LJ           -4.7513         1.93892        0.677294
LJ          -4.05675        -5.94504        -3.26721
LJ          -3.70554        -1.06863        -2.68622
LJ         -0.229345         2.49787        -4.55032
