108
#Comment!
LJ           1.39457          2.7252         2.13228
LJ          0.912375         -4.4293         -1.7986
LJ         -0.537063          2.9993         1.52733
LJ           3.83357        -5.00963         5.96133
LJ           1.67566        -5.18326         0.67826
LJ           5.32968         3.96623         5.96313
LJ           4.14834        -1.94622        -5.26689
LJ          -1.80008        0.705323        -1.22514
LJ           -4.5835         1.97805        -5.53212
LJ          0.170521         2.11044         1.38852
LJ           1.94399        -4.37662        -3.40375
LJ          -2.27601         3.42325          2.6548
LJ          -1.99949         -6.3108         5.91674
LJ            2.3526         1.67071        -5.32417
LJ           4.71121        -2.60656         4.48715
LJ           2.70907        -0.33626         5.27106
LJ            1.5917       0.0416119        -1.24507
LJ           2.01663         1.96735      -0.0320754
LJ           2.04483       -0.906872        -2.57178
LJ           4.21879       -0.910091        -5.36559
LJ          -5.90151        -4.14837         5.79034
LJ         -0.384941        -5.48694        -3.94679
LJ          -5.88692         -4.5366        -1.28591
LJ          -5.80631        -1.90612        -2.92191
LJ         -0.306927         1.55088          2.7171
LJ          -2.72291         4.36059         5.12457
LJ             2.334       -0.497562        -1.62025
LJ          -2.01109        -5.19805         4.37379
LJ          -4.95109        -2.81465       -0.993533
LJ           4.83269         -6.3756        -1.90656
LJ           1.04553        0.126523         1.52819
LJ          -5.41429         2.05482         1.93162
LJ         0.0292508         5.47348         3.43572
LJ           -3.3286         6.35938         2.83155
LJ           5.95555         5.19253         6.37776
LJ           2.81404        -4.27647         4.43021
LJ           -1.4069      -0.0584232        -6.20437
LJ           5.52792        -5.29758         5.67717
LJ          -6.03917        -6.42855        -4.89308
LJ           1.77284         1.81102          2.5948
LJ           6.34125         5.34103        -1.80174
LJ           6.15608         -1.8262         5.82101
LJ          -5.51568         0.21494        -5.04477
LJ           1.14662         1.67344        0.689952
LJ          -4.47439         1.12427        -4.77618
LJ          0.220177         4.32334         5.70772
LJ          -6.06602          4.9233           1.105
LJ          -1.25807        -6.32996        -2.29689
LJ         -0.238558         2.28042          -3.145
LJ          -2.80361        -3.29419         1.37795
LJ         -0.466114        -4.04209         4.47607
LJ            4.0984        -5.05472        -5.69477
LJ           4.21536         2.57194         2.35713
LJ          -3.83032         0.18492        -4.09607
LJ          -2.19826        -6.36276        -3.33168
LJ          -5.51713         3.36524         1.78058
LJ           -1.4927        0.190317        0.458437
LJ           1.16066         4.79775         2.82223
LJ          -5.58473        0.683389         4.25865
LJ         -0.599956        -4.54363        -1.72415
LJ           4.79969        -4.88777         2.27732
LJ          -5.36148         2.84228        -5.29676
LJ           2.02178         4.64682        -3.82511
LJ          -2.04768        -3.56199         4.02501
LJ          -2.91888        -2.93418         4.30652
LJ          -1.59284         3.45402         1.33712
LJ           2.14355        0.348516         1.03393
LJ           3.33771       -0.355143        -2.72119
LJ          0.313669         2.63757         3.22017
LJ          -1.27286      -0.0834291         1.50152
LJ          -2.16684         1.65555         1.76647
LJ           5.55324        -4.71686        -4.61815
LJ          0.722372         5.65386         1.36893
LJ           2.47375         3.60887        -3.08448
LJ          -1.93276       -0.848917         5.70045
LJ           2.29721         2.16369        -2.55803
LJ          -3.03253        -4.68047         3.99602
LJ         -0.353759           3.032         4.40427
LJ           1.83454          4.9326         -0.8551
LJ           1.66866        -1.05999       -0.533133
LJ           6.18564        -5.24107        -3.41766
LJ           1.09697       -0.123782         -3.2643
LJ         -0.460095        -3.11724         1.59135
LJ          0.130921         4.20965         2.72692
LJ          -3.14629        -3.52163        -4.52333
LJ            1.6831         3.40173         4.03903
LJ         -0.848033         5.51217         4.15818
LJ           1.33702         3.62697        -4.18823
LJ           5.44491          2.4149        -2.78377
LJ           2.02029         5.29635         6.03817
LJ           -3.3881         1.48336         4.24775
LJ          0.183062        -2.05602        -3.68484
LJ          -3.63265        -4.62211        -3.41524
LJ           5.17187         3.54704         -6.0247
LJ           4.93549        -5.19516         4.81728
LJ          -6.37625        -4.23876         1.42195
LJ           6.23301         6.38397        -1.54974
LJ           1.05555         6.00435        -3.70835
LJ          -4.61964        -5.19725        -3.45769
LJ          -4.07557         4.99358        -6.11595
LJ           1.17049          5.9389         -2.1058
LJ           4.70128         3.54135        -4.94257
LJ          -2.93247        -2.79989        -1.93764
LJ           -5.5792       -0.110558         6.02929
LJ           1.96916        -1.00918         1.53375
LJ          -1.62459        -6.31867         4.81095
LJ          -3.55056        -3.59471       -0.159502
LJ            5.5899          2.7845        -4.39051
