108
#Comment!
LJ           1.61675         3.69716        0.754198
LJ         -0.139933        -3.30203        -1.75185
LJ          -1.36416         3.98247         2.41539
LJ           4.93174        -4.79659        -6.46238
LJ          0.555637        -5.84667       -0.755113
LJ           6.13018         2.61918         4.48949
LJ           4.48888        -2.41275        -4.69894
LJ          0.579698         1.90838        -1.42545
LJ          -3.68118          1.3225          6.1258
LJ            0.1917         2.00241         1.65049
LJ          0.470461            -4.8        -3.22621
LJ           -3.4085         2.64949         3.22563
LJ           -1.9472         5.47501         4.31742
LJ           4.21561         0.60666        -5.72617
LJ           6.19532        -3.82365         3.73209
LJ           3.87968        0.709147         6.15555
LJ          0.914862         1.09872       -0.257164
LJ           2.23777         2.45027        0.567944
LJ           2.96896        0.892743        -2.46179
LJ           5.26024         -1.6072        -5.27072
LJ          -4.66885        -5.37738         6.09001
LJ          0.345286        -3.74298        -3.58424
LJ          -4.83731        -3.45411        -1.74973
LJ          -5.66569        -1.27707        -3.42594
LJ          -1.00382         1.65355         2.97285
LJ           -5.0985         4.03224         4.76505
LJ           2.79178      -0.0349805       -0.859677
LJ          -2.30872        -4.24201         5.08072
LJ          -3.44291        -3.26203        -2.42821
LJ           5.54737         5.45811        -2.21502
LJ          0.356874       -0.800868         1.15378
LJ           -4.9029         2.26117         2.09364
LJ          0.237576         6.15003          3.7118
LJ          -4.33501        -6.36666         3.94611
LJ            5.6529         4.41704         5.29526
LJ           2.87979        -3.00615         4.64931
LJ          -1.60521       -0.106835        -5.38705
LJ          -5.43032        -4.23207         4.02952
LJ          -5.72772        -6.37564        -4.22616
LJ            1.5714         2.44826         2.40263
LJ          -6.45611         5.15388        -2.50003
LJ           4.89379        -2.78978         6.26417
LJ          -4.43199        0.174121        -5.03134
LJ           1.43749         1.81845        0.347224
LJ          -5.91657         1.73097        -3.69897
LJ          0.309327         5.58762         5.85136
LJ            5.9278         2.87228        0.522193
LJ         -0.598735        -5.90329        -3.31773
LJ           1.05694         2.68919        -3.80267
LJ          -1.91484        -3.91752         2.30709
LJ          0.327814        -5.18451         5.87864
LJ           2.53898        -4.96958        -6.20304
LJ           3.44243         4.90954         1.11958
LJ           -4.3145       -0.409378        -4.10811
LJ          -1.99769        -5.97623        -3.09771
LJ          -4.40333         3.43056         2.43776
LJ          -1.26418        0.590753      -0.0536208
LJ         -0.464244         4.56675          3.8841
LJ          -5.27396        0.514894         4.82552
LJ          -1.27393        -5.05638        -3.70843
LJ          -6.26701        -5.77256           3.306
LJ           6.33656          4.4855        -5.02676
LJ           2.35984         4.02624        -3.68015
LJ            -2.156        -2.56113         4.20944
LJ          -3.05536        -2.96157         4.69763
LJ          -1.87363         1.38055       -0.838188
LJ           1.94894       -0.487031         1.73251
LJ           5.22572       -0.120357        -1.77323
LJ          0.273263         1.32015         2.41599
LJ          -2.16552        -1.61248         1.54995
LJ          -2.17686         2.43187         2.25005
LJ           5.63562        -6.31174        -4.26057
LJ         0.0395246         4.92961         2.37603
LJ           2.41783         4.78512        -2.66101
LJ         -0.233053        -1.55895         4.33617
LJ           1.81156         3.22378        -3.27625
LJ          -3.33129        -4.37244        -6.03035
LJ         -0.654748         3.13811         2.24887
LJ           2.42402         5.11762        0.662508
LJ           1.18766        0.155384         -1.2602
LJ           5.23563        -4.46653        -2.87966
LJ         -0.196428       -0.649033        -2.72137
LJ          -1.53867        -3.96307         1.17962
LJ          0.679026         2.99082         1.98028
LJ          -3.40262        -3.62298        -4.49873
LJ          0.216956         3.81211         5.52071
LJ          -1.72559         4.48932         5.24732
LJ            1.3093          3.4613        -4.57496
LJ              5.73         1.32005        -2.99111
LJ           2.42596         4.53006        -5.99333
LJ          -4.39344          1.8032         4.45279
LJ         -0.122737        -2.25133        -2.93636
LJ          -3.95295        -1.91456        -2.89281
LJ           5.50372         2.93356        -5.69754
LJ           2.55348         6.40374         4.92714
LJ           5.73789        -3.70124         1.74547
LJ            6.1212         -5.8619          -2.328
LJ           0.17785          6.1134        -2.95054
LJ          -4.71969        -5.10923        -2.98751
LJ          -3.78704        -6.43169        -4.80224
LJ         -0.252812        -5.33899        -2.12885
LJ            4.4844         2.59638        -5.63413
LJ            -3.609        -4.91422        -2.67848
LJ          -6.29285        0.427938         5.57302
LJ           4.32526          -2.087         1.15815
LJ         -0.597126        -6.25121         3.53481
LJ           -2.5726        -3.92067       -0.934989
LJ            5.3021         4.17701        -4.75933
