108
#Comment!
LJ         -0.386501        -1.00614        -1.69948
LJ          -2.44985       -0.705693       -0.545245
LJ          -5.00842        -3.44632         4.39114
LJ          -5.54986        -6.10404        -5.10229
LJ          -4.62486        -6.18746        -3.48072
LJ          -3.51628        -2.56039         5.24347
LJ          -4.93723        -4.64052        -3.71477
LJ           3.64359          5.2126       -0.387176
LJ           2.57191        -1.20197         2.08203
LJ           2.38086         2.98045         1.82966
LJ          -1.55038        -2.44923         3.67829
LJ           3.82801        0.161314         2.92959
LJ           4.72578         5.21006          1.5234
LJ          -1.81167        -2.02106         6.37481
LJ          -5.96277         4.16254         3.80746
LJ           -5.4117        -1.78674        -6.45834
LJ         -0.757151        -5.95643       0.0605393
LJ           2.42373         1.77203         1.55285
LJ             4.019        -3.32191         3.36443
LJ           6.39473        -5.86373        -3.59425
LJ         -0.765128         1.65053          -5.772
LJ           1.88519         1.23425        0.411658
LJ          -1.26868          1.2839         -1.8489
LJ          -4.70214        0.625581        -6.34524
LJ           1.36839       -0.460281        -3.23727
LJ           5.85418        -1.14576          1.3825
LJ           2.48149        0.213652       -0.418163
LJ          -4.77257        0.101596        -1.48025
LJ          0.705235         3.53123        -1.74688
LJ           3.48523         2.01106        -5.69327
LJ           1.43167        -4.47749         1.76553
LJ          -1.84612         5.18549        -5.05001
LJ           5.66144        -5.68053        -5.47623
LJ           1.80902         -3.9649         4.06803
LJ          -2.67317          4.4584         5.30273
LJ           3.33382         3.32622         5.96019
LJ          0.611129      -0.0851408        -2.08029
LJ           5.96787        0.228326       0.0921319
LJ          -4.49713         4.25582         -4.2041
LJ           2.68671         2.80172         3.87962
LJ          -2.64921         2.76472         5.25443
LJ           1.24538         5.30101        -3.13016
LJ          -3.19666        -3.76204         5.31534
LJ           2.82468         2.08284         2.62316
LJ           2.98648        0.732925        -1.99263
LJ           3.05012         5.57104         5.03643
LJ           2.06519         -2.8179         1.42565
LJ         -0.856033          4.8571        -2.45949
LJ           1.48406         4.97919        0.872464
LJ          0.676732        -6.38873         6.14174
LJ           3.48789         2.21672        -4.35823
LJ           0.43728        -4.23821         4.34128
LJ          -4.27694         2.93008        -2.68204
LJ          -3.79631        -2.04258        -5.73143
LJ          -1.91374          1.8295        -4.81516
LJ         -0.254534         3.39791         6.05135
LJ          -1.40727         2.49244        -5.72863
LJ           6.00036         1.21585         5.25719
LJ          -4.39618         6.06633          4.6292
LJ          -5.06327        -6.15564         2.47998
LJ          0.220523       -0.223516        0.901924
LJ           3.68687       -0.318107        -3.95109
LJ           5.97787        -4.67911         5.38021
LJ          -4.64257       -0.552528         5.38825
LJ          -4.62132        0.302095         2.99156
LJ          -3.33696       -0.267663        0.321924
LJ          -1.15036        -2.37446          -1.336
LJ         -0.930911         1.02329       -0.561585
LJ          -3.90141          -1.108        0.346949
LJ          0.926431         3.70492        0.564575
LJ          -4.41188         3.91476         5.08493
LJ            4.6309         2.15154        -4.27353
LJ           2.54952          6.2976          2.3254
LJ            0.5851        -4.76297         -5.7486
LJ          -4.98925         5.40819       -0.980108
LJ           1.56316         5.52102         4.53089
LJ          -4.41701         5.78739        -5.30762
LJ          -0.77867        -5.78081        -1.24314
LJ           1.12152       -0.457385         1.25152
LJ           2.14948        -5.35502         1.15823
LJ        -0.0890448        -4.80689        -2.94621
LJ          -6.22166        -4.64735        -3.79107
LJ          -2.70649         3.72852        -1.88539
LJ          0.835916        0.510762        -3.65354
LJ          0.630733        -2.45934         3.52338
LJ          -3.59893        0.672467        0.879816
LJ          -3.41845         1.63527        -5.80378
LJ           1.65402         3.48196         6.11162
LJ           3.47098        -1.54086        -2.16409
LJ          -6.04454        -4.51403        -4.76473
LJ           2.98342         1.07777         4.86713
LJ           1.86804        -3.79575         2.43238
LJ           3.86237        -5.14973        -2.27455
LJ          -4.32143        0.696489        -3.96742
LJ            3.1505         1.95201        -2.76494
LJ           3.10838        0.440375        0.992763
LJ          -5.12076        -2.50381        -5.66185
LJ          -4.86865          4.1201         -3.0888
LJ          -2.14991        -5.89472        -1.45259
LJ          -3.98411        -1.30163         5.17413
LJ          -1.71555         2.91121        -4.67509
LJ          -6.15486          3.0345         4.81057
LJ          -5.40753       -0.362057          -6.003
LJ           5.55301         1.53313         4.35186
LJ          -2.15085         3.04232         1.98301
LJ          0.451267        -5.61932        -1.42121
LJ           2.23202        -1.60534         1.03543
LJ            4.3792         5.22245         -3.0475
