108
#Comment!
LJ          -5.26588        -3.62699         3.91641
LJ           -2.5209         5.72964        -4.63836
LJ          -1.24826         5.40652        0.848313
LJ           5.50753        -4.79651         4.73041
LJ           5.36357       -0.997579        -4.60153
LJ           -2.6694         1.97919            4.69
LJ           5.71251        -1.98085        -4.72331
LJ          -5.24235         4.31339       -0.645097
LJ          -5.82926         3.38866         2.60862
LJ           5.40431        0.100647        -4.85219
LJ          -5.99058        -1.18999         4.69093
LJ           -1.3488        -5.09976         6.04286
LJ           1.44996         3.46882        -5.38717
LJ           4.10295        -2.92081         1.10118
LJ           6.40938         -1.7364        0.686852
LJ           4.34935         3.31723          2.1426
LJ           5.11079       -0.199733         3.12603
LJ          -5.11004        -5.41335         6.23429
LJ          -3.02746         1.84907         3.05992
LJ          -5.33012          1.1439         1.62453
LJ           3.63552         3.22401       -0.806016
LJ         -0.556506         3.90623         4.98828
LJ           5.84498       -0.434556         4.14573
LJ           4.91541        -4.46852        -1.26528
LJ         -0.958597          3.6816         6.02691
LJ           3.19483        -4.37891         6.21353
LJ           5.16917         2.31252        -5.64753
LJ          -2.64506         4.95617        -1.65829
LJ          -3.00063         2.61181       -0.579864
LJ           5.03379         2.90952        -2.46076
LJ          -2.91335        -3.33029         2.55311
LJ          -6.37629        -5.67509        0.369411
LJ          -2.30412        -2.53423         5.66023
LJ          0.492863         -4.1467        -3.39277
LJ          -3.55425        -5.94983        -6.30442
LJ         0.0708356        -5.97086         1.69458
LJ          0.940802        -4.84506         6.34546
LJ          -2.81574          2.6366        0.878232
LJ         -0.952778        -3.42162        -6.45488
LJ           3.35624         0.87433        -2.49033
LJ           1.29071         4.62401        -6.36155
LJ           5.56815        -3.59536         0.22265
LJ           6.18334        -3.49338         -4.2305
LJ           1.55204        -3.58811        -0.75592
LJ          -5.27017         4.34009         5.41582
LJ          -5.68254        0.321114        0.833834
LJ           1.75046        -5.17345         4.36057
LJ           1.94324        -5.33203         2.42072
LJ           2.14317        -5.80373        -6.41328
LJ          -3.20605         6.22103          1.8145
LJ          -4.63251         6.24525        -3.70241
LJ           4.66838         -5.6423        -1.21551
LJ          -2.01794        -4.24819       -0.188246
LJ            1.0558         5.16836        -0.48525
LJ          -4.65966        -3.48262         5.17857
LJ           2.74336         5.72327        0.396032
LJ          -3.00448         5.12295         -2.6705
LJ           5.25381         6.20856        -1.17074
LJ          -4.08597        -4.52442         3.89013
LJ          -5.73436        -5.49473       -0.929114
LJ           4.66112         3.97693        -1.31805
LJ           2.84312       -0.090924        -4.66475
LJ          -5.61892        -3.27446        -4.81208
LJ         -0.238247       -0.682889         5.75708
LJ          -6.24428         6.06872        -1.25347
LJ           3.32562         3.78258        -2.37748
LJ        0.00144117         5.37425       -0.417294
LJ          -5.51329        -4.96553         -3.1368
LJ           5.13861         1.59688         5.82004
LJ          -3.72528         3.56611        -1.56047
LJ          -1.02172       -0.858815         1.32993
LJ           2.12581       -0.734695          3.4116
LJ           3.63421        -5.33082        -3.81354
LJ         -0.395394        -2.02881       -0.449956
LJ          -4.67423         2.83045         -3.8251
LJ           5.21199          4.4667         1.58251
LJ          -1.98345        -3.37585         1.31258
LJ          -4.26598         5.36855        -6.26194
LJ          0.692847         5.36829        -4.88149
LJ           4.15189        -1.33589        -2.99382
LJ          0.717347        -4.85631        -2.63912
LJ          -4.08922         1.26232         5.22408
LJ           6.22363        -1.99621        -1.33602
LJ          -3.76522         1.59561        -2.57663
LJ           3.18242         3.01764         2.90904
LJ           1.67055        0.395617        -2.06891
LJ           4.94238         5.27366        -3.97801
LJ          -3.27952         5.13778        -5.43368
LJ         -0.744467         2.49647         5.22252
LJ          0.633378         5.79854        0.572873
LJ          0.172959        -4.57364         5.24448
LJ           5.71989        -4.61119       -0.341362
LJ           4.13673         -5.3174         3.08751
LJ          0.933271       -0.858663      -0.0156457
LJ          -4.28998        -1.37609         6.44598
LJ           6.16538        -5.88454         1.32908
LJ           1.90167         5.60885        -3.96925
LJ          -3.06169        -4.15623         3.99543
LJ           3.76037         1.46169        -3.62775
LJ          0.658367         1.72859        0.311279
LJ           3.64132        -5.01993        0.578389
LJ          -1.69404         1.52677          4.2639
LJ          -4.36946        -3.11366        -5.67008
LJ           -4.1588         4.38268         1.20102
LJ          -6.39369         1.01593        -6.28257
LJ          -0.27461         3.38944      -0.0944251
LJ          -4.30493        -1.21325         5.34069
LJ           2.06021        -5.58711        -3.55742
