108
#Comment!
LJ           5.52262        -2.82145         4.80144
LJ           5.30522        -6.00762         -4.0106
LJ          -1.75028        -0.18395         1.81313
LJ          0.489167        0.935219         2.86008
LJ           3.82868         3.10843         5.55012
LJ         -0.611382        0.603722         2.31604
LJ          -1.04518         6.04717        -4.38831
LJ           4.27498         5.28146        -4.14315
LJ          -1.14165         3.44528         5.36905
LJ           2.30629        -5.63252         6.36377
LJ          -5.13641         1.72362        -5.52557
LJ          0.606118        -2.58018        -5.46144
LJ           2.25515         4.37316        -4.21468
LJ         -0.481356        -5.84678         2.99393
LJ          -2.08754        0.180997        0.614517
LJ          -5.66766         4.22248         5.01156
LJ          -1.40504         4.70996        -5.13479
LJ         -0.167115        -3.48774        -5.63689
LJ         -0.581196        -1.96095         4.20403
LJ           4.85294         3.26134         5.74712
LJ           4.04581         5.46534          1.7673
LJ          -1.73234         2.83615        -5.47613
LJ           3.10718        -4.51831        -5.92951
LJ          0.121366        -5.28694         6.03129
LJ         -0.470209         5.39015         5.51243
LJ          0.107048           2.669        -2.58424
LJ           6.17995        -3.31419         5.36796
LJ          -1.65639         4.34106       -0.584953
LJ          -6.18352        -5.58359        -1.83503
LJ          -3.49233        -2.95937       -0.837115
LJ          -1.52421         2.93379        -2.16696
LJ          -4.79044         5.62425         4.36906
LJ          -2.82413        -5.82401        0.373552
LJ          -3.65936        -5.76038        -5.61315
LJ           1.44103         2.58868        -1.39651
LJ           3.76273         5.09483         3.18472
LJ           2.47051         4.97991        -5.25783
LJ           1.98171         -5.2021         0.72946
LJ         -0.987253        -1.02176         5.08711
LJ          -5.84051          -2.256         4.44479
LJ           1.22474        -3.67377       -0.446369
LJ            1.0483        -5.07877         1.46916
LJ           6.10791         4.23442        -4.90758
LJ          0.347613         6.28038         3.36257
LJ          -2.57694         2.28596         6.35543
LJ          -2.33594        0.147941         3.10273
LJ            2.6977         6.34109        -0.63433
LJ          -5.55855         6.27961         5.67991
LJ          0.236634        -1.22132        -4.49493
LJ           3.90637         4.15464        -1.20483
LJ          -5.09356        -2.68064         5.96154
LJ           4.02404       0.0195512          2.9795
LJ          -2.86368        -2.11024         5.03024
LJ          -3.51978         3.16854        -0.62031
LJ           4.61763        -5.95467         6.14354
LJ          -4.19942       -0.620002        0.600634
LJ           4.86264       -0.236227         -5.1659
LJ          -1.29072        -4.42761        -3.41773
LJ          -2.40051         4.01972         5.68315
LJ          -3.02978         2.91688        -5.29466
LJ          -5.71052         1.75205         2.97363
LJ          0.199638          2.9113        -6.44687
LJ          -2.29747          5.7906        -5.87327
LJ          -2.33723        -0.75151        -4.64701
LJ           6.23685        -3.68755        -5.68908
LJ          -2.43747          5.1781         5.97373
LJ           4.92668         5.35089          2.8272
LJ           1.06641         3.79193         4.16649
LJ           5.48652        -3.02037        -6.10252
LJ           3.41594        -1.23721         6.00955
LJ          0.484602       -0.442554          3.7613
LJ         -0.169715         1.82247         2.88413
LJ          -4.29906         5.15382        -5.01941
LJ          -5.43065         1.95839        -3.92268
LJ           4.86853        0.453499         4.64929
LJ           6.27811         3.96373         5.15527
LJ           -4.7641         -6.1943        -2.41948
LJ          -5.53482         4.54847        -4.20999
LJ           4.90818          2.5623        -1.50252
LJ          -1.49623        -5.25437        -2.77196
LJ          -2.08814        -1.40138        -6.36333
LJ           1.76049       -0.444102         -5.8117
LJ         -0.859689        -4.11575         2.08266
LJ           -2.3236         6.26639         2.29377
LJ           4.28836         1.85299        -1.97327
LJ           1.36713        -1.37187        -5.60818
LJ           3.00792        -4.23883         4.17274
LJ           5.01361        -5.11223        -3.19295
LJ           4.66584         4.29223        -4.04664
LJ           3.48589        -5.99095        -4.50903
LJ           1.92231        -4.11394         1.41043
LJ          0.499708       -0.776801         1.33194
LJ           5.22776        -4.17994         5.29647
LJ           4.64754       -0.587558         4.63083
LJ          -1.30888        0.306867         -4.4181
LJ          -4.75338        -2.17909         4.66317
LJ          -5.31771        -4.27272       -0.673165
LJ          -3.76786        -1.46225         3.58612
LJ          -4.16222        -3.96774        -5.72592
LJ           4.46451         2.22436         5.12192
LJ          -2.99483         1.67926        0.123771
LJ           1.05805         3.00723        -4.21267
LJ         -0.754903       -0.370085         1.90305
LJ          -1.59436         2.52476          1.6096
LJ           6.27093       -0.211661         4.48627
LJ         0.0751672         6.38898        0.813519
LJ          -4.46168         4.00852        0.922061
LJ          -5.92658        -3.50147        -2.81665
