108
#Comment!
LJ           6.24537        -4.09048         4.52466
LJ          -3.64008         5.56208        -4.58734
LJ           -1.9599         2.90057         1.81744
LJ           4.23636         -3.1827         3.95116
LJ           3.23926        -1.97019        -4.82187
LJ          -1.20899         1.59812         3.91985
LJ          -5.41368        -3.18489        -5.16261
LJ          -6.26962         4.81393         2.41039
LJ          -3.89446         3.04603         2.80051
LJ            3.5964         2.94733        -5.43976
LJ          -5.62292      -0.0222319        -6.19298
LJ          -1.89723        -4.46012         -6.0723
LJ           2.06994         4.68713        -3.74945
LJ          -5.77354        -3.00777         1.29889
LJ           3.90072       -0.350618         1.11857
LJ           5.33265         3.20264         2.99737
LJ           2.75067         1.44985         1.27947
LJ          -5.45603        -4.46591        -6.11665
LJ          -2.43907         0.81127         4.42723
LJ           5.07459         1.10732         1.53224
LJ           2.75673         4.26554        -1.37141
LJ         0.0814132         2.89782          5.8895
LJ          -6.39304        -2.89231         5.51504
LJ           3.90341        -3.67012        0.417007
LJ          -2.18907         5.14967         5.24027
LJ           2.79766         6.16333         3.65964
LJ           5.49949         1.99018         5.71501
LJ          -2.24363         6.21596        -1.37002
LJ          -3.13805         4.70107        -1.16146
LJ           2.73034         4.39769        -2.39959
LJ         -0.908955       -0.785069          1.7384
LJ          -6.05255         -6.1157         1.22917
LJ          -1.93406         -4.7185         2.72844
LJ          -1.11399        -4.64249        -4.39328
LJ          -1.76191         -5.5707        -5.15176
LJ           1.30036          6.2424         1.90838
LJ           2.08955        -5.46243         6.35859
LJ            -1.988         1.56464         1.19504
LJ          -2.88799        -4.18949        -5.60092
LJ           5.18184       -0.231791        -4.94779
LJ           1.11285         2.31873        -4.02407
LJ           4.96104        -4.10108      -0.0202702
LJ            5.8736        -6.03401        -4.79521
LJ          0.605491        -4.05771       -0.174908
LJ            -3.377         3.36824         6.11096
LJ           4.87223        0.179761        0.935651
LJ           3.14013        -2.73363         6.15901
LJ          0.319635        -5.75649         3.47107
LJ           1.23616        -5.87884        -5.52614
LJ          -1.01055         5.15568        0.142081
LJ          -3.57955         -5.7098        -3.75586
LJ            5.2204        -3.68764        -1.00716
LJ          -2.89125        -3.45863         1.22106
LJ           1.20471         4.12983       -0.247436
LJ          -5.08633        -2.85571         6.03771
LJ           2.86826        -6.15253        -2.98111
LJ          -4.34783         6.30644        -1.92921
LJ           2.58202        -4.70524        -2.64647
LJ          -4.33756        -5.65268        0.572733
LJ          -4.59428        -4.16816        -2.87578
LJ          -6.10238         1.96463        -1.35525
LJ           2.68075        -0.79756        -4.40898
LJ           5.79005        -3.34825        -4.21292
LJ         0.0559474       -0.591808         5.20181
LJ           6.14525         4.71664        -3.25075
LJ           5.13466         4.47305        -1.76992
LJ          -0.63675         6.22068       -0.324486
LJ           5.96219        -4.80525        -5.18322
LJ           5.89186        0.808159        -6.27042
LJ          -1.36441         3.52332        -2.63199
LJ         -0.597156         -1.1808         2.98488
LJ           0.60741       -0.357634         4.37849
LJ            6.2665        -6.40335        -3.62465
LJ          0.913091       -0.159869        0.228851
LJ          -2.76004         1.55555        -4.59075
LJ           5.30562         4.55624         2.51355
LJ          -1.91492        -3.71645      -0.0844435
LJ          -4.59765         5.14349        -6.23794
LJ           1.25076         4.09881        -4.94133
LJ           4.03902         -3.0178        -3.45943
LJ          0.514532        -4.96379        -3.10178
LJ          -4.09418         1.61259         5.41761
LJ           3.26415        -2.40508        0.463172
LJ          -4.06748        0.193432       -0.325152
LJ           3.94918         2.57781        0.784607
LJ          0.432606        0.969733        -3.36039
LJ           4.34287        -6.15871        -5.75661
LJ          -4.38433         6.27165        -4.21533
LJ          -3.07908         1.22053         6.37677
LJ           2.25103          6.3799       -0.990666
LJ          0.294038        -4.07743         3.69209
LJ           3.97623        -4.69268       -0.188679
LJ           4.71512        -5.20614         4.53188
LJ          0.403503        -1.30858        -2.34982
LJ          -4.32218       -0.316123        -3.90683
LJ          -4.86624        -5.92569         3.27563
LJ         -0.380862         4.58823        -2.98497
LJ          -4.06183        -3.62857         4.12812
LJ           6.30684       -0.536603        -3.78999
LJ           2.28017         1.23301       -0.551092
LJ            5.1388         -3.0725         1.16657
LJ          -2.65611         1.49688         3.45207
LJ          -1.89937        -1.76398        -3.98754
LJ          -2.78343         2.96079         0.83319
LJ          -6.25319        0.721187          5.7831
LJ          0.116542         4.19183         1.13798
LJ          -4.47005     -0.00295428         3.99654
LJ           3.28068        -4.56469        -4.60786
