108
#Comment!
LJ           1.25531         2.48386         3.22804
LJ           1.87432        -5.07087        -1.30766
LJ         -0.309598         2.58208         1.02853
LJ           2.95278        -5.27581         5.41922
LJ           2.62286         -4.6651         2.08432
LJ           4.60231         4.82366        -6.42413
LJ            3.8694        -1.43336        -5.84955
LJ          -4.15617       -0.356448        -1.05069
LJ          -3.45937         1.34159         6.44413
LJ          0.394833         1.76138        0.804913
LJ           4.17175         -4.0942        -4.37388
LJ          -2.04172         3.53442         3.27251
LJ           -2.2904        -5.48632        -4.78809
LJ          0.630806         2.72931        -4.92368
LJ           3.35505        -1.49951         5.26986
LJ           1.63899        -1.30621         4.51624
LJ           1.80038       -0.941172        -1.17586
LJ           1.21722         0.71258       -0.258949
LJ           2.39114        -3.08643        -2.95108
LJ           3.21234       -0.348563        -5.45409
LJ           5.70297        -3.04692         5.41251
LJ          -1.26698         5.68214        -3.67798
LJ           5.91534         -5.0442       -0.822743
LJ          -5.90577        -2.51331         -2.4294
LJ          0.106569         1.13077         2.69721
LJ          -0.38972         4.80709         5.42718
LJ           3.03674       -0.924179        -2.13636
LJ          -2.55851         -5.7039          2.9931
LJ          -5.92759        -2.22312          0.2498
LJ           4.59783        -5.57513        -1.55513
LJ            1.4412         1.77455          1.8788
LJ          -5.94587         2.18582          1.7329
LJ          0.334553        -6.46009         3.20068
LJ          -2.33367         6.24187          1.8597
LJ           6.40852         5.38399         -5.6789
LJ           2.87855        -5.55623         4.32084
LJ          -1.64345       -0.298442         5.70801
LJ           5.23149        -6.19038        -4.61916
LJ          -5.48237        -6.21603        -5.33421
LJ           2.04075         1.01372         3.19118
LJ           6.13656          4.8142        -1.34169
LJ          -5.50704       -0.798598         5.46821
LJ          -5.58066        0.976925        -4.89268
LJ           1.81452         2.05124        0.732493
LJ          -5.05517         1.31281        -5.85912
LJ          0.576236         4.32528         6.19465
LJ          -5.13788        -6.16512         1.70409
LJ          -2.04558         6.39135        -2.00022
LJ          -1.25156         1.99592        -2.56931
LJ          -3.39718        -2.63586        0.479355
LJ          -1.64086        -2.98985         3.04962
LJ           4.92984         -4.3499        -4.86694
LJ           4.88833        0.370656         3.50595
LJ          -2.39739        -1.35048        -3.04477
LJ          -1.90871         6.37182        -3.11462
LJ           6.39472         3.07159         1.18799
LJ          -1.80669       0.0570707        0.663716
LJ           1.67205         5.03858         1.08789
LJ          -5.75441        0.820784         3.82017
LJ         -0.765733        -4.47823       -0.224343
LJ           3.19293        -3.90731         1.22015
LJ           6.38087         3.03483         -4.6345
LJ           1.83645         4.59503         -3.6854
LJ          -2.01447        -4.16523         3.84437
LJ          -2.65618        -2.96547         3.83797
LJ           0.36136         5.60904         2.45506
LJ           2.51519         1.00236        0.353031
LJ          0.854822       -0.889701        -3.28478
LJ          0.358509         3.47602         3.32217
LJ         -0.633431         1.44873         1.91626
LJ           -1.6253         0.94747         1.33614
LJ           5.19141        -3.22712        -4.60831
LJ           1.33106         6.29311        0.666132
LJ           2.01971         2.65838        -4.15689
LJ          -3.14895        0.103644        -5.71122
LJ           2.84655         1.47763        -1.69344
LJ           -2.0782        -4.75654         1.98632
LJ         -0.104647         2.07823         5.31233
LJ           1.50745         3.71672        -1.07309
LJ           2.05397        -1.52347       -0.356732
LJ          -5.88783        -5.93204        -4.17863
LJ           1.28035        0.495322         -4.0654
LJ          0.430765         -2.3193         1.96734
LJ          -1.34858         4.36139         3.15732
LJ          -3.04384        -3.56892        -4.19895
LJ           3.09355         2.15055         3.18755
LJ         -0.537178        -6.09013         3.73654
LJ           1.21133         3.85273        -3.96396
LJ           5.22575         3.44729        -2.95462
LJ           1.56751         5.98639         5.18049
LJ          -2.47965         1.17452         4.04507
LJ          0.541547        -1.80335        -4.32702
LJ          -2.68281         5.80172        -3.94157
LJ           4.55541         3.66883        -5.81771
LJ           5.67037         -3.8163         3.69259
LJ           -5.6555        -4.79974         1.15581
LJ           5.95333         6.18656       -0.786226
LJ           1.99537         5.40056        -4.42477
LJ          -4.99255         -5.3439        -3.92649
LJ          -4.35067         3.57191         5.56605
LJ           2.01069         5.80124        -2.80621
LJ           5.51652         4.41339        -4.12692
LJ          -2.38658        -1.04319        -1.21212
LJ           -5.0691       -0.645284         6.44072
LJ         -0.185623       -0.207582         1.68353
LJ          -1.41117         5.27285         4.97786
LJ             -4.79        -3.23012        0.415735
LJ           5.75981         1.89507        -3.89336
