108
#Comment!
LJ           3.15693       -0.261762         2.50237
LJ           4.18453        -2.16915         1.11835
LJ           -6.1168         3.24519        0.182294
LJ           1.60089        -2.57677         2.71547
LJ           5.29868         4.47745       -0.666593
LJ           -2.1915        -2.51159         2.84645
LJ           5.87859          2.3423        -5.14559
LJ            5.9997        -1.85404         2.23508
LJ           -5.3218         4.21892         3.17965
LJ          -4.82363         4.40014        -3.44957
LJ          -4.55048      -0.0108745         5.81338
LJ          -0.01018        -2.05087        -2.85756
LJ           3.76175        -1.62755        0.403398
LJ          -3.66694         5.10941        -3.50903
LJ          -1.82716        -3.59229         5.95752
LJ           -3.2762         1.27613        -5.85903
LJ            4.0439         2.45883        -2.23725
LJ           4.86036        -1.04267        -1.34493
LJ           2.77256         3.87305         5.10556
LJ          -5.03008         2.08161          1.1485
LJ           3.72637         3.14925        -1.33315
LJ          -5.21677       -0.489887        -2.39215
LJ          -2.97762        -3.90545         4.99589
LJ          -5.63269         5.16331        -3.88479
LJ           1.86237         2.38053        0.491361
LJ           2.89512         0.23831        -4.60025
LJ          -6.41318        0.269941        -3.19449
LJ          -2.82288      -0.0568333        -1.55507
LJ         -0.541668       -0.676588        -2.62457
LJ           2.54142        0.683454         3.33707
LJ          -3.45627         4.51539         5.89398
LJ          -1.94675       -0.759444         -4.1968
LJ          -3.41082        -3.22047         3.06338
LJ           1.08149        -1.14416         -3.3039
LJ           1.34523        -2.95797         4.53359
LJ          -4.39894         1.25233         5.45621
LJ           1.47971       0.0538238         -3.5451
LJ         -0.566831        -5.97835       -0.880686
LJ          0.424093         3.55896          3.9054
LJ          -4.92701        -4.46584       -0.574039
LJ           3.64724        -5.40035        -3.86433
LJ          0.585406        -6.11706        -1.05921
LJ           3.83425         4.54919        -2.97522
LJ           5.17809         3.49949        -3.74423
LJ          -3.19684        0.157778        -6.41272
LJ         -0.224075        -2.58664         6.11548
LJ           -3.7487        -2.79455        -2.48544
LJ           3.95647        -5.32779         2.76199
LJ          -3.12833         1.05471      -0.0329821
LJ           5.07941        -1.65823        -4.89459
LJ          -4.49613        -2.16597        -5.70352
LJ           4.96549         2.68424        -4.43235
LJ          -2.47748         6.38025        -4.71367
LJ           3.37894       -0.823949        -3.55812
LJ           2.01027        -4.58823         1.99655
LJ          -2.94981         4.16084         1.37733
LJ           2.73111         2.87171        -1.94225
LJ          -2.55364        -5.19094        -3.57161
LJ           2.87029          5.1834         3.28419
LJ          -2.70426        -1.28999        -5.70881
LJ           -4.3783         3.10737         5.92389
LJ           2.48368        -5.32021         4.37791
LJ          -5.85373         6.04714         3.56919
LJ          -4.85719         1.57479        -2.10082
LJ           4.73126         3.45124         1.40236
LJ          0.696026         4.24694         4.64298
LJ           3.76398         3.93661         1.72289
LJ         -0.642805         -4.8239        -3.07996
LJ           5.22577        -1.15481        0.286925
LJ          -3.31135        -5.11617       -0.650635
LJ          -1.79769         2.26106         2.27376
LJ           6.32479       -0.641875         5.86318
LJ          -3.06988        -1.37282         4.43476
LJ          -5.67139         3.94114         4.75574
LJ          -3.80208        0.198109       -0.903479
LJ          -5.91913         2.83286         5.78054
LJ           4.80441         4.20713        -3.13614
LJ           3.18601         4.19796        -4.31585
LJ          -3.05656         1.57608         1.76827
LJ          -3.07024        -5.76971        -2.60491
LJ          -4.79349        -6.09418         3.47696
LJ          -4.97501        -3.67584        -6.19329
LJ          -6.12428        -4.56596       0.0856803
LJ           1.32003        -5.68011         -2.3259
LJ           3.82912        -2.87426       -0.414004
LJ           4.30416        -3.35207        -5.40444
LJ           1.26262        -6.31449         1.83906
LJ           5.49572        -2.29464       -0.488409
LJ           6.11605         3.42932        -1.24922
LJ          -2.82338        -2.97528        -3.07991
LJ          -0.79015         4.34875         3.32848
LJ         0.0316247         -1.4952        0.536173
LJ           2.61779         4.01938         3.44867
LJ          -2.06068        0.975583        0.787121
LJ           1.05624         4.34514         5.96947
LJ          -4.57437         -5.1061         1.95063
LJ           4.88638           0.591         1.11773
LJ          -4.91958        -4.06557        0.722746
LJ          0.825557         -1.6838        -5.75164
LJ           5.94146        -5.98149         1.17586
LJ          -2.94939        -6.12882        -3.87847
LJ           1.51302         5.94463          6.0892
LJ          -4.92686        -1.89907         3.32087
LJ          -1.74693        0.816107         1.92126
LJ          -4.83824        0.539948        0.993252
LJ           3.63581        -5.05069        -1.07449
LJ          -4.01809        -4.45137          -3.052
LJ           -1.9424          5.9165         4.43448
