108
#Comment!
LJ           5.44111        -2.99288         4.84245
LJ           5.35271        -5.89227          -4.251
LJ          -1.62161       -0.457495         1.84654
LJ          0.802167        0.516537         3.10197
LJ           3.47769         2.39766         5.03355
LJ         -0.613392        0.501423         2.25276
LJ           -1.5321         6.29036        -4.32719
LJ            4.4467         5.44871        -3.97385
LJ          -1.29517         3.41206         5.12982
LJ           1.79222        -5.51647         6.17011
LJ          -5.27773         1.96269        -5.45045
LJ          0.365436        -2.87912        -5.60089
LJ           2.23744         4.37119        -4.36997
LJ         -0.487858        -5.52382         2.55905
LJ          -1.95712        0.612067        0.650047
LJ          -5.75629         4.11338         4.87386
LJ          -1.17366         4.27542        -4.84372
LJ         -0.559818        -3.48376        -5.74685
LJ         -0.620469         -1.4782         4.23016
LJ           4.92673         3.34891         5.26427
LJ           3.81867         5.59924         1.55736
LJ          -1.35196         2.99292        -5.34564
LJ           3.69082        -4.41403        -5.77127
LJ          0.571442        -5.16571         5.71954
LJ          -0.65822         5.43661         5.45528
LJ          0.310905         2.69418        -2.16508
LJ          -6.24632        -3.46382         5.69877
LJ          -1.65678         4.62193       -0.659001
LJ          -5.68643        -5.94588         -1.7937
LJ          -3.02809        -3.32564        -1.09018
LJ          -1.24315         2.86877        -1.77659
LJ          -4.87474         5.71842         4.09554
LJ          -2.74722        -5.84871        0.372062
LJ          -3.91904        -5.35864        -5.91597
LJ           1.53735         3.07597        -1.66582
LJ           3.52852         5.29013          3.0945
LJ           2.54673         5.23126        -5.17315
LJ           1.89142        -5.22971        0.555763
LJ          -1.28878        -1.45799         5.16853
LJ          -5.82032        -2.13603         4.31499
LJ          0.997053        -3.53176       -0.249648
LJ           1.26666        -5.00556         1.75433
LJ           6.26797         4.00171        -4.98282
LJ         0.0665837         6.33104         3.04628
LJ          -2.48364          2.2814         6.33405
LJ          -2.41348        0.335698         2.50737
LJ            2.6535        -5.94639        -0.15619
LJ          -4.88574         6.16274         5.75179
LJ          0.566695         -1.5841        -4.71753
LJ           3.84157         4.47196        -1.81728
LJ          -4.88602        -2.87189         6.25464
LJ           4.15602       -0.222268         2.64504
LJ          -2.96871        -1.97993         4.58179
LJ          -3.17484         3.38989       -0.400875
LJ           4.63005        -5.92569        -6.32786
LJ          -3.49271       -0.870964         1.39309
LJ           4.94517        -0.25645        -4.57157
LJ          -1.20423        -4.25564        -3.59323
LJ          -2.77201          4.2292         6.16065
LJ          -3.20817         2.32568        -5.17401
LJ          -5.35232         1.01129         3.08432
LJ          0.358015         2.67893        -6.24314
LJ          -2.67266          6.1058        -6.00934
LJ          -2.12217       -0.832044         -4.8873
LJ           6.27474        -3.34281        -5.32341
LJ          -2.73891         5.28416         6.23665
LJ           4.40934          4.8447          2.3656
LJ            1.3663         4.04981         4.73295
LJ           5.41875        -2.53967        -6.14116
LJ           3.19148       -0.871865         6.36001
LJ          0.424943        -0.55517         3.91307
LJ         -0.249602         1.47373         2.69191
LJ          -4.32211          5.6391        -4.92702
LJ          -5.96047         2.04164        -3.38877
LJ            4.2117        0.591412         5.09375
LJ           5.86357         3.85608         5.01685
LJ          -4.56612        -5.98835        -2.29349
LJ          -5.43951         4.66011        -4.39517
LJ           4.64003         2.70325        -1.72158
LJ          -1.48527        -5.11431        -2.76724
LJ          -1.79813        -1.50486        -5.78405
LJ           1.40695      -0.0175336        -6.10458
LJ         -0.407926        -4.06253          2.1766
LJ          -2.61679        -5.96188         2.36355
LJ           4.44528         1.36231        -2.17286
LJ          0.980835        -1.33857        -5.59913
LJ           3.11442        -4.26005         4.40717
LJ           5.07155        -5.59994        -3.23919
LJ           4.75529         3.96659        -4.30344
LJ           3.79615        -5.97883        -4.59605
LJ           1.77286        -3.78421         1.20403
LJ          0.469256       -0.871093         1.30238
LJ           5.48026        -4.05209         5.34489
LJ           4.34092       -0.638701         4.84126
LJ          -1.58393        0.174505        -4.32438
LJ          -4.69548        -1.95633          4.4772
LJ          -5.17478        -4.51696       -0.767026
LJ          -3.83824        -1.85827         3.54272
LJ          -4.36414        -4.01965         -5.4425
LJ           4.55638         2.11986         4.55564
LJ          -2.87933         1.18191        0.423203
LJ          0.556289         2.53434        -4.39775
LJ         -0.412913       -0.182261         1.58723
LJ          -1.55995         2.45668         1.65689
LJ            6.2147       -0.176764         4.70852
LJ          0.174269         6.21248        0.857326
LJ          -4.48513         3.72478         1.14717
LJ          -6.25527        -3.47378        -3.30365
