108
#Comment!
LJ         -0.271281         3.70318         1.72611
LJ           4.84925         2.08799        -5.11656
LJ           4.38014         0.60134          3.3187
LJ         -0.235422        0.977649          1.7317
LJ           1.80656       -0.982802          3.7722
LJ           3.76965        -2.23184        0.235804
LJ          -2.37901         2.03295         -3.7274
LJ          -1.99601         3.26049        -1.45843
LJ           5.19649         5.00232        0.609291
LJ          -2.61814         4.13692        -2.02663
LJ          -2.91991        -2.92032        -5.29597
LJ          -2.30656         4.11919        -5.95852
LJ           1.45216         4.46553         5.25984
LJ         -0.875551        -4.38292        -3.68484
LJ         0.0158636        -6.33862        -1.71597
LJ           -2.3434         -5.1412         6.37014
LJ           1.19993        -2.12014        -1.52258
LJ           5.23482        0.316193         4.53285
LJ          -4.69254        -1.78924        -3.87192
LJ          -4.62794       -0.773387        -6.35671
LJ          -6.26406        -4.82349          5.6227
LJ          -1.67646        0.817035        -1.30444
LJ           4.23792        -2.38732        -6.37673
LJ         -0.478752         2.88609        -2.90356
LJ          -5.76619         1.35126        -4.28156
LJ          0.799085        -0.94017         5.14152
LJ          -6.07205          3.3086         1.09828
LJ          -6.31237         2.54562        -4.20934
LJ           1.32479         2.44712         5.55387
LJ          0.573569        -1.14019         3.95214
LJ          -5.09018        0.574745         1.17652
LJ          -1.74494        -5.58237       -0.069138
LJ           3.59536        -1.49083        -5.99074
LJ            2.3579        -3.47166       -0.467107
LJ           1.50932        -3.12136        -3.76641
LJ          -5.32396        -1.58629        -6.43522
LJ          0.217499         4.84105       -0.324594
LJ          -1.72008         6.13284        -5.40664
LJ          -1.60488         3.32222         2.57778
LJ          -4.11386        -5.76893        -2.95939
LJ           4.77528        -6.18436         5.05961
LJ          0.672084        -5.12338        -2.83377
LJ          -4.82466         2.26335         5.48397
LJ          -3.29417         1.23902        -3.94488
LJ           -2.4859       -0.207804         4.83383
LJ           3.38104        -1.84973         3.96473
LJ            3.3903        -5.35922         2.31473
LJ           4.91642        -5.34563        0.603865
LJ           5.99882         2.97809         4.72187
LJ           4.69895         5.67186         3.05636
LJ          -1.68238        -5.49436        -5.94927
LJ          -3.40475         2.87252         -1.3684
LJ          -4.21404        -4.96217        -1.80778
LJ           2.78326        -4.00381           2.603
LJ           1.04726        -4.39205         4.75721
LJ           3.50514        -5.55772         3.71464
LJ            2.3237         5.69108        -2.39113
LJ          -3.28094        -4.44623         6.34162
LJ            2.5611         3.85188         2.53571
LJ          0.598295         4.11057        -2.04048
LJ          -2.62235         4.46568          4.5506
LJ           3.52217    -0.000908123         2.18478
LJ           1.51178       -0.337633         2.18591
LJ          -5.15591        -6.38969      0.00328372
LJ           2.70503         4.51102         4.47602
LJ           4.07239         4.83069         4.39646
LJ          0.562441         1.23556        -4.21892
LJ          -3.80699        -2.93725         5.93217
LJ           4.60093         1.41487        -4.31074
LJ          -2.80916         6.08284        -6.19577
LJ          -3.74863         2.61228         2.99967
LJ           4.24005       -0.355366          3.8917
LJ          -4.13898       -0.922298         5.07565
LJ           4.10966        -6.14084        -5.06849
LJ          -1.44428         3.17322        -3.60527
LJ          -3.80298         1.38237         1.60106
LJ           5.68188         5.92784        -1.91894
LJ          -4.17151         3.02806         5.88098
LJ          -2.51319         2.04696        -2.65096
LJ          -1.00505        -5.54189        -1.57952
LJ          -4.91609         5.62515       -0.574084
LJ          -2.05795         3.85446         3.67596
LJ          -2.63328        -1.88781       -0.687358
LJ         0.0797039         4.45006        -4.89486
LJ          -2.61144          2.2712       -0.406969
LJ           4.90885        -3.64517         6.20692
LJ           5.05354         -5.8826         3.52147
LJ           6.18752          1.9389         4.90843
LJ           5.59225         4.63301        -2.76876
LJ           1.45591        0.980262         4.99781
LJ          -1.99635        -3.36368         4.63077
LJ           -2.3051        -3.66002       -0.208891
LJ           1.59431          3.9762         2.12205
LJ          -3.63627         1.36922        -2.15314
LJ           3.27837         5.23681         3.74186
LJ          -6.21374          4.7251         3.91913
LJ           2.24644         4.54537         6.17016
LJ          -2.86762        -1.94343        0.379128
LJ           4.64587        -2.61643         -4.7265
LJ          -5.45304        -5.39881         6.03502
LJ          -3.04622         4.25731         5.54884
LJ           2.53451        -1.74414         1.55067
LJ           5.17974         -4.0398        0.405656
LJ           2.55716        0.197326          4.3509
LJ          -4.81095         1.09071       -0.592504
LJ          -3.29234        -5.96976        -3.93995
LJ          -3.60659        -0.54221        -1.97216
LJ          0.404025         2.23142        -4.73061
