108
#Comment!
LJ          -5.48607        -3.69784         4.25423
LJ          -2.71558         5.61133        -4.65124
LJ          -1.41743         4.72011         1.09346
LJ            5.1916        -4.47626         4.53198
LJ           4.75602        -1.37997         -4.9209
LJ          -2.30941         1.99443         4.65343
LJ           6.16836        -2.14004        -4.90936
LJ          -5.48964         4.43593       0.0783236
LJ          -5.36519         3.30937         2.66187
LJ           4.95964        0.787813        -5.03007
LJ          -5.86404          -0.954         5.26982
LJ          -1.39668        -5.07912         6.15471
LJ            1.6128         3.80052        -4.67524
LJ           4.82697        -2.89277         1.25231
LJ           5.80403        -1.40548        0.817276
LJ           4.65747         3.30588         2.36726
LJ           4.52868        0.189244         2.68458
LJ          -5.28983        -5.20489        -6.44952
LJ          -3.13883         1.50647         3.37648
LJ          -5.88923         1.24199         1.71022
LJ           3.17872         3.60745       -0.788925
LJ          -0.26515         3.68377         5.12967
LJ           5.91346        -1.02768         4.41157
LJ           4.52973        -4.10519       -0.815796
LJ          -1.33116         3.76939         5.79315
LJ           3.16932        -5.00617         5.62719
LJ           5.21129         2.40876        -5.99971
LJ          -2.41557         5.32756        -1.53305
LJ          -3.17903         3.29268       -0.520386
LJ           4.52989         3.12016        -2.63811
LJ          -2.49308        -2.72558         2.37857
LJ          -6.28277        -5.78934        0.486621
LJ          -2.17915        -3.03673         4.95483
LJ         0.0558672        -4.23619        -3.67991
LJ          -3.17111        -5.71839         -6.0544
LJ          0.334519        -6.16857         1.71101
LJ           1.12896         -4.9013         6.33928
LJ          -2.62826         2.47662        0.989503
LJ          -1.43959        -3.60087        -6.14473
LJ           3.66266         0.58626        -3.03833
LJ           1.17516         4.13961        -5.93966
LJ           5.65842        -3.69246        0.145628
LJ           5.90782        -4.18405        -4.39622
LJ           1.26344        -3.21256       -0.727373
LJ          -4.82354         4.07762         5.55556
LJ          -6.26887        0.225572        0.740461
LJ           2.12639        -4.37989         4.96898
LJ           1.58425        -5.41148         2.71193
LJ           1.98956        -5.94715        -6.13426
LJ          -2.71188         5.99087         1.43439
LJ          -4.41163        -6.43478         -3.6875
LJ           4.90296        -5.14786        -1.33122
LJ          -2.38198        -4.16842       0.0791052
LJ            1.3976         4.80417       -0.492874
LJ          -4.72153        -3.45866         5.01004
LJ           2.68827          5.9648       -0.313302
LJ          -3.35024         5.20104        -2.41612
LJ           4.57189        -6.35479        -1.56458
LJ          -4.15052        -4.83167          3.0445
LJ          -5.61247        -5.53895        -1.48061
LJ           5.23133         3.50805        -1.27713
LJ           2.76039       -0.267751        -4.62046
LJ          -6.08459        -3.21141        -4.50482
LJ         -0.171359       -0.659865         5.62934
LJ          -6.23607         6.22488        -1.71627
LJ           3.49616         4.06622         -2.0918
LJ         -0.125924         5.56197       -0.460037
LJ          -5.66215        -4.93908        -3.71677
LJ           5.52177         1.27049         5.98927
LJ          -3.26107          3.5856        -1.67588
LJ         -0.880684       -0.901533         1.74563
LJ            1.7692       -0.645461         3.64217
LJ           4.31958        -5.70779        -3.67126
LJ         -0.141697        -1.55081       -0.252698
LJ          -4.21644         2.52527        -4.01178
LJ           5.25391         4.50861         1.79994
LJ           -1.7946        -3.36744         1.00236
LJ          -4.26216         5.34525        -6.11403
LJ          0.724571         5.04048        -5.07428
LJ           4.31734        -1.81609        -3.16545
LJ          0.708678        -4.90303        -2.68838
LJ           -4.3582         1.29363          5.3511
LJ           5.50095        -2.03693       -0.956332
LJ          -3.83824         1.24952        -2.03539
LJ           3.25686         2.88917         2.39337
LJ           1.42074        0.679981         -1.9345
LJ           4.79188         5.59222        -4.44467
LJ          -3.66171         5.43585        -5.26337
LJ          -1.31217         2.46981         5.73257
LJ           1.21064         5.93859       0.0598218
LJ          0.176716        -4.43162         4.84708
LJ           5.26257        -4.79533       -0.301091
LJ           4.29333        -5.22123         3.43533
LJ          0.931266        -1.48772       -0.504962
LJ          -4.29951        -1.09984         -5.8419
LJ          -6.31974        -5.91453         1.92461
LJ           1.50912         5.27037        -3.73715
LJ          -3.46434        -3.92615         4.23794
LJ           4.51946         1.01559        -3.60606
LJ          0.997664         1.46238       -0.341143
LJ           3.86528        -4.56913        0.819776
LJ           -1.7082         1.47375         3.80729
LJ          -3.76361        -2.80413        -5.25398
LJ          -3.68828         3.91857        0.617033
LJ           -6.2642         1.05877         6.32029
LJ         -0.161101         3.55223        0.198272
LJ          -4.28598       -0.933019         4.97416
LJ             2.353         -5.3342         -3.8136
