108
#Comment!
LJ           1.59629         3.34852         1.13732
LJ          0.170592        -3.72432        -1.90562
LJ          -1.06749         3.59894         2.20073
LJ           4.64675        -4.84435         6.32029
LJ           0.88894        -5.65094       -0.322793
LJ            5.9263         3.09165         4.92193
LJ            4.3282        -2.38503        -4.81615
LJ         0.0158714         1.44029        -1.23504
LJ          -3.93843         1.45672        -6.32808
LJ          0.292334         2.26934         1.86363
LJ          0.438837        -4.76971        -2.90815
LJ          -3.09558         2.90841         3.09778
LJ          -1.97476         5.75807         4.81401
LJ           3.66834        0.923076        -5.56756
LJ           5.73737        -3.44533         3.94239
LJ             3.528         0.39038         5.85104
LJ          0.922241        0.923542       -0.722853
LJ           2.16612         2.59733         0.44835
LJ           2.61137        0.401522        -2.59773
LJ           5.00988        -1.28626        -5.33298
LJ           -5.0218        -5.01786         6.02136
LJ          0.150124        -4.20392        -3.85435
LJ           -5.0498        -3.69696        -1.61915
LJ          -5.71663        -1.46227        -3.27575
LJ         -0.893781         1.76987         2.96758
LJ          -4.40196         4.13014         4.87394
LJ           2.72387       -0.207039        -1.00728
LJ          -2.20508        -4.59034         4.87388
LJ          -3.95534        -3.37924        -1.99023
LJ           5.30234         5.78862        -2.10876
LJ          0.540636       -0.543979         1.24911
LJ          -5.07144         2.19409         2.03124
LJ          0.238581         5.84242         3.64309
LJ          -4.04198        -6.42646         3.61362
LJ           5.71511         4.58686         5.57404
LJ           2.85605        -3.37642         4.58196
LJ          -1.54512      -0.0890894        -5.62206
LJ           -6.0196        -4.55837         4.48818
LJ          -6.09297        -6.29152         -4.4263
LJ           1.32667         2.26584         2.26645
LJ          -6.43377         5.15459        -2.29535
LJ           5.27085        -2.50913         6.12527
LJ          -4.83371        0.155955         -5.1376
LJ           1.29928         1.69726          0.4563
LJ          -5.41739         1.57269        -4.03364
LJ          0.281781          5.2361         5.84378
LJ           6.19623         3.48054        0.687443
LJ         -0.925081        -6.09917        -3.05437
LJ          0.590528         2.51444        -3.58273
LJ           -2.1937        -3.73968         2.00194
LJ          0.106128          -4.842         5.47168
LJ           2.95307        -4.99813        -6.02664
LJ           3.68689          4.2209         1.49315
LJ          -4.15071       -0.163591        -4.07577
LJ          -2.05759        -6.10941        -3.16408
LJ          -4.72449         3.41721         2.25205
LJ          -1.33128        0.448616       0.0937213
LJ         0.0780487          4.5949          3.7677
LJ          -5.45659        0.541341         4.72214
LJ         -0.674504        -4.79255        -3.05841
LJ           6.10464        -5.53022         3.00087
LJ          -6.13906         4.03065        -5.11144
LJ           2.25677         4.27113        -3.77787
LJ          -2.00214        -2.82902          4.0908
LJ          -3.14581        -2.93337         4.63177
LJ          -1.82081         2.02613       -0.239207
LJ           2.02302       -0.233141         1.55805
LJ           4.69168       -0.193179        -2.05456
LJ          0.375772          1.5237         2.82258
LJ          -1.90838         -1.1783         1.55814
LJ          -2.20948         2.15753         2.06008
LJ           5.87774        -5.95887        -4.41552
LJ          0.243465         5.17519         2.03069
LJ           2.47938         4.45617        -2.72891
LJ         -0.727759        -1.34739         4.73486
LJ           1.85549          2.9363        -3.32063
LJ          -3.23076        -4.48754         6.07511
LJ         -0.556593         2.84565         2.65564
LJ           2.24562         5.07632        0.205284
LJ           1.30407       -0.237201        -1.08674
LJ           5.50606        -4.65659        -3.00768
LJ          0.256028       -0.502135        -2.85542
LJ          -1.20178        -3.71254         1.33121
LJ          0.751123         3.34861         2.06278
LJ          -3.30927        -3.59331        -4.55562
LJ          0.587035         3.85261         4.90848
LJ          -1.51081         4.80034         4.91538
LJ           1.46159         3.45792        -4.23476
LJ           5.64258         1.64203        -2.92189
LJ           2.31541         4.75735        -6.25649
LJ          -4.08603         1.71378         4.39264
LJ         -0.040209        -2.20087         -3.1676
LJ          -3.84831        -2.63381        -3.07622
LJ           5.48972         3.15839        -5.71962
LJ           3.27258        -6.15099         4.88692
LJ           5.98105        -3.85046         1.63846
LJ           6.13161        -6.04176        -2.08714
LJ          0.476132         6.06665        -3.10497
LJ          -4.71657         -5.1653        -3.13958
LJ          -3.86827         6.05094        -5.18919
LJ          0.301996        -5.71385        -2.29439
LJ           4.38717           2.803        -5.38596
LJ          -3.45243        -4.15125         -2.4053
LJ          -6.01195         0.27626         5.63737
LJ           3.64551        -1.79235         1.27182
LJ         -0.916185        -6.17057         3.90585
LJ          -2.83873        -3.83231       -0.670704
LJ           5.36834         3.76269        -4.73173
