108
#Comment!
LJ          -4.30972         3.73168        -4.44409
LJ         -0.505673         6.39003         1.72094
LJ          -3.62243         2.01649         2.99303
LJ          0.702048        -2.42924        0.921418
LJ          -4.10135        -1.84785       -0.326565
LJ          -2.79161        0.922849        -4.40773
LJ           2.94362        -5.90777        -4.63463
LJ          -5.05563         -1.5292         1.21939
LJ          -4.43899        -6.45259         1.32587
LJ           5.61912         4.14246         5.69671
LJ          -5.85726        -4.06816        0.471774
LJ           4.83139        -3.14927         -4.8336
LJ          -5.76172        -1.48052         4.65388
LJ         -0.062983        0.671723         5.06267
LJ           1.50281         0.76003        -4.53883
LJ           5.84427         3.89639         0.72771
LJ           5.54564         4.59002        -4.15988
LJ           6.04273         6.12439        0.415221
LJ          -1.42183        0.973308        0.375609
LJ          -4.74987         2.07405         -1.5923
LJ          -1.40969         3.66613         5.34763
LJ           1.54328         1.97391         2.55239
LJ           5.68374        -4.25182        -2.39185
LJ         -0.379293        -2.23029         3.06285
LJ          -5.84306        -3.83727          2.8648
LJ          -1.76676        -5.17202         -1.8444
LJ          -6.29949         4.42651       -0.408233
LJ          -3.48093         5.42298        -5.99022
LJ           1.27353         4.59067        0.607833
LJ           1.96217         -1.4123        0.213046
LJ           -6.4099        -2.16483        -2.60269
LJ           3.33558       -0.322622        -1.44411
LJ           5.57974      0.00991486        -2.55611
LJ           3.16122        -4.99674        -3.45298
LJ           6.04993       -0.501754         4.34274
LJ          -1.72032         5.55459       -0.298175
LJ          -4.73419          5.8921         5.53758
LJ           5.64007         2.45018         6.28188
LJ           2.50739         3.52109         3.42348
LJ          -1.89713        -4.29107        -3.10601
LJ           2.96793        -2.04063         2.78832
LJ           2.24815        -4.75763         1.52813
LJ           2.09166         1.14706        -6.41761
LJ           4.84454        0.545727         3.85015
LJ          -4.35251        -1.08045         4.65064
LJ           4.33536         3.77774        0.949118
LJ          -3.19631         4.69602          3.0414
LJ          -5.56049        -5.64884        -2.05359
LJ           2.90968        -2.58667         3.69861
LJ           4.64745         5.17818        -4.76757
LJ            3.7149        -3.92602         6.36349
LJ           2.77007        0.433952         2.17028
LJ          -6.02118         3.19583         2.32327
LJ           -6.0835        -4.97177         1.63791
LJ            1.5224        0.840228        -2.72189
LJ           3.69468        0.121977         3.72123
LJ           1.62727       -0.847776        -1.97316
LJ           4.56534        -4.78564        0.329124
LJ           4.15875        -5.70976       -0.783356
LJ             2.325        -5.93116        -5.72816
LJ          -3.91984      -0.0794913        -5.63313
LJ           2.03918        -6.11338          5.1438
LJ           -0.1009        -5.57074         2.05593
LJ         -0.874393        -4.52079        -2.75142
LJ          -2.32651         4.06579       -0.797484
LJ           4.00992        -3.36986        -5.75469
LJ           5.43722         1.33312        -6.39272
LJ           5.19882         -2.0693        -5.44468
LJ         -0.476529         1.27322         1.25898
LJ         -0.272267        0.517896         3.07879
LJ           1.31301        -4.30299       0.0577827
LJ           6.06574        0.126799        -1.39713
LJ           2.23912         4.72412         5.51901
LJ         -0.102289         3.79697         1.72748
LJ           4.67168         5.02888        -1.65026
LJ          -5.22844         2.36056        -0.56735
LJ          -4.44198        -5.32437        -4.30913
LJ          -3.91421         4.78966         1.54559
LJ          -2.74241       -0.155483        -3.59588
LJ           -3.4205        -1.50883        0.422764
LJ           3.95894         2.18328        -4.81324
LJ          -1.76311        -1.80942        -6.10902
LJ           2.94692         4.49389       -0.792126
LJ          -3.93357         3.08383         2.74723
LJ         -0.955595        -5.41754        0.338089
LJ          -4.78952        -3.84212         2.18969
LJ           2.59574         1.25524         4.64503
LJ           1.30187       -0.259236        -6.46157
LJ          -4.75203       -0.270316        -4.65904
LJ          -4.62746        -4.98431          3.3236
LJ            1.2961       -0.686647        0.876976
LJ         -0.940642       -0.812291        0.776173
LJ          -4.93627          5.9591        -5.76767
LJ          0.534857         6.26315        -3.39796
LJ           -6.0556         2.44553          1.0409
LJ          -5.45271         4.70041       -0.925351
LJ          -4.49041       -0.960495        -2.16949
LJ           4.11274        -6.30793         4.24744
LJ           5.45402         5.31952          1.3508
LJ          -6.03647         3.15281        -5.54533
LJ           1.72703        0.928495         2.82199
LJ          -1.43162           5.829          3.8563
LJ           4.18884       -0.690287         6.41472
LJ          -3.22364        -3.34017         5.78476
LJ        0.00543475        -1.75769        -2.00192
LJ           5.87282        -4.31018         3.46921
LJ         -0.458352         -3.5291        -3.46699
LJ          -6.12369        -3.50817        -6.14517
