108
#Comment!
LJ           1.18408         1.68535         1.81623
LJ           5.03368        0.356256         4.50181
LJ           5.59322         2.19042         1.09298
LJ           2.02775          5.7267         2.60822
LJ           4.13881         2.07169         2.10348
LJ          0.644466         -2.3472         1.62955
LJ          -5.92135         2.32635        -3.09336
LJ          -4.41935         1.19358       -0.624366
LJ           5.17297          4.7109         1.91706
LJ          -3.75783         4.25146        -3.78646
LJ          -3.56969        -2.30391        -5.53752
LJ          -1.31453         2.57934        -3.47215
LJ           2.97767         1.99294         1.44913
LJ           -3.0379        -5.81494         -1.0785
LJ         -0.836084        -6.32123        -4.91054
LJ          -3.14013        -1.79389          6.3514
LJ           3.63622         1.79993        -1.11352
LJ           5.39688       -0.408625         1.38085
LJ           5.34605         1.19618        -5.92373
LJ          -4.02756         1.04754         4.10898
LJ           4.89641          6.3069        -3.53196
LJ           3.90129       -0.742583        -1.16777
LJ          -5.63057        -2.09607         4.70164
LJ          -3.25319         3.41707        -3.02461
LJ           4.15884         1.20535        -2.36003
LJ           2.20751       -0.173833        -6.16068
LJ          -5.89641        0.285944       -0.871241
LJ           -3.7314        0.499414        -3.61985
LJ         -0.337869        0.427592        -4.60411
LJ           1.30473        -0.40545         4.18157
LJ          -4.31744         2.88206         3.66547
LJ          -2.09216         2.61429        -1.99969
LJ          -5.18112        -2.68827         6.00392
LJ           2.57185        -3.21516        -2.80299
LJ           1.59359        -3.25999        -6.07376
LJ          -4.83414         1.24484         5.32975
LJ           1.06143        -3.82819        -2.68273
LJ          -1.36061        -6.04595        -3.30095
LJ         -0.668367         3.49551         3.27262
LJ          -4.49516         -4.4158        -1.96724
LJ           4.16652         -5.2698        -5.72299
LJ         -0.308731        -5.71122        -2.32737
LJ         -0.568776         4.09087        -4.61986
LJ          -5.04554         3.35968        -4.35238
LJ          -4.36096        -2.05572         6.42242
LJ           1.16186        -2.28947         5.11027
LJ           -5.5641        -5.72216       -0.367474
LJ           4.28966        -5.14435         1.88359
LJ          -4.59824        0.706554         3.12443
LJ           5.41932        -3.93712       -0.922387
LJ          -2.46437        -3.07453         -5.3337
LJ          -4.87116         2.12688        -3.73525
LJ          -2.55652        -5.67404        -3.10929
LJ            3.0658        -4.51799        -1.56205
LJ          0.711666        -4.61835         3.12789
LJ            5.9761        -6.32828        -3.82052
LJ           4.05272         6.00839        -3.19006
LJ          -3.67169        -3.78414         -5.1567
LJ           3.36986         4.33822          2.9799
LJ          -1.92316         1.11383        -3.74159
LJ          -3.71797         3.49625         5.79584
LJ           2.92328        -2.54347         3.63623
LJ           4.35272         2.78232           3.225
LJ          -5.17251         3.65689        -1.25805
LJ            4.2169         2.14485        0.906325
LJ           2.15501         5.09903         3.97311
LJ           2.23291         2.08696       -0.426943
LJ          -4.12942        -5.02204        -4.96167
LJ           4.72274       -0.236097         3.47034
LJ          -3.15323         6.15407        -3.45015
LJ          -3.36836         2.64255         1.99003
LJ           4.19754       -0.777394          5.6723
LJ           -3.7342        -1.34741         4.50901
LJ            5.8833         5.39483         6.19871
LJ          -2.02129         1.40586        -2.15881
LJ          -5.78765         1.75917         3.46618
LJ           4.42526         4.23946        -1.61846
LJ          0.419726         3.87696        -5.46813
LJ          -2.37369         1.09486       -0.344597
LJ          -3.53488        -4.69454         -2.0671
LJ          -4.61839         4.59351         1.66882
LJ          -3.57006        -6.16025         5.17921
LJ          -4.45011        -3.99171       -0.795306
LJ           2.36565        -5.84789        -2.85237
LJ           5.84988         1.58498        0.218776
LJ            4.3933        -4.18413        -5.86615
LJ           2.65741         6.07348         3.69452
LJ           5.70131       -0.531733         2.69022
LJ           6.10446          3.9111        -1.91343
LJ         -0.789705        -1.38281         -5.6209
LJ          -1.48085        0.636549         2.76408
LJ          -1.03604        -2.53456        0.140716
LJ           2.65719         4.58758         2.19889
LJ          -1.92435         2.10231        0.134133
LJ           2.18588          5.4315         5.10267
LJ          -4.57441         6.35266         1.05536
LJ           3.24875         2.64729         2.70479
LJ          -5.34978       -0.710839       -0.514743
LJ           2.68264        -2.16374        -4.35793
LJ          -5.56974        -5.39093         3.66707
LJ          -2.88786         6.01023        -4.68629
LJ           2.19544        -4.53318         4.09907
LJ           6.10367        -2.93448         2.02677
LJ          0.578463        0.214945         2.77447
LJ          -4.52984         2.38279         1.11985
LJ          -6.25556        -5.62524        -2.29452
LJ          -3.86051        -1.92442        -3.86014
LJ          -1.05776         3.37343        -6.05053
