108
#Comment!
LJ           6.19934         3.22135        0.341761
LJ         -0.627121       0.0934049         4.93731
LJ          -2.80652         4.52857         2.33214
LJ           4.95214        -4.86818         2.80924
LJ          -3.56227        -3.81737        0.804526
LJ          -1.24054       -0.221794        -4.15625
LJ            2.9785        -4.50621        -3.04121
LJ           5.90266        -1.72559         4.53663
LJ          -0.06992         5.16562         2.00172
LJ           5.66249         5.64292          6.3679
LJ          -4.96382         5.01305        -4.26278
LJ          -4.97227        -3.95935         5.99969
LJ         -0.972586     -0.00424165          3.4535
LJ          -1.46273         1.83929        -4.16109
LJ          -6.06631        -2.17582        -1.45965
LJ           3.93529         2.92248        0.885769
LJ           4.09908        -5.49996        -3.29145
LJ            3.0284        -4.64772        -6.38521
LJ         -0.692284        -3.00332         2.01799
LJ           3.68548         1.51143        0.885188
LJ          -2.30565         1.43757         2.62343
LJ          -5.44214         -2.2364          2.9765
LJ          -4.26602        -5.01969        -5.10008
LJ           4.00497         1.57187         -2.4105
LJ          -2.18307        -5.39763         4.38395
LJ           2.31263         1.45582        -4.71636
LJ           6.23617       -0.416167       -0.644358
LJ          -5.52738        -3.72374          -3.839
LJ          -1.30751        -4.83923        0.390807
LJ           4.59042        0.437015        -1.01526
LJ          -6.40306        -5.40859         -4.1601
LJ           5.33602        -3.42807        -1.41239
LJ           4.01232         1.47354        -1.02451
LJ           3.65712        -3.09042        -2.17243
LJ          -4.77061         0.28182         4.92139
LJ         -0.705419         5.24502        -1.13331
LJ            4.4502         -6.2554        -5.21425
LJ           -3.0294         4.93956         4.63388
LJ            1.4443        0.454687         3.47761
LJ          -2.58807        -5.86861       -0.564455
LJ           2.87214          -3.802         5.10522
LJ           5.39115        -2.97286         1.59913
LJ           1.76166         1.80746       -0.931273
LJ           5.55321         4.30927        -1.57363
LJ           5.33129         3.01714         6.23644
LJ           2.49726         2.06724      -0.0766924
LJ          -0.27977        -1.94968        -6.00245
LJ            5.8641        -3.91313        -4.01141
LJ           2.73566        -3.82682         3.67425
LJ           3.54187         -4.4566          5.5114
LJ           4.27288        -4.85122        -6.36913
LJ           4.17743          2.7833         1.88566
LJ           2.53229         4.57462          1.0856
LJ          -2.97482         5.65343        -4.86086
LJ           4.21991       -0.158079        -3.19332
LJ          0.595641         3.06262         4.25208
LJ         -0.328286        -5.39353        -4.54983
LJ           5.02621        -5.80954        -1.74952
LJ           1.01793        -6.23403        -3.76963
LJ           4.55975          -3.608        -2.82011
LJ          -3.65642         3.93929        -4.37149
LJ            3.9813         3.18448        -4.27089
LJ           6.14696         -5.3596         5.32525
LJ         -0.725101        -1.91586        -3.91433
LJ          0.363117        -5.52056         3.25764
LJ           2.85876        -3.03418         -5.1326
LJ          -5.88745        -5.30489         4.61468
LJ           -2.9045        -6.05446         4.98274
LJ           1.65068         3.04119        -3.57198
LJ          -2.39213         1.94418         3.67137
LJ          -1.43462        -2.60323          5.7114
LJ           5.16293        0.367293        0.547903
LJ           5.43492         2.95224       -0.716552
LJ          -1.98101        -2.11972        -1.96276
LJ           1.79926        -5.83433        0.756566
LJ         -0.758464         4.11447        0.417864
LJ           3.45451        -6.30192        -5.90845
LJ          -3.90121         4.81534        -3.87679
LJ           4.30165        -4.59101        -3.81375
LJ           1.26592        -4.97363        -1.81825
LJ           3.28494         5.71107        -1.52352
LJ          -1.72182       -0.804019         5.21178
LJ            1.8225       -0.602905          4.7855
LJ          -5.17544         3.08755         4.34334
LJ          -5.40483        -6.28999        -2.66624
LJ          -5.98466       -0.575097         5.29421
LJ          -1.27572         1.86592         1.32584
LJ            1.5916        0.539141        -6.03198
LJ          -4.11337         1.84305       -0.901807
LJ          -4.46832        -5.21135         4.53496
LJ           3.37169       -0.955915         2.03686
LJ           1.58683        -2.72369       -0.513631
LJ           3.22728         4.56971         4.38627
LJ         -0.572711         5.98273        -2.80669
LJ           2.01566         6.20549       -0.934127
LJ           -6.1482         5.27629        -2.14611
LJ            5.7611       -0.801876        -2.09752
LJ           -3.8985        -6.28671        0.675321
LJ          -1.77096         2.86142       -0.135297
LJ          -2.02804         3.45147         5.50135
LJ           5.18507         3.23616         2.05563
LJ          -3.79299         5.05431         3.80735
LJ           4.85071         4.05667         3.79927
LJ            4.4392        -0.45667         6.39535
LJ           3.88015        -5.47214         2.35109
LJ          -2.85004          6.0057        -5.93715
LJ          -3.39812        -1.18922        -1.05464
LJ           1.01391        -4.71303        -3.27785
