108
#Comment!
LJ           3.31708       -0.395622         2.63715
LJ           4.10744        -2.50446         1.11282
LJ          -5.95208         3.24829         0.23138
LJ           1.47308        -2.25099         2.74007
LJ           5.23659         4.67163       -0.893834
LJ          -2.46936           -2.53         2.95918
LJ           5.64496         2.55518        -5.34182
LJ           5.86231        -2.07939         2.51569
LJ          -5.12128         4.19954         3.33544
LJ          -4.93066         4.63034        -3.34236
LJ            -4.483        0.200885         5.60078
LJ         0.0522518         -2.4336        -2.85292
LJ            3.7287         -1.8456        0.118987
LJ          -3.66929         4.92585        -3.91151
LJ          -1.94025        -3.34206         5.75957
LJ           -3.3135         1.44049        -5.80392
LJ           3.96007         2.52894        -2.48128
LJ           4.71871        -1.14886        -1.64429
LJ           2.52466         4.12449         4.91226
LJ          -5.11889         2.09794        0.801774
LJ           3.76139         2.57314        -1.10297
LJ           -5.0217       -0.348058        -2.62087
LJ          -2.77808        -4.15447         4.98468
LJ          -5.74638         5.16014        -4.01686
LJ           1.69093         2.52369        0.772417
LJ             2.951        0.248194        -4.42643
LJ            6.3924       0.0903653        -3.41861
LJ          -2.88579      -0.0630599        -1.36136
LJ         -0.270468       -0.815615        -2.58641
LJ           2.69648        0.737136         3.16355
LJ          -3.40867         4.68927          6.1136
LJ          -1.94221        -1.17369        -4.32632
LJ          -3.19889        -3.15865         2.86846
LJ          0.825768        -0.86024         -3.3414
LJ           1.28587        -2.90965           4.309
LJ          -4.41275         1.17224          5.5196
LJ           1.54138        0.289843        -3.52798
LJ           -0.4603        -5.97047       -0.651435
LJ          0.512775         3.44547         3.85878
LJ          -4.92934        -4.45803        -0.26203
LJ           3.60141        -5.40236        -3.69937
LJ          0.690541        -6.13419       -0.955853
LJ           3.92249         4.55356        -3.01732
LJ           4.94851         3.33102        -3.78971
LJ          -3.27212          0.4358        -6.44787
LJ         -0.303779        -2.63807          6.2169
LJ          -4.09349        -2.52681        -2.45992
LJ           3.91369        -5.34427         2.84635
LJ          -2.95866         1.14881       -0.278253
LJ            5.0346        -1.45938        -5.25651
LJ          -4.69774        -2.12094        -5.81383
LJ           4.83176         2.53553        -4.48333
LJ          -2.55718         6.31282        -4.94494
LJ           3.41621       -0.403579        -3.72549
LJ           2.23814        -4.54805         1.93213
LJ          -2.54482         3.95474         1.83985
LJ           2.80753         2.71123        -1.56051
LJ          -2.41338        -5.32563        -3.23811
LJ           2.77383          5.1986         3.29822
LJ          -2.71677        -1.50889         -5.8279
LJ          -4.41657         3.14885         5.85018
LJ            2.4289        -5.57423         4.42399
LJ           -5.5556         6.33144         3.57792
LJ          -4.73815         1.53184        -2.12994
LJ           4.85087          3.6402         1.62517
LJ          0.645483         4.30354         4.89729
LJ           3.87432         4.13766         1.90165
LJ         -0.405416        -4.82929        -2.93442
LJ           5.36636        -1.35219       0.0430944
LJ          -3.39042        -4.92514       -0.465006
LJ          -1.57553         2.22613         2.30258
LJ          -6.40184       -0.627536         5.87986
LJ          -2.99394        -1.37448         4.43367
LJ          -5.53912         3.76302         4.61874
LJ          -4.00293        0.181754       -0.675217
LJ          -5.85106         2.97957         5.98052
LJ           5.05925         4.34959        -3.27264
LJ           3.38359         4.30574        -4.29518
LJ          -3.33403         1.66839         1.73907
LJ          -3.01003         -5.8022        -2.55404
LJ             -4.85        -5.90334         3.62737
LJ          -5.08941         -3.4213        -6.04898
LJ          -6.11543        -4.59633       0.0814684
LJ           1.04529        -5.62699        -2.25797
LJ            3.7889        -3.27161       -0.474329
LJ           4.29598         -3.2768         -5.3474
LJ           1.14942         -6.2288         1.66694
LJ           5.43163        -2.35478       -0.886308
LJ           6.11037         3.39904         -1.3615
LJ          -2.59714        -3.12442        -3.13345
LJ          -0.75549         4.67523         3.48169
LJ          0.128724         -1.4013        0.581665
LJ           2.64665         4.03835         3.60154
LJ          -2.29717        0.821475         0.88672
LJ          0.947719         4.26632         5.95421
LJ          -4.63711        -4.96295         2.15362
LJ            5.0165         0.39769         1.04523
LJ          -4.81628        -4.57042         0.86789
LJ          0.677285        -1.62961        -5.97592
LJ           5.82201        -6.03131        0.946244
LJ          -2.98431        -6.10248        -3.86602
LJ           1.44485         5.69134         6.25758
LJ          -4.74839        -1.80622         3.43477
LJ          -1.76572        0.830186          1.8184
LJ          -4.77462        0.418213         1.03483
LJ            3.3595        -5.00039       -0.967821
LJ          -3.97346        -4.72355        -2.85102
LJ          -2.02268          6.1417         4.21144
