108
#Comment!
LJ          -5.48978         5.73983         1.42017
LJ          -1.16651         4.85484        -4.78651
LJ          -2.48212        -5.39692         1.65776
LJ          -5.74991        -5.69085         4.48072
LJ          -3.46043        -5.09281        0.922215
LJ          -1.49407         1.18116        -6.34439
LJ            4.1167        -3.64681         -2.1022
LJ          -6.22612        0.828265        -6.22192
LJ           1.99499         4.42128         1.97647
LJ           6.12856         3.53349        -4.53519
LJ          -5.39981        -5.37991       -0.891781
LJ          -4.09566        -4.54124         5.88169
LJ         -0.748918         1.43285         3.14624
LJ         -0.698597       0.0690147        -1.76093
LJ           1.79814        -2.32774       -0.609721
LJ           2.99036         4.62125       -0.309162
LJ           3.40569        -4.66414       -0.726381
LJ           5.18201        -5.59652         5.34054
LJ          -1.52689         6.03279         1.43681
LJ           1.10588          1.5907          1.3669
LJ          -4.48302         1.89969        0.465551
LJ          -3.11253        -5.99162          4.4528
LJ          -3.56276         6.38973        -4.35694
LJ           -5.1223         3.62229        -2.01956
LJ          0.848855         5.80975         5.47954
LJ           2.99328       -0.262173        -5.18631
LJ           6.16223      -0.0620386        -2.99769
LJ          -5.55236       -0.145035        -2.88555
LJ          -2.52734        -3.00118        0.334942
LJ           6.38253        0.520317        -2.06178
LJ          -4.70875         6.40087         6.07522
LJ           6.14796        -4.05785        -1.54588
LJ          -5.48052         1.85294        -1.01826
LJ           4.64166        -3.54941        -3.18839
LJ          -4.46419         3.11565         4.11988
LJ          -1.07983         5.31492        -2.79065
LJ           3.25224         5.98967        -6.24337
LJ          -2.82751         4.44538         2.35396
LJ           1.10884          -2.159         3.86985
LJ         -0.461623         4.82326       -0.255209
LJ           2.76191        -4.42364         4.71508
LJ           5.58199        -2.90464        0.696106
LJ          -1.13461           1.553        -2.85018
LJ           4.73594         5.77179         -1.8583
LJ           3.31921         5.04744         6.33765
LJ        -0.0831225         1.05832        0.568347
LJ          -1.63421       0.0456687        -2.62047
LJ           3.51492        -3.99552        -2.90457
LJ           1.68975        -4.21073         4.91817
LJ           5.48951         -5.1307         6.32672
LJ           5.21715        -5.40372        -5.72886
LJ           4.61145         3.93142         1.31199
LJ           1.13992         5.77374        -0.40218
LJ          -1.16759         4.00367        -2.14706
LJ           6.10116       -0.760471        -3.99726
LJ          0.859148         3.91598         4.27189
LJ            -1.035         5.20353        -3.68472
LJ           4.47954        -6.05757       -0.471261
LJ         -0.521884        -5.10791         -5.1953
LJ           5.51719        -3.30711       -0.529464
LJ          -1.92366         3.71769        -3.02741
LJ            3.9419         1.96506        -4.16202
LJ          -6.13745        -4.35021         6.46033
LJ         -0.970215        -1.19889         -5.6115
LJ         -0.978294        -1.51798        0.633647
LJ           2.39332       -0.602223         -3.7453
LJ           -3.6394         6.45583         2.85161
LJ          -1.10855         6.40122         2.46811
LJ           2.67785         3.89083        -5.86707
LJ          -3.48644         2.53274        0.444236
LJ          -1.69084         -1.1763        -3.63546
LJ           5.31196       -0.814747         1.22845
LJ          -4.41191       -0.645215        -2.49338
LJ          -2.63174        -4.19224        -2.75525
LJ           3.65198         6.13019        0.356512
LJ           1.89405         3.70548        0.801987
LJ          0.372072        -5.18358         5.32279
LJ           -4.3558         5.70415        -5.96372
LJ           2.12058         -4.4288        -3.81244
LJ           2.84663         4.82913        -2.27776
LJ           2.86606         5.38159       -0.909321
LJ          -2.57878       -0.236817         5.09326
LJ         0.0953315         -1.7426        -5.57543
LJ          -3.39303         3.81281         4.88321
LJ           5.48231         5.36493        -4.97576
LJ           4.32824        -0.13978         1.40732
LJ          -4.64471         2.62254       -0.392412
LJ          0.646341         2.08251        -5.61797
LJ          -6.23944         1.83959         1.08153
LJ          -4.76645        -5.33502         3.78133
LJ           2.54445        -2.12923         4.24203
LJ           4.33896        -3.83785       0.0369359
LJ           1.43537          6.0271         3.29331
LJ          -1.71036         4.83993        -1.61107
LJ         -0.357965        -5.03541        -2.67921
LJ           5.73065         6.03193        -2.19093
LJ           3.46752        -3.20159        -3.45349
LJ          -2.61987         -4.5084        0.442599
LJ          -3.02899         3.16304        -0.42181
LJ          -0.61496         3.59903         4.56424
LJ           4.29647         5.22134         1.16707
LJ          -4.40507         3.72788         5.79033
LJ           3.94745         5.67074         3.40558
LJ           4.46447        -2.50019         5.94436
LJ           5.30319         5.19222         4.32909
LJ          -1.15956         3.38253        -3.89382
LJ          -3.55536        -1.64765         0.54115
LJ           2.78747        -5.69813        -3.58821
