108
#Comment!
LJ          0.414756        -2.50599        -1.36503
LJ          -2.79004       -0.460017        -1.33191
LJ          -4.28328        -4.50161         4.35653
LJ          -5.17958        -5.85935        -5.51463
LJ          -3.50963         -6.2135        -3.92598
LJ          -4.32949         -1.6463         5.26726
LJ          -5.37324        -3.56712        -4.02408
LJ           3.29091         4.35398      -0.0107826
LJ          0.855609         -1.2368         1.82331
LJ           2.32322         2.90779         1.44325
LJ          -1.81595        -2.96118         4.98051
LJ           4.47986        -1.43276         2.87231
LJ           5.70145         5.42721         1.91556
LJ          -2.44479        -1.66669         6.45721
LJ          -4.69653         4.48007         3.16266
LJ          -5.59616        -1.78798         6.26158
LJ        -0.0820144        -5.09117      -0.0258472
LJ           2.65312         1.90079         1.29862
LJ           4.18874        -2.97433         2.46509
LJ           6.20842        -5.30252        -3.50682
LJ         -0.768374         2.45605        -5.74658
LJ           1.41331       -0.092691        0.644964
LJ          -2.25349        0.755448        -1.05439
LJ          -4.92097        0.266138        -5.62789
LJ             1.215       -0.192776         -1.8214
LJ            6.0346        -0.14773         1.89521
LJ            2.7054        0.781694       -0.707446
LJ           -3.8104       -0.860744        -3.17977
LJ         0.0354538         1.93524        -2.90984
LJ           4.39878         2.86627         -5.5948
LJ          0.987149        -3.88581        0.523153
LJ          -1.80801         4.04379         6.40886
LJ           4.79259         6.16804        -5.95493
LJ           2.98149        -4.54602         4.72911
LJ          -1.66754         4.19431         4.97801
LJ           3.34136         2.11674         5.63548
LJ         -0.349915       -0.211484        -2.52529
LJ          -5.03077        0.365013        0.191383
LJ          -3.88374         5.74434        -3.51106
LJ           2.80629         3.11239         3.22538
LJ          -3.41067         3.61365         6.28658
LJ           1.23488         6.02168        -3.78504
LJ            -2.859        -2.90269         5.81268
LJ           2.13083         2.37556         2.54861
LJ           3.29221         1.00819        -1.72743
LJ           2.16574         5.20903         5.33524
LJ           2.68258        -3.64738        0.426743
LJ          -1.14349         6.01648        -2.22155
LJ           1.52719         4.53777       -0.357432
LJ          0.452193        -6.09222         5.62264
LJ           2.91076         3.28615        -4.59506
LJ        -0.0697039         -3.8323         5.53168
LJ          -5.20521         1.05089        -2.02671
LJ          -3.70159        -1.30318        -5.42077
LJ          -1.46167         1.64256        -5.93694
LJ          -1.07618          2.2053          6.0849
LJ          -1.66691         3.04302        -4.95635
LJ          -5.73721         1.61743         5.46775
LJ          -3.79122         5.01428         4.55377
LJ          -4.31626         6.13848        0.835827
LJ          -1.23907        -1.63674         1.54771
LJ           3.55277        -1.68678        -3.63755
LJ           5.48985        -5.60587         5.95747
LJ          -4.32947       -0.504294          5.2196
LJ          -4.17189       -0.146951         4.00079
LJ          -2.40258       -0.816429       -0.226472
LJ         -0.551215        -2.20915         0.84283
LJ          -1.40535         1.00418        0.176724
LJ          -3.48302        -1.29792        0.809009
LJ         -0.137728         5.15079        0.844981
LJ          -4.80564         4.05881         4.81482
LJ           4.31958         2.33468        -4.44539
LJ           2.18763         5.27951         2.39343
LJ           1.58951        -5.21725        -5.09767
LJ          -6.29668        -6.33968        -0.15647
LJ           1.25603          5.4052         5.86017
LJ          -4.80002         6.29687        -4.83473
LJ         -0.900137         6.41887       -0.797745
LJ          0.582922         1.02656         2.17492
LJ           2.10166        -5.38361        0.571884
LJ          0.819297        -4.56464         -2.0028
LJ          -5.21977        -4.62188        -3.05533
LJ          -3.76781         4.46782        -1.56816
LJ          0.617474        0.723262        -2.58256
LJ          0.352702        -1.79951         2.76004
LJ          -4.32534         1.04115       -0.115158
LJ          -3.00295         1.88914        -5.73847
LJ           1.80997         4.04282         5.81303
LJ           4.17094         -1.1714        -2.24272
LJ          -6.14763         -5.7138        -4.90742
LJ           3.81433        0.935913         5.07373
LJ           1.43467        -2.27668         1.67832
LJ           5.52776         6.40722        -1.95031
LJ          -4.92825         1.18251        -4.14515
LJ           5.36266         2.81625        -3.72418
LJ            3.2786       -0.218752         1.07218
LJ           -5.7723        -2.68288        -6.00331
LJ          -4.22001         4.43269        -3.46228
LJ          -2.84261        -5.56297         -1.8171
LJ          -3.94085        -2.10674         3.18377
LJ          -2.02021         3.85351        -3.97284
LJ           5.77797         3.59524          5.7319
LJ          -4.11257       -0.989233         6.24743
LJ           5.47442         1.80285         4.32731
LJ          -2.65911         4.56128          1.7942
LJ         -0.396105        -5.65032        -1.28539
LJ          0.738481        -2.41678        0.802424
LJ            4.1851         5.40281        -3.28899
