108
#Comment!
LJ           4.08399       -0.614166         3.54711
LJ           3.93405        -4.47527        0.200612
LJ          -4.76392         2.93712         0.53834
LJ          0.616875       -0.371592         3.13103
LJ            4.8824         5.72717        -2.55188
LJ          -2.49921        -1.38944         3.41029
LJ            3.6115         3.57557        -5.82117
LJ           4.93294        -3.58021         4.36312
LJ          -3.85267         3.99359         4.57962
LJ          -6.06794          6.1494        -3.64608
LJ          -4.08406       -0.874552           4.722
LJ          0.350716         -3.3336         -3.1775
LJ           3.78618        -3.61776        -1.83829
LJ          -3.67093          3.9945         6.29719
LJ          -2.81015        -2.13178         4.13427
LJ          -3.71738         2.49764        -5.75347
LJ             2.673         2.95122         -3.2048
LJ           3.78397        -2.02482        -3.47234
LJ          0.776794         5.97921         3.80164
LJ          -5.74644         2.34291        -1.49727
LJ           4.14139        -1.06036        0.275858
LJ          -3.77675        0.771564        -3.99232
LJ          -1.25056        -5.51109          5.0513
LJ          -5.00995         5.43696        -4.52691
LJ          0.549932         3.47274         2.71175
LJ           1.56604         1.94347         -4.7684
LJ           5.63759         -1.1289        -4.86002
LJ          -3.08417        0.755446      -0.0516096
LJ           1.54283        -1.91147        -2.33884
LJ           4.03357        0.407542         1.96399
LJ          -3.52507         4.78964        -5.57642
LJ          -2.06404        -3.95126        -5.47476
LJ           -3.6142         -4.4181         1.35427
LJ         -0.469217         1.42796        -3.68302
LJ           0.89749        -2.28925         2.55947
LJ           -4.1014          3.1182         5.84842
LJ           1.96232         1.39698        -3.64999
LJ          0.160632        -6.06177        0.108678
LJ           1.02267         3.16498         3.93386
LJ          -4.65882        -4.72763         2.00954
LJ           3.29346        -5.41693        -2.57588
LJ           1.13899        -5.92093        -0.62092
LJ           4.08966         4.50846        -2.89305
LJ           4.15986         3.37585        -4.56272
LJ          -3.99141         2.11619         6.16473
LJ         -0.540153        -2.30936        -6.16003
LJ          -6.31405       -0.748832        -2.34805
LJ           3.52167        -5.40591         3.32914
LJ          -2.18409        0.863061        -1.63109
LJ           4.74067       -0.169696         5.27101
LJ          -5.76107        -1.40187        -6.33585
LJ           4.22749         1.64749        -5.68086
LJ          -2.98913        -6.00758        -5.53894
LJ           5.06046        0.775933        -3.01012
LJ            3.4707        -4.65149         2.11567
LJ          0.343731         2.41311         4.85158
LJ            3.4501         1.39331        0.722786
LJ          -1.36672        -5.82205        -1.77673
LJ           1.77612         4.78893         3.83171
LJ          -2.62374        -3.02295         -6.4087
LJ          -5.56399         3.51313         4.93612
LJ           1.94423         5.56467         4.72053
LJ          -4.83672        -5.91486         3.50713
LJ          -3.92665         1.01326        -2.39624
LJ           5.57142         4.94157         3.12334
LJ          0.349863         4.59642         4.93239
LJ            4.5739         5.45809          3.1785
LJ          0.831728        -5.66397        -2.13962
LJ           5.88889        -3.15072        -2.38087
LJ           -4.7157        -3.67986         1.10159
LJ         -0.506482         1.59981         2.22924
LJ          -4.84285      -0.0087388         5.53182
LJ          -2.95801       -0.725305          5.4057
LJ          -4.48807         2.57031         4.40149
LJ          -4.77149        0.302915        0.486634
LJ          -4.84879         3.91593        -6.06541
LJ           6.21382         4.72888        -3.70528
LJ            4.9727         4.62281        -4.34365
LJ          -4.95827         1.98876         1.24709
LJ          -2.29578          5.9872        -2.32616
LJ          -3.98223         -3.2875         4.24057
LJ          -6.08786        -2.59536        -4.96812
LJ          -5.50371        -4.82625        0.311218
LJ         -0.746978        -6.16751        -1.10616
LJ           3.25438        -5.73719        -0.69526
LJ           4.26585          -2.714        -4.95746
LJ           1.08831        -5.50382         1.44581
LJ           5.05428        -2.16756        -2.74239
LJ           5.98888         3.35978        -2.01909
LJ          -1.14745         -4.1367        -3.48314
LJ          -0.43625         -6.1498         4.59391
LJ          0.783419       -0.776058        0.913105
LJ           2.93645          4.4016         4.10173
LJ          -3.91124        0.385659         1.16676
LJ          0.332264         3.11055        -6.29607
LJ          -4.88916        -4.14042         3.18148
LJ           5.84757        -0.92283        0.522411
LJ          -4.34711         5.38657         1.90175
LJ         -0.755474        -1.96871           5.567
LJ           5.07377        -6.29097       -0.619022
LJ          -3.00735        -6.11178        -3.16473
LJ           1.24544         4.52701        -5.46108
LJ          -3.26001        -1.23305          4.1087
LJ          -1.90099         1.42995          1.4531
LJ          -4.80666        -0.50435         1.88603
LJ           1.84027        -4.42276       -0.193283
LJ          -4.04563        -5.98419        -1.74781
LJ          -2.51557        -5.30269         2.75143
