108
#Comment!
LJ          0.941806         1.97252         1.72325
LJ           5.04185         0.69244         4.95736
LJ            5.1635         2.08305         1.43925
LJ           1.97201          4.9205         2.89767
LJ           3.67096         1.60324         2.33764
LJ           1.06444        -2.32075         1.42085
LJ          -5.54653         2.56578        -3.08237
LJ          -3.96771         1.78026       -0.982905
LJ           4.76493         4.74498         1.76589
LJ          -3.40608         4.31385        -3.61362
LJ          -3.53314        -2.47673        -5.58447
LJ          -1.59631         3.09831        -3.64329
LJ           3.08312         2.34608         1.78529
LJ          -2.58335        -5.57826         -1.3959
LJ         -0.727371         6.19701        -4.53715
LJ          -3.26593        -2.46278         6.23549
LJ           3.41765          1.3031        -1.16105
LJ           5.39918       -0.299654          1.8633
LJ           5.73446        0.788504        -5.64104
LJ          -3.97705         0.85881         4.46939
LJ           5.08096        -6.45659         -4.0003
LJ           3.07046       -0.600265        -1.17845
LJ          -6.05203        -2.13036         4.78401
LJ          -2.93274         3.08653        -3.10734
LJ           4.54825         1.18701        -2.62332
LJ           2.10351       -0.248551        -6.39576
LJ          -6.02167        0.601306       -0.658694
LJ          -4.10631        0.641256        -3.79624
LJ         -0.105072        0.681817         -4.9826
LJ           1.10919       -0.565896         4.23409
LJ          -4.42362         2.75841         3.29735
LJ          -2.24105         2.80266        -1.58157
LJ          -5.68507        -2.45939         6.30581
LJ           2.59259        -3.57909        -2.59642
LJ           1.57056        -3.24966        -5.76433
LJ          -4.95693        0.937739         5.23153
LJ           1.18657        -4.41926        -2.42287
LJ          -1.51528         -6.0495        -3.60701
LJ         -0.805443         3.47332         3.18556
LJ          -4.65901        -4.38411        -1.97547
LJ           4.18576        -5.52847        -5.95544
LJ         -0.261385        -5.60891         -2.3929
LJ          -1.26478         3.92665        -4.99144
LJ          -4.79599         3.17346        -4.38674
LJ          -4.28673        -2.11625         6.42258
LJ           1.45155        -2.29656         4.98908
LJ          -6.15341        -5.90548       -0.135147
LJ           4.32492        -5.11833         1.75773
LJ          -4.83912        0.890895         3.74554
LJ           5.46588        -4.29491       -0.320891
LJ          -2.17916        -3.46963        -5.39542
LJ          -4.53623          1.9581        -3.31638
LJ          -2.86837        -5.47305        -2.85189
LJ           3.18869        -4.38859        -1.00497
LJ          0.705391        -4.60876         3.34355
LJ           6.44517        -5.75655         -4.7102
LJ           3.61356         6.34084        -2.87653
LJ          -3.66056        -3.57696        -5.26649
LJ           3.33068          4.1477         2.91348
LJ          -1.60987         1.55682        -3.46984
LJ          -3.59254         3.64093         5.70921
LJ           2.96135         -2.1392         3.51324
LJ           4.07365         2.22985          3.0505
LJ          -5.18451         4.11181        -1.11055
LJ           4.02305         2.37949         1.39603
LJ           2.28203         4.94644         3.89859
LJ           1.96555         2.01428       -0.945094
LJ          -4.71891        -4.93259          -5.317
LJ           4.70097      -0.0474064          4.1751
LJ          -3.11667         6.12266        -3.76595
LJ          -3.61148         2.64682         1.89991
LJ           3.88467       -0.776717          5.6159
LJ           -3.8278        -1.30918         4.55516
LJ           5.67641          5.6025         6.40855
LJ          -1.74782         1.87186        -2.38712
LJ          -5.61601         1.57208         3.13716
LJ           4.52363         4.52073        -1.61866
LJ        -0.0867571          3.8562        -5.80826
LJ          -2.26544         1.11413       -0.694409
LJ          -3.24709        -4.78883        -1.88533
LJ          -4.60407         4.26362           1.378
LJ          -3.35558         6.40336         4.94367
LJ          -4.05856        -4.01837        -1.06738
LJ           2.02608        -6.21632        -3.16514
LJ           -6.4445         1.81148       0.0655472
LJ           4.46214        -4.03219        -5.97272
LJ           2.95817         6.26527         3.78708
LJ           5.75152       -0.250616         2.85742
LJ           6.08246         3.95548        -2.07809
LJ         -0.288244        -1.06631        -5.96524
LJ          -1.55128        0.093875         3.01109
LJ          -1.18725        -2.69369        0.111091
LJ           2.79007         4.71961         2.04227
LJ          -2.16753         2.16109       -0.284392
LJ           2.37725         5.63387         4.80951
LJ          -4.79376         6.15184         1.45248
LJ           3.02645          3.0702         3.07673
LJ          -5.00778       -0.891987       -0.366207
LJ           2.95418        -2.21945        -4.38717
LJ          -5.34908        -5.30522         4.04278
LJ          -2.90787         5.79901        -5.19747
LJ           2.27689        -4.16686         3.75813
LJ           5.80446        -3.06795          1.8258
LJ          0.989734        0.149035         2.90322
LJ          -4.35035         2.64059         1.23267
LJ          -5.79225        -5.74704         -2.5139
LJ          -3.82767        -1.73589        -3.59412
LJ          -0.87072         3.03798        -5.62182
