108
#Comment!
LJ           1.74113         2.20855         3.61214
LJ           2.34473        -5.39809        -1.05851
LJ         -0.207851         2.19496         1.00115
LJ           2.56516        -5.38678         5.42802
LJ           2.75053         -4.6558         2.95831
LJ           4.24399         5.08483        -5.95071
LJ           3.60404       -0.891432        -6.13596
LJ          -5.29187       -0.924826       -0.959266
LJ          -2.96607        0.716696         6.17363
LJ           1.14842         1.82101        0.171202
LJ           4.31956        -3.41191        -4.17208
LJ          -2.11042          3.3208         3.80771
LJ          -2.44279        -5.11343        -3.63161
LJ         -0.150595         3.34207        -4.61519
LJ            2.6654       -0.934974         5.71196
LJ           1.14177        -1.79395          4.1481
LJ           2.06806        -1.35134        -1.46038
LJ          0.846418        0.226583       -0.258779
LJ           2.58304        -4.06328        -3.18127
LJ           2.81065        -0.36722        -5.55826
LJ           5.02582        -2.51164         5.18523
LJ          -1.23719         4.83349        -3.14935
LJ           5.33767         -4.8645       -0.621231
LJ          -5.95351        -2.81995        -2.17523
LJ         -0.445164        0.715333         3.02538
LJ          0.808474          5.0911          5.4809
LJ           3.09536        -1.12313        -2.26295
LJ          -2.77081        -6.12625         1.92093
LJ          -6.24907        -2.07747         0.88346
LJ           4.65814        -5.16443        -1.29785
LJ           1.76698         2.54652         1.87467
LJ          -6.20673          2.2175         1.64694
LJ          0.527732        -5.58289         3.26485
LJ          -1.86508         6.34922         1.52594
LJ          -6.10561          4.5181        -5.63052
LJ           2.84774        -6.24151          3.9949
LJ          -1.90974       -0.431811         5.22722
LJ           4.82702         -6.1165        -3.32491
LJ          -4.68144        -6.10724        -5.91831
LJ           2.04206        0.952991         3.31396
LJ           6.02422         4.69348        -1.08593
LJ          -4.89008       -0.269209         5.23979
LJ          -5.39304         1.52511        -5.08595
LJ           1.83797         2.49131        0.662442
LJ          -5.39917         1.32465        -6.30405
LJ          0.818981         4.70009        -6.22188
LJ          -4.67583        -5.17061         2.00788
LJ          -2.44972          6.2756        -2.08556
LJ          -1.75119         1.85234        -2.28233
LJ          -3.63325        -2.27263        0.119723
LJ          -2.37172        -2.50299         2.39156
LJ           6.12295        -4.47111        -5.09164
LJ           5.22343       -0.724675          4.0819
LJ          -1.68383        -2.11258        -2.48599
LJ          -1.91023         6.19938        -3.17862
LJ           5.88166         2.95875        0.884908
LJ          -1.96952      -0.0444319        0.762654
LJ           1.91743         5.00801        0.387479
LJ          -5.84311        0.882684         3.60831
LJ         -0.850367        -4.45872        0.540269
LJ           2.72821        -3.17788        0.527884
LJ           5.54993         3.14625        -4.11538
LJ            2.0856          4.4065        -3.90553
LJ          -1.96889         -4.3429         3.58627
LJ          -2.45705        -2.93834         3.55285
LJ           1.62054        -6.44114         2.68023
LJ           2.78081         1.06322      -0.0394745
LJ         -0.400864        -1.23003        -3.72774
LJ          0.351665         3.75799         3.47614
LJ         -0.750121         1.86932         2.15866
LJ         -0.986688         1.17593         1.12562
LJ           4.95073        -2.36737        -4.45663
LJ           1.56702        -6.17137        0.206804
LJ            1.6385         2.33699        -4.68448
LJ          -3.66418        0.724099        -5.09442
LJ           3.09135          1.1258        -1.22237
LJ          -1.51861        -4.95494         1.36799
LJ         -0.112495         1.26478         5.47542
LJ           1.40703         2.87242       -0.904765
LJ           2.31175        -1.79375       -0.131321
LJ          -6.00366        -6.27164        -3.97606
LJ           1.43036        0.654216        -4.35992
LJ          0.868868        -1.90619         2.15992
LJ          -2.12218         4.77078          3.1893
LJ          -2.98905        -3.62535        -4.03199
LJ           3.60397         1.38608         2.71216
LJ         -0.614265        -5.43636         3.66114
LJ          0.880507         3.43725        -4.11238
LJ           5.19885         3.99276           -3.28
LJ           1.33331         6.33152          4.7413
LJ          -2.01414         1.02107         3.94767
LJ          0.730411        -1.52583        -4.46411
LJ          -2.52706         4.70811        -4.25151
LJ           4.33444         3.94248        -5.85079
LJ           6.03935        -3.10601         3.18641
LJ          -5.27871        -5.13026        0.993996
LJ           5.66206         5.50133       -0.491233
LJ            2.4926         5.07877        -4.73635
LJ          -4.89241        -5.23804        -4.17932
LJ          -4.48632         2.85097         4.94818
LJ           2.33554         6.39967        -3.01126
LJ           5.91143         4.64128        -3.65831
LJ          -2.14713       -0.136447       -0.855343
LJ          -4.78772       -0.867775        -6.19783
LJ          -1.08773       -0.122958         1.98134
LJ          -1.14928         4.56575         4.97372
LJ          -5.64354        -2.96041        0.601208
LJ           5.90565         1.69253         -3.6914
