108
#Comment!
LJ          -4.49556         3.53674         -4.2121
LJ         -0.534932          -6.356         1.92775
LJ          -3.51093         2.00863          2.9589
LJ          0.919544        -2.58638        0.982007
LJ          -4.07984        -2.01752       -0.342304
LJ          -2.60273        0.801354        -4.05944
LJ           3.04099        -5.81253        -4.63542
LJ          -5.20079         -1.7313         1.44098
LJ          -4.19372        -6.46167         1.22901
LJ           5.55911         4.29875         5.69441
LJ          -5.80278        -4.39378        0.699775
LJ           4.93444        -3.17656         -5.0066
LJ          -6.16624        -1.56626         4.48754
LJ         -0.147844        0.733184         5.24795
LJ           1.23405         0.53766        -4.35636
LJ           5.76178         3.84949         0.58178
LJ            5.3218         4.86155        -4.24406
LJ           5.73521         6.02772        0.617694
LJ          -1.44592        0.833751        0.245052
LJ          -4.96466         1.90182        -1.49169
LJ          -1.44832         3.58379          5.2271
LJ           1.68039         1.88898         2.51293
LJ           5.79505        -4.26738        -2.68958
LJ         -0.194648        -2.08094         2.78306
LJ           -5.6823        -3.92438         2.85929
LJ          -1.63021        -5.44757        -1.67794
LJ          -6.25137           4.161       -0.282162
LJ          -3.72209         5.51612        -5.84484
LJ          0.961198          4.5396        0.695397
LJ           2.18075        -1.16964        0.226052
LJ          -6.24851        -2.10635        -2.55838
LJ           3.38237       -0.402358        -1.50865
LJ           5.38938     -0.00868999        -2.42124
LJ           3.15596        -4.96898        -3.38951
LJ           6.00377       -0.476666         4.57916
LJ          -1.66117         5.53572        -0.22464
LJ          -4.86392         6.06155         5.66139
LJ           5.83141         2.55062         6.18413
LJ           2.51105         3.42202         3.43337
LJ          -1.91949         -4.1417        -2.98648
LJ           2.91086        -2.18134         2.75517
LJ            2.6005        -4.70419         1.39723
LJ           1.93868         1.36373         6.16136
LJ           4.93121         0.66172           3.525
LJ          -4.43206       -0.833653         4.83694
LJ           4.34068         4.04122        0.998349
LJ          -3.02212         5.01061         3.26997
LJ          -5.59818        -5.59497        -2.16024
LJ           2.98085        -2.68945         3.90288
LJ            4.6294          5.2854        -4.83884
LJ           3.72325        -3.96691         6.22916
LJ            3.0279        0.676005         2.00552
LJ          -6.22876         3.35955          2.3736
LJ          -6.13344        -4.76717          1.8367
LJ            1.6582        0.540805        -2.66238
LJ           3.43184        0.121042         3.72911
LJ            1.6213       -0.882421        -2.15684
LJ           4.50225        -4.76343         0.31554
LJ           4.00829        -5.73807       -0.958014
LJ           2.35177        -5.79723         -5.5199
LJ           -4.1309       0.0453577        -5.48158
LJ           2.10346        -6.29715         5.30706
LJ          0.271051        -5.42459          2.2314
LJ         -0.890961        -4.40974        -2.75415
LJ          -2.38236         4.19803        -1.00896
LJ           4.08707        -3.37449        -5.53187
LJ           5.46843        0.966133        -6.36076
LJ           5.46363        -2.11945        -5.64709
LJ         -0.300815         1.35515          1.0134
LJ         -0.317068        0.590207          3.1421
LJ           1.18197        -4.18703        0.295397
LJ           5.96848        0.173716        -1.35887
LJ           2.35428         4.74454         5.21625
LJ        -0.0507418         3.77336         1.47628
LJ           4.53842         5.08049        -1.60121
LJ          -4.98751         2.48855        -0.44566
LJ          -4.74278        -5.49807         -4.4577
LJ          -3.74792         4.77157         1.02596
LJ          -3.02563       -0.437156        -3.61672
LJ          -3.14964        -1.57902         0.36217
LJ           3.86679         2.43986        -4.61803
LJ          -1.74847        -1.75818         -6.1926
LJ           2.94729         4.20062       -0.522086
LJ          -4.14286         3.14865         2.84005
LJ          -1.16018        -5.53214       0.0568873
LJ          -4.97928         -3.7937         2.14398
LJ           2.43852         1.28432         4.48242
LJ           1.32198       -0.244059        -6.43061
LJ          -4.65861       -0.117784        -4.66396
LJ          -4.60657         -5.1092         3.58772
LJ           1.36896       -0.711332        0.781956
LJ          -1.01092       -0.956243        0.581529
LJ          -5.01125         5.87732        -5.74618
LJ          0.522129          6.2736        -3.39775
LJ          -6.27672         2.66224         1.06906
LJ          -5.46948         4.76226        -1.02169
LJ          -4.72309        -1.00044        -2.20071
LJ           4.25089         6.33944         3.90312
LJ           5.11186          5.2796         1.61434
LJ          -5.80852         3.18887        -5.62363
LJ           2.06682        0.741098         2.84484
LJ          -1.39825         5.76681         3.71633
LJ           4.44598       -0.542187           6.189
LJ          -3.44135        -3.11686         5.70661
LJ          0.175604        -1.94928         -1.8001
LJ          -6.42122        -4.23249         3.34316
LJ         -0.848431        -3.35209        -3.37987
LJ          -5.78474        -3.56707        -5.98959
