108
#Comment!
LJ           3.38854         1.50215         4.77118
LJ           1.86208         6.25651        0.671539
LJ           2.92571         2.36893         1.97889
LJ             1.148        -6.36895         4.54088
LJ           3.01918        -5.52765         5.83627
LJ           3.07351         5.07663        -4.62007
LJ           1.56119         0.83746         5.47199
LJ            3.7138        -3.29719       -0.342708
LJ          -1.22699        -1.83532         4.42516
LJ            1.0277         1.15736         1.06943
LJ           4.82554       -0.547879        -3.41159
LJ          -1.73524          2.8964         5.73589
LJ           -3.1025        -3.62704        0.369102
LJ          -3.45209         5.07035        -3.96604
LJ          0.589201         1.04197         6.02372
LJ          -0.42292        -2.05206         1.95709
LJ           2.89098        -2.87352        -1.02415
LJ         -0.307749        -1.09431      -0.0681706
LJ           3.90005        -3.75186        -4.76222
LJ           1.71918        0.897368        -4.06401
LJ           3.13872       -0.277659         4.07291
LJ          0.268563         2.15366       -0.746812
LJ           4.49952        -3.60789         1.12898
LJ          -6.17265        -3.83086        -1.14796
LJ          -1.74333      -0.0579939         2.92088
LJ           4.65606        -6.00038         5.33476
LJ           3.42261        -1.73356        -2.63665
LJ          -2.60856         5.41975        -2.05355
LJ           6.03547        -1.59389        0.945058
LJ           3.48132        -4.47701        -1.42327
LJ           2.60914         4.79213        0.868622
LJ           5.18535         2.71023        0.829145
LJ          0.480249        -3.23054         4.23225
LJ          -1.08284          4.0389        0.554484
LJ          -5.12545         1.87284        -4.72925
LJ           1.92132          5.1181         2.82188
LJ          -2.86449       -0.278528         4.04716
LJ           5.85628         -5.4757        0.270808
LJ          -1.89737        -5.61315          5.1691
LJ           2.25981        0.561207         3.47043
LJ           5.75074         3.29858       -0.605747
LJ           -2.4171         1.50018         4.87879
LJ          -4.71236          1.7396         5.22353
LJ           2.00687         3.70742        0.407617
LJ          -5.60083         2.23218        -6.09477
LJ            2.2827         5.91263        -4.36469
LJ          -2.52378        -1.90465         3.05675
LJ           -3.3667         6.04835        -3.00444
LJ          -3.47678          1.2799        -1.07563
LJ          -4.56983       -0.981009       -0.990866
LJ          -4.77212         -1.0385        0.324415
LJ          -2.70701        -4.36942         6.13894
LJ           5.81761        -4.94089         6.35821
LJ           1.07383        -4.79591       -0.482869
LJ          -2.38605         5.00374        -2.98646
LJ           4.52448         1.95863        0.316049
LJ          -1.90854       0.0180601         1.16259
LJ           2.78611         5.24318        -2.23487
LJ          -6.04775         1.23796         2.96296
LJ           0.55338        -2.70279         1.68676
LJ           1.31727        -3.90075        -1.20795
LJ           2.73769         2.91204        -2.31531
LJ           1.44222         3.22576        -4.56878
LJ          -1.10785        -4.75961         2.56184
LJ           -1.6572         -3.4934         2.09945
LJ           6.00261        -3.33091         4.69843
LJ           5.45075         1.15972        0.907124
LJ          -4.43618        -2.61838        -5.90813
LJ          0.225348         4.59494         4.21224
LJ        0.00698371         2.19319         1.10745
LJ          -2.48029         2.44404         1.99114
LJ           3.88907        0.244623        -3.77476
LJ           2.26856        -4.68588        -1.21967
LJ          0.518944         1.16069        -5.52984
LJ          -6.03436         3.34456         -3.7611
LJ           4.38437       -0.422167        -1.59065
LJ          -1.25237        -4.71777         0.92275
LJ         -0.236195        -1.67165         5.95002
LJ          0.684544         2.17855        -2.16461
LJ           3.11928        0.571518        -1.82372
LJ           6.29081         5.96506        -3.84927
LJ           1.52686         1.46825         -6.1823
LJ           2.42161       -0.404474         3.16071
LJ          -4.74772         6.02616         3.49593
LJ          -2.66061        -4.30387        -3.12289
LJ           3.55719       -0.469639          1.1952
LJ          -1.08827        -3.08276         3.15038
LJ           1.13776         1.69571        -4.76191
LJ             4.919         6.09333        -3.88142
LJ           1.19754        -5.37446         3.38281
LJ         -0.974918         0.66961         4.45321
LJ          0.700656       -0.237123        -4.51539
LJ          -3.22084         1.05706        -5.75615
LJ           4.26369         5.37218        -6.09779
LJ          -4.83706        -1.58992         3.15891
LJ          -3.94058        -5.97782        0.339048
LJ           4.39437         3.90304        0.986927
LJ           4.18575         4.51315        -5.34709
LJ          -4.22841        -5.58675         -4.1645
LJ          -5.01698      -0.0447208         2.71861
LJ            3.0568         4.56281        -3.01594
LJ          -5.35603         5.11622        -2.15214
LJ          -1.58617         2.44624       -0.454028
LJ          -3.71519        -1.54846         -5.6393
LJ          -4.24537         -1.9637         3.86975
LJ         -0.570016         1.81414         4.56459
LJ           4.49869        -1.81704         1.28596
LJ           6.41362         1.59232        -3.21534
