108
#Comment!
LJ           1.14501         2.55309         2.41104
LJ           1.22477         -4.6293        -1.64571
LJ          -0.44299         2.86526         1.30069
LJ           3.55302        -5.10747         5.79133
LJ           2.00024         -4.9924         1.09257
LJ           5.09627         4.27933         6.07317
LJ            4.0901        -1.88849        -5.46115
LJ          -2.54571        0.382096         -1.1781
LJ          -4.31161         1.98157        -5.85721
LJ          0.276411         1.91988         1.27914
LJ           2.63104        -4.29032        -3.70363
LJ          -2.05241          3.5323         2.61469
LJ          -2.09492        -6.04541        -6.30129
LJ             1.806         1.98534          -5.221
LJ           4.28969        -2.26139         4.72773
LJ           2.36957       -0.637689         5.03485
LJ            1.5608       -0.166799        -1.24255
LJ           1.78171           1.608       -0.104601
LJ           2.13599        -1.67314        -2.63256
LJ           3.87592       -0.630033        -5.37918
LJ          -6.30521        -3.80059         5.67789
LJ         -0.597141        -6.03573         -3.9029
LJ          -6.25679        -4.88719        -1.14269
LJ          -5.83889        -2.09427        -2.77142
LJ         0.0908743         1.61135         2.56425
LJ          -2.01689         4.46446         5.22767
LJ           2.64704       -0.656461        -1.85041
LJ           -2.1079        -5.04065         4.04693
LJ          -5.28005        -2.61248       -0.610848
LJ           4.70569        -6.11884        -1.81474
LJ           1.13924         0.44007         1.64981
LJ          -5.57716         2.03315         1.87303
LJ          0.093185         5.46604         3.27112
LJ          -3.02364         6.30723         2.51582
LJ            6.0732         5.60855        -6.11592
LJ           2.81381        -4.65977         4.38099
LJ           -1.3942       -0.103655         6.40763
LJ           5.36969         -5.5738        -6.29634
LJ          -6.03037        -6.45968        -5.07644
LJ            1.9432         1.47393         2.84742
LJ           6.28415         5.11193        -1.67361
LJ          -6.40585        -1.53949         5.69109
LJ          -5.64366        0.369795        -4.95459
LJ           1.18345         1.74551        0.839869
LJ          -4.59938         1.19094        -5.06295
LJ          0.193604         3.92741         5.60643
LJ          -5.77562         5.49916         1.29289
LJ          -1.45906        -6.39521        -2.09635
LJ         -0.558283         2.19184        -2.96458
LJ          -3.04637        -3.11394         1.08197
LJ         -0.772008        -3.71835         4.04752
LJ           4.60744        -5.07431        -5.63169
LJ           4.42871         1.88346         2.71605
LJ          -3.37785       -0.298808        -3.76677
LJ          -2.14885        -6.45165        -3.29293
LJ          -5.83705          3.3319          1.5907
LJ          -1.60449       0.0911943        0.496951
LJ           1.36002         4.92824         2.24307
LJ            -5.639        0.727501         4.11842
LJ          -0.66282        -4.51834        -1.25063
LJ           4.26953        -4.60745         1.97069
LJ           -5.5793         2.79862        -5.15658
LJ           1.92072         4.62525        -3.71622
LJ          -2.05275        -4.01782         4.00281
LJ          -2.84711        -2.95518         4.17957
LJ          -1.23149         4.06081         1.90207
LJ           2.29715         0.58486        0.793071
LJ           2.61896       -0.475719        -2.92539
LJ          0.201549         3.13197         3.24361
LJ          -0.95615        0.415179         1.56844
LJ          -2.09679          1.4861         1.64734
LJ            5.4517        -4.23936        -4.60149
LJ          0.927017         5.80901         1.15323
LJ            2.3267         3.30039        -3.41227
LJ           -2.3938       -0.586403         6.17272
LJ           2.47484         1.93939        -2.27921
LJ          -2.85352        -4.69718         3.19713
LJ         -0.132789         3.11533         4.98365
LJ           1.65362         4.87293        -1.30001
LJ           1.79934        -1.30364       -0.393427
LJ           6.44381        -5.49088        -3.70265
LJ           1.11407        0.113722        -3.55106
LJ         -0.180519        -2.87006         1.70713
LJ         -0.145193         4.36506         3.03537
LJ          -3.11124        -3.52715        -4.42695
LJ           2.16255         3.04243         3.80393
LJ         -0.691446         5.94377         3.96409
LJ           1.38847         3.75929         -4.0674
LJ           5.36466         2.74796        -2.77461
LJ            1.8827         5.51446         5.77143
LJ          -3.10455          1.3864         4.18483
LJ          0.285681        -1.98554        -3.89312
LJ          -3.41729        -5.41596         -3.6124
LJ           4.93858         3.52716        -5.85794
LJ           5.16573        -4.76714         4.44287
LJ          -6.15217        -4.41208         1.34235
LJ           6.20826        -6.35728        -1.27291
LJ            1.3169         5.90091        -3.97952
LJ          -4.68725        -5.19846        -3.58912
LJ           -4.1621         4.55152         6.42115
LJ           1.51503         5.47796        -2.01865
LJ            4.9623         3.84673        -4.76686
LJ           -2.7558        -2.25641        -1.71224
LJ          -5.38918       -0.252557         6.16498
LJ           1.23793       -0.595397         1.60236
LJ          -1.61022         6.22003         4.91825
LJ          -3.85672        -3.46917       0.0454387
LJ           5.65261         2.44544        -4.25513
