108
#Comment!
LJ           5.28495        -2.31888         4.43748
LJ           5.13901        -6.06043        -3.53119
LJ          -2.36714         0.44157         1.69744
LJ          0.010098         1.52969         2.47524
LJ           3.89019         4.04942         6.17674
LJ         -0.812707         0.48006          2.3533
LJ         -0.338796         5.56702        -4.57021
LJ           3.68266         5.94093        -4.42985
LJ         -0.988773         3.55505         5.83827
LJ            3.1713        -5.73838        -6.20936
LJ          -4.94196         1.31687        -5.65363
LJ          0.709192        -2.32609        -5.12944
LJ            2.3853         4.56564        -4.14229
LJ         -0.730135        -5.99514         3.50365
LJ          -2.27035       -0.497508         0.78532
LJ          -5.11272         4.56402         5.15788
LJ          -1.20759         4.84434        -5.05476
LJ          0.460192        -3.43239        -5.45392
LJ         -0.444285        -2.68584         4.07385
LJ           5.38333         3.01055        -6.40873
LJ           4.53152         5.25343         2.25257
LJ          -2.14816         2.56185        -5.56558
LJ           2.14224        -4.78125        -6.21921
LJ         -0.583913        -5.48429        -6.38809
LJ         -0.207857         5.29197         5.61198
LJ         -0.229956         2.64695        -3.22918
LJ           6.41032        -2.93771         5.40746
LJ           -1.6656         3.87428       -0.473624
LJ           6.02231        -5.00063        -1.93487
LJ           -4.2458        -2.37976       -0.431653
LJ          -1.91385         3.03582        -2.79599
LJ          -4.72391          5.4343         4.88916
LJ          -2.94282        -5.78856        0.386325
LJ          -3.23542        -6.40392         -5.1344
LJ           1.24817         1.80893       -0.998512
LJ           4.38671         4.83442         3.26976
LJ           2.32559         4.47569        -5.23074
LJ           2.07566        -5.40736        0.819516
LJ         -0.585045       -0.347108         5.03839
LJ          -5.92493        -2.50235         4.65067
LJ            1.6006        -3.92389       -0.724586
LJ          0.907774        -5.06142        0.936723
LJ           5.91228         4.62869        -4.66999
LJ            1.0474         5.84519         4.02931
LJ          -2.84469         2.36671         6.33332
LJ          -2.12014       -0.204409         3.90656
LJ           2.75672         5.33412        -1.37829
LJ           6.32039         6.42748         5.51474
LJ          -0.24188       -0.671175         -4.2401
LJ           4.02523         3.61721       -0.238323
LJ          -5.64954         -2.4158         5.71131
LJ           3.85237        0.395539         3.57374
LJ          -2.72836        -2.32834         5.74262
LJ          -4.03043          2.7564       -0.913715
LJ           4.58869        -5.95328         5.41319
LJ          -5.31641       -0.214194       -0.665086
LJ           4.72662       -0.207463        -6.12473
LJ           -1.3921        -4.55876        -3.25459
LJ          -1.73297         3.85428         4.99063
LJ          -2.78525         3.91639        -5.58952
LJ          -6.28552         2.93569         2.80019
LJ        -0.0771686         3.29766         6.14019
LJ          -2.25158         5.86188        -6.27843
LJ          -2.57342       -0.545697        -4.28673
LJ           6.45705        -4.47083        -6.20575
LJ          -1.88872         4.80576         5.61987
LJ           5.38203         6.10591         3.48031
LJ             0.583         3.38278         3.25784
LJ           5.35254        -3.56937        -6.26352
LJ           3.78794        -1.80788         5.43988
LJ          0.524257       -0.213402         3.46357
LJ       -0.00672235         2.64924         3.30208
LJ          -4.31566         4.34809        -5.13221
LJ          -4.54458         1.86191        -4.77206
LJ           5.74067        0.590257          3.9003
LJ          -6.44688         4.00144         5.46464
LJ          -5.15565         6.43064        -2.59159
LJ          -5.75208         4.37675        -4.03577
LJ           5.41414         2.48341        -1.07272
LJ          -1.54925        -5.62904        -2.67202
LJ          -2.54912        -1.17954         5.62366
LJ           2.52561       -0.687525        -5.43519
LJ          -1.56706        -4.22926         1.93898
LJ          -1.84232         5.15912         2.17553
LJ            3.9402         2.52867         -1.7252
LJ            2.0035        -1.65996        -5.56745
LJ           2.84391        -4.20699         3.80446
LJ           4.96817         -4.5001        -3.22684
LJ           4.87037         3.98004        -3.68288
LJ           3.06054        -6.07297        -4.37203
LJ           1.95101        -4.57197          1.9513
LJ          0.744464       -0.756922         1.32953
LJ           4.27262        -4.67707         5.10705
LJ           5.20748       -0.614651         4.26021
LJ         -0.941675        0.396524        -4.59333
LJ          -4.64589        -2.48659         4.71242
LJ          -5.54911        -3.88914       -0.557513
LJ          -3.67378       -0.864741         3.75239
LJ          -3.84293        -3.90479        -6.19559
LJ           4.26288         2.71294         6.19367
LJ          -3.17128         2.50631       -0.372744
LJ           1.80104         3.69126        -3.88114
LJ          -1.12026       -0.625964         2.46415
LJ          -1.63937         2.60678         1.53961
LJ           6.42072       -0.509577         4.17482
LJ         -0.052274        -6.20731        0.768617
LJ          -4.41166         4.45104         0.54521
LJ          -5.40358         -3.5648        -2.01945
