108
#Comment!
LJ           5.08259        -1.57557         4.13886
LJ           4.84902        -5.94922        -2.82233
LJ          -2.98683         1.03839         1.41296
LJ         -0.661776         2.57635         2.33678
LJ            4.0559         4.84104           -5.84
LJ          -1.28325        0.101861          2.3788
LJ          0.708001          4.9245        -4.89206
LJ           3.37282         6.37705        -5.08246
LJ          -1.65483         3.49584         6.30933
LJ           4.27967        -5.82028        -5.66689
LJ          -4.76567        0.548805        -6.34253
LJ          0.429601        -2.38954        -4.57565
LJ           3.15979         5.59423        -4.09072
LJ          -1.03456        -6.23617         4.21236
LJ          -2.50577        -1.19414         1.32657
LJ           -4.8993         4.14034         5.66029
LJ         -0.557476         4.37807        -4.46416
LJ           1.40724        -3.26755        -5.19985
LJ         -0.264648         -3.6509         3.90344
LJ           5.89774         2.72144        -5.44426
LJ           5.35232         5.28667         2.36687
LJ          -2.33446         2.42452        -5.26302
LJ          0.918545        -5.24815         6.31808
LJ          -1.56559        -5.78371        -5.69165
LJ        -0.0222917          5.0197         5.73484
LJ         -0.783019         2.64965        -4.10594
LJ            6.0018        -2.84322         5.82825
LJ          -1.76818         3.18448       -0.319191
LJ             4.975        -4.16046        -2.21373
LJ          -5.31989        -1.62805        0.107028
LJ          -2.35219         3.15515        -3.69193
LJ          -4.30069         5.97277         5.38457
LJ           -3.0978        -5.73776        0.412451
LJ          -2.58521         5.56023        -4.57594
LJ          0.979841        0.739986        -0.45636
LJ           5.29715         4.36752          4.0224
LJ           2.17815         3.84172        -5.15532
LJ           1.84298        -5.76255        0.811787
LJ        -0.0756959        0.549338         4.88066
LJ          -5.67196        -2.45964         3.94927
LJ           2.11037        -4.30519        -1.05759
LJ           1.00063        -5.26955        0.313649
LJ            5.8415           4.986        -4.06163
LJ           1.94115         5.26491         4.95419
LJ          -3.51484         2.40828         5.92386
LJ          -1.69703       -0.710759          4.8851
LJ           2.84831          3.9124        -2.41695
LJ           4.83668        -6.30123          5.2069
LJ         -0.810801       -0.241777         -3.6919
LJ           4.21155         2.83026         1.01655
LJ          -6.18121        -2.03352         6.35523
LJ           3.71628          0.8737         4.44587
LJ          -2.69245        -2.88162        -6.30636
LJ          -4.88123         2.27831           -1.41
LJ            4.5006        -5.64195          4.3041
LJ           6.08168        0.339862        -2.40318
LJ           4.52515       -0.184153         5.46027
LJ          -1.55675        -4.86325        -2.94923
LJ          -0.81656          3.7895         4.30401
LJ          -2.54981         5.26515        -6.02596
LJ            5.8587         4.52724         2.60005
LJ          0.495217         3.60261         6.03482
LJ          -2.69729         6.40723         5.52218
LJ          -2.82215         -0.2223        -3.80544
LJ          -6.32884        -5.41108         5.98411
LJ          -1.13423         4.82758          4.9837
LJ           5.70091        -5.92782         4.45558
LJ          0.957779         4.12825         1.94193
LJ           5.39074        -4.38662         6.27439
LJ           4.47187        -2.55069         4.56377
LJ          0.436261        0.137587         2.99565
LJ         -0.853061         2.18053         3.58308
LJ          -4.29409         3.20117        -5.28079
LJ          -3.18438         1.99925        -5.46689
LJ           6.26948        0.758169         2.97352
LJ          -6.02546         4.13244         5.88978
LJ          -5.71644         6.02084        -2.83138
LJ            -6.352         4.23259        -4.00317
LJ            5.9214         2.39606       -0.538817
LJ          -1.59604        -6.02695        -2.62645
LJ          -3.10028       -0.866344         4.55806
LJ           3.63491       -0.916905        -4.91841
LJ          -2.53196        -4.40313         1.73951
LJ          -1.17068         3.59184         2.00231
LJ           3.60632         3.52219        -1.27917
LJ           3.15458        -1.83074        -5.61684
LJ           2.60055        -4.21633         3.26559
LJ           5.01791        -3.90477         -3.2167
LJ           5.27755          3.6966        -3.33286
LJ           2.07109         -5.6502        -4.13345
LJ           1.84751        -5.06824         2.73956
LJ           1.02341       -0.698136         1.38429
LJ           3.14338        -5.65775         4.90006
LJ           6.10451       -0.286472         3.61363
LJ         -0.577061        0.790214        -5.05697
LJ          -4.70065        -2.81059           4.416
LJ          -5.94007        -3.29283       -0.431834
LJ          -3.54565        0.131512         3.86432
LJ          -3.36147        -3.73982         6.06594
LJ           4.16323          3.9051        -5.21486
LJ          -3.17546         3.60862        -0.92604
LJ            2.2052         3.78266        -3.27603
LJ          -1.64145       -0.653335         3.24822
LJ          -1.64177         2.71505          1.4851
LJ          -5.88042        -1.50779         3.81919
LJ         0.0310809        -5.51008        0.721248
LJ           -4.3272          5.0379      0.00967055
LJ          -4.60589         -3.7025       -0.884574
