108
#Comment!
LJ          -5.14627         6.44865         1.73016
LJ          -1.55697         5.30001         -5.0149
LJ          -1.44655        -4.89424         1.40961
LJ          -5.37748         -5.9886         5.08311
LJ          -3.64344        -5.10104         0.33469
LJ          -1.58718         1.62812         5.96597
LJ           4.73345        -3.46345        -2.09426
LJ          -5.98596         1.60227        -5.65245
LJ           2.56156         4.26598         1.91689
LJ           6.22563         3.00299        -3.95892
LJ          -5.48673        -4.59971       -0.118561
LJ          -3.60077        -4.69997         5.79887
LJ         -0.463762          1.7098          3.1836
LJ         -0.248678       -0.827512        -1.24821
LJ          0.438742        -2.53681       -0.369916
LJ           2.88738         4.48178        0.140383
LJ           3.56689        -3.97142      -0.0110864
LJ           5.85262        -5.96866         4.81786
LJ          -1.79801         5.01876         1.41022
LJ          0.310294         1.50255         1.48234
LJ          -5.12072         1.95197       -0.254867
LJ           -2.7746         5.71747         4.82537
LJ          -3.81335         5.18006        -4.86118
LJ          -3.92485         4.03813        -1.58955
LJ           1.76582         5.39015         5.71844
LJ           3.06415          -0.607        -4.83057
LJ           5.84448        0.271362        -3.44151
LJ          -5.28536         0.75623        -2.69394
LJ          -2.75143        -2.08236        0.335451
LJ          -6.07044        0.688241        -1.93723
LJ          -4.40123        -6.44965         4.91281
LJ           5.80124         -3.9549        -1.45955
LJ          -4.34444         1.69247          -1.156
LJ           4.09902        -3.78599         -3.2622
LJ          -4.68444         3.78638         4.35478
LJ          -1.58687         5.75835        -1.64013
LJ           2.85737        -6.29236        -6.21435
LJ          -2.87856         4.20031         1.65971
LJ           1.33363        -2.91366          4.0784
LJ          0.232406         4.18988       -0.379132
LJ           2.52852        -4.62178         4.53643
LJ           5.48471        -2.77845        0.685313
LJ          -2.13881         1.15651        -3.25059
LJ           4.17714         6.18945         -1.7377
LJ           2.85108         5.14813         5.90134
LJ         -0.766306        0.818838        0.758965
LJ          -1.57998        0.779396        -1.31039
LJ           3.19149        -4.21346        -1.90992
LJ           1.58532        -4.40344         5.43755
LJ           5.94101        -4.99379         5.62589
LJ           5.71178        -5.84518        -5.28151
LJ           4.70966         4.52977         1.07532
LJ          0.952607         6.24613       -0.847316
LJ         -0.650813         3.69238        -1.88349
LJ          -6.43547        -1.14616        -4.59229
LJ           1.44444         4.01545          4.1623
LJ         -0.965896          4.8753        -4.03762
LJ            4.6121        -6.07998       0.0144966
LJ          -1.04527        -4.83752        -5.57902
LJ           6.02663         -3.5607       -0.476127
LJ          -1.19133         4.33539        -2.89384
LJ           3.80685         1.69357        -4.34625
LJ          -5.84809         -4.1408        -6.17652
LJ         -0.921972       -0.976952        -5.99963
LJ          -1.71676        -0.19003        0.151426
LJ           2.34888        0.111768        -3.50779
LJ          -3.41947         6.26844         3.02387
LJ          -2.08802        -6.02716         1.37431
LJ           2.94515          3.8212        -6.34686
LJ          -3.93319         2.24873        -0.44455
LJ          -1.63211        -1.02075         -2.8953
LJ           5.00828        -0.91753         1.57159
LJ          -3.41178        -1.53799        -2.87841
LJ          -2.38097        -4.02306        -2.33869
LJ           4.51202         5.55217       -0.380632
LJ           2.61906         3.45044        0.940184
LJ         -0.375065        -4.84651         4.79038
LJ          -4.21467          5.6196        -6.14559
LJ           2.04978         -4.7774        -3.59521
LJ           3.07247         3.88583        -2.29128
LJ           2.47366         5.91231         -1.2196
LJ          -2.80082      -0.0632796          5.0774
LJ         -0.766665        -1.86546        -4.84808
LJ          -3.14621         4.20455          5.3505
LJ           4.98536         4.97428        -5.82471
LJ           3.92341       -0.327162        0.180777
LJ           -5.4737         3.15388       -0.736565
LJ         0.0321676         2.71651         -5.5412
LJ           5.44758         1.81254         1.47173
LJ          -4.40675        -5.34749         3.36656
LJ            1.9985        -2.49086         4.80012
LJ           5.13578        -4.14439     0.000648084
LJ           2.52561         6.30032         3.14061
LJ          -1.85336         4.16774       -0.644299
LJ         -0.971921        -4.55622         -3.2395
LJ           5.50612         6.26624        -1.96116
LJ             3.129        -3.63739        -4.23161
LJ          -2.58891         -4.5253        0.824453
LJ          -2.79432          3.8667        -1.07909
LJ         -0.899797         3.49345         4.49672
LJ           3.94811         5.44553        0.852779
LJ          -4.23346         3.23052         5.94617
LJ           3.88394          6.2931          3.5488
LJ           4.85993        -3.47592         5.53457
LJ           5.48708         4.45947         4.74659
LJ         -0.866182         3.01985         -3.0506
LJ          -3.62134        -1.81125         1.03422
LJ           2.01749         -5.7735        -3.25909
