108
#Comment!
LJ           5.12651       0.0285944         6.02322
LJ         -0.677605         3.90554         4.42566
LJ          -5.59038         1.61883         3.91221
LJ         -0.517479         5.12528         2.76339
LJ           4.29151         4.75244        -3.39689
LJ           4.30934         3.05716        -2.61987
LJ           1.09027         3.18679         5.92332
LJ           2.60311         5.53318          3.7346
LJ           1.29137        -2.79426         3.05417
LJ         -0.955852          2.1406         1.70766
LJ           5.25312         1.60584        -2.67101
LJ         -0.928221         1.90936        -5.26932
LJ          -3.03503       -0.758928         5.21747
LJ          -6.36936         3.79305        -5.43569
LJ          0.110975         2.81787         6.15061
LJ           -3.0275         1.52236       -0.348241
LJ          0.802854        -1.36567        -2.21097
LJ          -1.50498        -3.30593       -0.618138
LJ           6.35984         -1.7148          5.8708
LJ         -0.448178         3.97805        -2.41139
LJ            2.3774         2.92079         4.97408
LJ          0.164441         1.62221          1.5927
LJ           3.72238        -3.06982         2.24398
LJ          -6.04615        -4.34241        0.203902
LJ          -3.57359      -0.0952391         2.70215
LJ          -3.90358        -4.86733         5.75804
LJ           3.66597        -2.87304        -3.04477
LJ          -3.81576         5.84692        -0.87589
LJ          -5.30108        -4.69381       -0.769195
LJ           1.71949        -3.12496       -0.657618
LJ           2.70915        -5.95326        -0.75793
LJ           1.99978         2.25835        0.228693
LJ          -0.63227        -2.56329        -5.74293
LJ         -0.365086       -0.466936        -1.06585
LJ          -5.34338       -0.281628        -3.08635
LJ         -0.237179         4.29409         1.08656
LJ          -3.17615        0.735912         4.58521
LJ          -2.83696        -3.98394         3.43211
LJ           1.21786        -6.03834         3.09996
LJ           1.63771         3.94956         4.57768
LJ           5.23575          1.0085        0.631844
LJ          0.130201         5.06853         4.75254
LJ          -4.69535        0.522291         1.39194
LJ           3.11484         6.17526        0.166442
LJ          -3.72041         4.49854        -4.53835
LJ           3.85006        -4.55467        -2.03557
LJ           1.28416         1.20131          4.1101
LJ          -3.76576        -5.85909        -1.99447
LJ          -5.77148        0.332029        0.720335
LJ          -5.63648        0.700295        -2.39235
LJ           4.72078        0.811047        -1.96377
LJ           2.59653        -3.19437         4.53077
LJ          -6.02181         2.60353        -3.47769
LJ           5.89321         4.75568      -0.0954156
LJ          -3.99568         1.64674         5.02883
LJ           3.78826         0.40307        0.683149
LJ          -1.04857        0.273941         1.65023
LJ           4.62877         4.90948        -5.71888
LJ          -5.10342         2.19599         1.21678
LJ            2.0468       -0.421293         3.13651
LJ       -0.00887412        -6.40686        -2.91212
LJ          -1.18365         2.58803       -0.644251
LJ         -0.765091         1.26092        -3.07519
LJ         -0.726326        -4.15863       -0.118106
LJ         -0.954328        -3.51247          2.5004
LJ          -5.88268         3.93602         6.11556
LJ          -4.40983         2.12813         2.58026
LJ           3.51095        -4.25853        -4.24124
LJ          0.233277         6.28611         4.40956
LJ           1.91351      -0.0660677        0.088275
LJ          -4.81995         4.07732         4.49542
LJ           4.59977         2.08645        -3.39955
LJ            1.8342        -5.48271         -1.7131
LJ          0.994712        0.308964        -6.20074
LJ           3.01145         6.24348        -2.90374
LJ           5.36336        -1.86735        -2.24312
LJ         -0.271541        -5.02478       -0.685256
LJ          0.333614        -5.02396         4.16521
LJ          0.136429         2.57335        -3.58138
LJ           4.84388         5.68014        -2.74804
LJ           4.02928        -6.01505        -4.59816
LJ          0.733272        0.880984         5.85852
LJ           3.82477         -1.0056         1.35743
LJ           4.66819        -5.18327         3.93174
LJ          -2.23303        -5.66916        -1.99236
LJ          0.909578       -0.598049        0.977355
LJ           -3.3026        -1.73775      -0.0797313
LJ           1.79922        0.947117          6.3239
LJ           5.68895        -4.96956        -4.87537
LJ           1.62944        -3.95247         1.87099
LJ          -1.61039        -2.05373         4.10374
LJ         -0.499973       0.0843047         -6.3584
LJ          -3.78553        -2.82364         5.49736
LJ            4.8196        -5.84755        -5.36746
LJ          -3.69737        -0.75879         1.84016
LJ          -2.29845         5.76624       -0.815412
LJ           2.86368         1.64191        0.821193
LJ           3.68746         5.78986        -5.93773
LJ          -2.98817         -5.1182        -3.89816
LJ          -6.16308        -3.99566       -0.939078
LJ           1.68976         1.89812        -4.82467
LJ          -3.10219         5.42175       -0.159847
LJ          -1.38225         5.02099        -2.09586
LJ          -2.55435         -4.0267        -4.98947
LJ          -3.38777        -6.23065         5.80785
LJ         -0.765839        -1.90962         3.00381
LJ           2.86534        0.475716          3.2327
LJ          -5.35144          1.6782        -3.35647
