108
#Comment!
LJ           3.04855         1.72202         4.53415
LJ           2.53932        -6.39763       0.0902137
LJ           2.19122         2.34669         1.74552
LJ            1.4129        -6.13427         4.80775
LJ           2.95287        -5.17775         5.18987
LJ           3.23508         5.39119        -4.83206
LJ           2.15669        0.387988         5.73346
LJ            4.5463        -2.64164       -0.622422
LJ          -1.61355        -1.28819         5.00258
LJ           1.29804         1.18553         0.68578
LJ           4.70661        -1.28121         -3.6217
LJ          -1.97634         3.01896         5.28721
LJ          -2.94166        -3.98932       -0.577072
LJ          -2.66509         4.81748        -3.98114
LJ           1.08192        0.553384         6.03921
LJ         -0.132859        -2.62557         2.72884
LJ           2.83581        -2.56964        -1.13748
LJ        -0.0348786       -0.790173       -0.124383
LJ            3.5288        -4.18474        -4.31648
LJ            1.7523        0.186279         -4.4973
LJ           3.57317       -0.839056         4.37081
LJ         -0.176248         2.85904        -1.26785
LJ           4.70894        -3.95657        0.758896
LJ          -6.10834        -3.59846        -1.40911
LJ           -1.5206       0.0334325         2.87286
LJ           3.79466         6.39063         5.38374
LJ            3.3062        -1.57767          -2.591
LJ          -2.70784         5.75301        -1.06175
LJ           5.55563        -1.12352         1.35735
LJ           3.79267        -4.60443        -1.49202
LJ           2.40631         4.24869         1.13756
LJ           5.68436         2.60964         1.14372
LJ          0.507422        -3.51228         3.88162
LJ          -1.19716         4.77697        0.790992
LJ          -5.22675         2.40874        -5.03566
LJ           2.19123         5.42969         3.09866
LJ          -2.71407       -0.330506         4.26106
LJ           5.09345         -5.7191       -0.315722
LJ          -2.55437        -5.74948         5.59766
LJ           2.16568        0.662574          3.3926
LJ           5.86781         3.61694       -0.788631
LJ          -3.05903         1.12247         5.00279
LJ          -4.76248         2.00369         5.90365
LJ           1.93363          3.4992        0.531821
LJ          -5.85914         1.83053        -6.23329
LJ           1.85225         5.63332        -4.84373
LJ          -3.20596         -2.6203         2.88046
LJ          -3.16331         5.89899        -2.97714
LJ          -3.08638         1.41708        -1.40082
LJ           -4.3495        -1.28693       -0.802864
LJ           -4.2007        -1.38835        0.866156
LJ          -3.64323        -4.45828         -6.2509
LJ           5.73807         -3.9213         5.82036
LJ          0.303567        -4.17989       -0.976424
LJ          -2.23028         5.33295        -3.03633
LJ           4.75488         2.32545        0.313357
LJ          -1.95136      -0.0539512         1.04552
LJ           2.55529         5.15184        -1.55565
LJ           -5.9641         1.12743         3.11931
LJ          0.187328        -3.11066         1.38221
LJ           1.61779        -3.54745       -0.758951
LJ            3.4045         2.95622        -2.72595
LJ           1.89041         3.63212        -4.54349
LJ          -1.27305        -4.50102         2.89258
LJ          -1.84812         -3.3072         2.47237
LJ           4.98902        -4.07037          4.0883
LJ           4.56849         1.04771        0.674334
LJ          -3.42518         -2.4004        -5.34275
LJ          0.275416         4.41279          4.0105
LJ         -0.326433         2.11446         1.33766
LJ          -2.04983         2.13097         1.53572
LJ           4.19903       -0.337407         -3.9674
LJ           2.08003         -5.0692       -0.939111
LJ          0.474257         1.52874        -5.45633
LJ          -5.41047         2.71174        -3.96606
LJ           4.21192      -0.0262932        -1.49769
LJ          -1.31054        -4.96969         0.98694
LJ         -0.178775       -0.975455         5.86382
LJ          0.954507         2.21361        -1.87022
LJ           2.80097      -0.0730135        -1.25061
LJ          -6.42636         6.03546        -3.82468
LJ           1.60725         1.44358        -5.47378
LJ           2.02581       -0.792523         2.87286
LJ          -4.11793         5.72549         3.42075
LJ          -2.73663        -4.12104        -3.36054
LJ           4.35367       -0.526727          1.4863
LJ         -0.844593          -3.553          3.1541
LJ            1.1816         2.09993         -4.6955
LJ           4.91344          5.5621        -3.73148
LJ           1.17512        -5.66077         3.69529
LJ          -1.12012        0.775303         4.32955
LJ          0.931612        -0.41229        -4.48167
LJ          -3.05592          1.9269        -5.39606
LJ           4.23891         4.93579        -6.07487
LJ          -5.43007        -1.82992          2.9494
LJ          -4.27848        -5.77838        0.490564
LJ           4.66534         4.36068        0.680317
LJ           3.73594         4.35514        -5.17802
LJ          -4.45887        -5.41731         -4.2967
LJ          -4.94046        0.702357         3.23807
LJ            2.9278         5.38873        -3.08877
LJ          -5.69453         5.13092        -2.56415
LJ          -1.63903         1.96893        -0.25909
LJ          -4.02039        -1.26425        -5.80365
LJ          -3.36983        -1.54631         3.36261
LJ         -0.567893          2.4986         4.68711
LJ           5.13383        -2.30254         1.08234
LJ           6.26959         1.58321        -3.30945
