108
#Comment!
LJ           5.33068         -3.2558         4.95421
LJ           5.68905        -5.65112        -4.84214
LJ          -1.25028       -0.444723         1.90499
LJ           1.55945       -0.348421         3.37826
LJ            3.1759        0.459764         3.62941
LJ          -1.47459        0.346306         2.80117
LJ          -2.83263           -6.01        -4.20742
LJ           4.33374         5.63957        -4.03602
LJ          -1.74018         3.34804         4.58547
LJ            1.4777        -5.70994         6.41496
LJ          -5.65987         2.65175        -5.21648
LJ         -0.169342        -3.20666        -5.76195
LJ           2.27323         4.56268        -4.96763
LJ         -0.645353        -4.02297         1.24877
LJ          -0.97743         1.36378         1.25636
LJ          -6.00303          3.8031         4.53039
LJ         -0.541055         3.60006        -3.70115
LJ          -1.58187        -3.52787        -6.01606
LJ         -0.920063       -0.543309         3.95772
LJ           4.08731         2.90216         4.07768
LJ            3.3791         5.40247         1.30453
LJ         -0.338414         2.76806        -5.44968
LJ           5.27299        -4.38101        -5.35224
LJ          0.738258        -4.34079         4.16736
LJ          -1.17685         5.52899         5.31412
LJ          0.996405         3.01351        -1.01337
LJ          -5.19633        -3.36692           6.169
LJ          -1.70409         5.27889       -0.835276
LJ          -4.59437         6.03755        -1.53616
LJ          -1.81267        -4.30504        -1.77812
LJ         -0.251892         2.71467       -0.802048
LJ          -5.11144         5.95189         3.49475
LJ          -2.54249        -5.91185        0.399799
LJ          -4.55659        -4.19704        -6.31501
LJ           1.36303         4.10326        -2.39071
LJ           3.22794         5.60536          2.5424
LJ           2.72003          5.7078        -4.73665
LJ          0.872626        -4.62084        0.994123
LJ          -2.30874        -2.41382         5.71056
LJ          -5.54403        -1.81436         4.04713
LJ          0.229979        -3.17975        0.207866
LJ           1.90525        -4.60241         1.86831
LJ          -6.15259         3.48725        -5.02542
LJ         -0.322029         6.10968         2.33118
LJ          -2.24669         2.37348         6.45187
LJ          -1.59775        0.371822         1.05609
LJ           3.12746        -4.56574        0.817705
LJ          -3.43399         6.14757         5.50779
LJ          0.960082        -2.92006        -4.74348
LJ           3.68784         5.27368        -3.44063
LJ           -3.6526        -3.29995        -5.40759
LJ           4.50283       -0.849571         1.80667
LJ          -3.30501        -1.50551         3.43401
LJ          -2.22659         4.00447        0.173837
LJ           4.87877        -5.56449        -5.54845
LJ          -1.44646        -1.32516         3.46754
LJ           5.20408       -0.421692        -3.11017
LJ           -1.0307        -3.99315        -3.91667
LJ          -3.68478         4.40278        -5.58329
LJ          -3.55836        0.803568         -5.0145
LJ          -4.41034       -0.791635         3.25343
LJ          0.599034         2.06671        -5.52267
LJ          -3.72947        -5.97055        -6.14998
LJ          -1.76953       -0.787032        -5.37307
LJ           6.24824         -2.0945        -4.74092
LJ          -3.19254         5.56286        -5.67804
LJ           2.59415         4.27422         1.18981
LJ            2.1395         4.71978         6.21759
LJ           5.46706        -1.52887        -6.14219
LJ             2.632        0.157524        -5.78223
LJ          0.323019       -0.769905          4.4464
LJ          -0.12279         1.25728         2.64268
LJ          -4.43552        -6.12625        -4.72305
LJ           5.56613          2.2598         -2.0277
LJ           2.59565        0.617971         6.06276
LJ           5.63119         4.09566         4.47596
LJ          -3.88445        -5.31061        -1.99611
LJ          -5.29378         4.91801        -5.03764
LJ           3.90405         2.88528        -2.38117
LJ          -1.42947        -4.56656        -2.90468
LJ         -0.726929        -2.36431        -4.82519
LJ          0.433363        0.804012         6.16184
LJ          0.751436        -4.28611         2.33189
LJ          -3.35399        -4.14187         2.50977
LJ           4.85155        0.437865        -2.54415
LJ          0.357543       -0.886225        -6.42675
LJ           3.40417         -4.3167         5.03367
LJ            5.6258        -6.18363        -3.22858
LJ           5.26887         2.87987        -5.00319
LJ           4.14963        -6.14346        -4.14231
LJ           1.46462        -3.52593        0.841631
LJ            1.1885        -1.56679        0.878766
LJ           5.44582        -4.38882         5.49134
LJ           3.43595       -0.286796         5.55242
LJ           -2.3296       0.0975415        -3.76015
LJ          -4.46452        -1.59243         4.01687
LJ          -4.75831        -5.28544        -1.14877
LJ          -4.22878        -2.95951         3.54179
LJ          -4.79023        -4.30626        -5.16224
LJ            4.4289          1.9312         3.36841
LJ          -3.57201        0.156348        0.775854
LJ         -0.768726         1.48249        -5.09304
LJ         -0.421025         -0.4434        0.109678
LJ          -1.45147          2.1022         1.75947
LJ           6.00857       -0.113409         5.28214
LJ           0.43586         5.80823           1.045
LJ          -4.52105         2.98053         1.70981
LJ           5.76466        -3.61231        -4.47939
