108
#Comment!
LJ           1.93384         2.04905         3.71425
LJ           2.51541        -5.52937       -0.954545
LJ        -0.0746513         2.05897         1.04427
LJ           2.41636        -5.45198         5.39244
LJ           2.79628        -4.66013         3.28769
LJ           4.10629          5.2591        -5.78798
LJ           3.53449       -0.739839        -6.32009
LJ          -5.71684        -1.14233       -0.923175
LJ          -2.78695        0.463807         6.09477
LJ           1.40136         1.83366      -0.0763774
LJ           4.41418        -3.09085        -4.10819
LJ          -2.13957         3.26072           4.001
LJ          -2.50372        -4.97217        -3.19259
LJ         -0.508263         3.54036         -4.5513
LJ           2.43455       -0.718257         5.92437
LJ          0.957876         -1.9754         4.00722
LJ           2.23172         -1.5076        -1.55754
LJ          0.718885        0.074885       -0.244173
LJ           2.65941        -4.43017        -3.26844
LJ           2.59674       -0.328151        -5.56657
LJ           4.77293        -2.30771         5.09494
LJ          -1.08783          4.5588        -2.88044
LJ           5.27565        -4.73171       -0.391233
LJ           -5.9712        -2.93413        -2.07832
LJ         -0.698599        0.586735         3.07319
LJ            1.2312         5.22921          5.4698
LJ           3.06056        -1.20782        -2.26503
LJ          -2.84702        -6.27413         1.50113
LJ          -6.36987        -2.00342         1.13921
LJ           4.52603        -5.08128        -1.35747
LJ           1.88965         2.82786          1.8025
LJ          -6.35344         2.27663         1.57177
LJ          0.610361        -5.25564         3.30088
LJ           -1.6751         6.41699         1.41242
LJ          -5.95618         4.19365         -5.6055
LJ           2.80878         6.44627         3.90024
LJ          -2.01586       -0.468721         5.04695
LJ           4.68072        -6.08717        -2.83944
LJ           -4.3874        -6.06218        -6.11758
LJ            2.0418         1.00784         3.36013
LJ           6.03776         4.50312        -1.09048
LJ          -4.65104      -0.0767273         5.20122
LJ          -5.31194         1.72139        -5.24949
LJ           1.84553         2.65627        0.717873
LJ          -5.52829         1.32948         -6.3799
LJ          0.932892          4.8312        -6.01738
LJ          -4.47643        -4.81865         2.15436
LJ          -2.56323         6.22643        -2.21017
LJ          -1.93804         1.79771        -2.17411
LJ          -3.73053        -2.13782      -0.0141265
LJ          -2.63152         -2.3357         2.15311
LJ          -6.35135        -4.51153        -5.17279
LJ           5.34958        -1.13825         4.30012
LJ          -1.41386        -2.39547        -2.27758
LJ          -1.94304         6.08849        -3.14489
LJ           5.73797         2.86872        0.815125
LJ           -1.9898      -0.0802873        0.808925
LJ           2.00338         5.01719        0.121817
LJ          -5.87649         0.90431         3.53086
LJ         -0.798192        -4.36026        0.747979
LJ           2.54622        -2.88642        0.261918
LJ           5.22616         3.19829         -3.8702
LJ           2.15875         4.33544        -4.01806
LJ          -1.95956        -4.36622         3.47807
LJ          -2.37709        -2.96952         3.44129
LJ           2.08081        -6.11507         2.76752
LJ           2.83001         1.11496       -0.141265
LJ         -0.825399        -1.38776        -3.94518
LJ          0.354184         3.85372          3.5347
LJ         -0.764678         1.94261         2.15032
LJ         -0.906536         1.46046         1.00534
LJ           4.81461        -2.12163        -4.38516
LJ            1.6684        -6.01217       0.0275658
LJ           1.45414         2.25132        -4.86219
LJ          -3.86347        0.970232        -4.89679
LJ           3.19593        0.983791        -1.08194
LJ          -1.41037        -5.15494         1.23366
LJ         -0.117087        0.959243         5.53319
LJ           1.37085         2.53141       -0.805097
LJ           2.40428        -1.89651      -0.0894974
LJ          -6.05475        -6.39827        -3.92008
LJ           1.48931        0.722463        -4.47436
LJ           1.03326        -1.74983          2.2361
LJ          -2.39844         4.90817         3.21752
LJ           -2.9615        -3.66687        -3.96436
LJ           3.76577         1.09156         2.53918
LJ         -0.640081        -5.18064         3.63057
LJ           0.89507         3.29891        -4.12862
LJ           5.11873         4.10409        -3.39323
LJ            1.2504         6.45157         4.57727
LJ          -1.82838        0.959056         3.91016
LJ          0.755656        -1.38829        -4.46154
LJ          -2.61589          4.3237        -4.41478
LJ           4.25685         3.96897        -5.83873
LJ           6.17675        -2.83751         2.99923
LJ          -5.15971        -5.22804        0.898517
LJ           5.49469          5.3929       -0.283894
LJ           2.66766         4.93564        -4.82517
LJ          -4.85049         -5.2048        -4.27439
LJ          -4.53688         2.57825         4.71742
LJ           2.45802        -6.31048        -3.09587
LJ           6.14635         4.77436        -3.53657
LJ          -2.05469        0.204689       -0.702284
LJ          -4.68757        -0.93098        -6.13443
LJ          -1.33266       -0.260927         2.21136
LJ          -1.03719         4.29507         4.96521
LJ          -5.95403        -2.88103        0.651378
LJ             5.961         1.65973        -3.63397
