108
#Comment!
LJ            4.6666       -0.980294         4.05775
LJ           4.42139         -5.6645        -1.80916
LJ          -3.74744         1.85836         1.02614
LJ         -0.356238         1.52645         3.16799
LJ           4.42774         5.96907        -4.49492
LJ          -2.16333       -0.826466         3.05455
LJ           1.89226         4.19032        -5.21739
LJ           3.88812        -5.25638          6.3533
LJ          -2.42298         3.40778         6.27176
LJ           5.20214        -6.35673        -4.75891
LJ          -4.42403       -0.478606         5.62657
LJ          0.361732        -2.71229        -3.96457
LJ           3.77784        -6.17341        -3.69389
LJ          -1.48935         6.25595         5.34785
LJ          -2.78892        -2.04142         2.25203
LJ          -4.27838          3.5502          6.3416
LJ          0.524245         3.52745        -3.87124
LJ           2.48646        -2.79639        -4.65277
LJ         0.0120701         -5.0747         3.65609
LJ          -6.42752         2.52496        -3.96202
LJ           4.66494        -4.88512         1.87658
LJ          -2.46356          2.1928        -4.98705
LJ         -0.895967        -5.96488         5.73081
LJ          -3.06245        -6.45792        -4.95208
LJ         -0.260771         4.29056         5.19074
LJ        -0.0452383          2.9308        -4.51776
LJ           5.50347         -2.6368        -6.43573
LJ          -2.14004         2.16594        0.105041
LJ           3.49169        -3.17461          -2.168
LJ           6.01045       -0.685597        0.840447
LJ          -3.12544         3.64207        -4.68776
LJ          -3.26932        -6.14962          5.9565
LJ          -3.34185        -5.49259        0.599108
LJ          -1.62427         3.96579        -4.09912
LJ          0.631163       -0.850128        0.477267
LJ          -6.10589         3.83346         4.56012
LJ           2.14455         2.77977         -4.6036
LJ           1.18935        -6.05739        0.703055
LJ          0.574527          1.8341          4.5084
LJ          -5.26468        -3.79849         3.25915
LJ            2.8108        -4.91875        -1.46871
LJ           1.16555        -5.63481       -0.330378
LJ           5.17427         5.07887        -3.14179
LJ           3.16789         4.45478         6.32673
LJ          -4.23229         2.46463         5.97271
LJ          -1.07389        -1.31837         5.84295
LJ            4.2547         1.74496        -2.40667
LJ           3.20303        -5.79512         4.35888
LJ           -1.6422        0.224219        -2.88857
LJ           4.50564          1.6777         2.79617
LJ           5.79162        -1.67275        -5.87463
LJ           3.72168         1.28097         5.76332
LJ          -2.98924        -4.08335         -5.5774
LJ          -6.03606         1.64688        -2.05883
LJ           4.28315        -5.17612         2.87035
LJ           3.86189         1.15332        -4.93029
LJ           4.04177        0.135018         3.34005
LJ           -1.7924        -5.35471        -2.51393
LJ          0.435351         3.95917         3.80465
LJ          -2.20599        -5.44572        -6.32982
LJ           6.42893         4.08599         3.58057
LJ           1.11987            4.41          5.7934
LJ          -3.59392        -5.98415         4.23674
LJ          -3.03576        0.265866        -3.10976
LJ            6.2722         6.39412         4.78916
LJ          0.440848          5.0586         4.32501
LJ           5.28088        -6.03279         4.64798
LJ           1.43841         5.19505       0.0469846
LJ           5.68684        -4.44454        -5.55841
LJ           5.93818        -3.02277         3.06441
LJ          0.124271        0.648907         2.25295
LJ          -2.39659          1.2271         4.13371
LJ          -3.87819         1.36247        -5.80367
LJ          -3.20986         1.91025         5.81896
LJ          -5.94595          0.6788         1.76558
LJ          -5.61119         4.20684        -6.36723
LJ          -6.34078         5.42256        -3.21924
LJ           5.92136         4.14066        -4.30528
LJ          -6.27564         2.27455        0.215139
LJ           -1.6735         6.34956        -2.57753
LJ          -3.02786        -1.24306         4.03681
LJ           5.12929        -1.51691        -4.35671
LJ          -3.93689        -4.77792         1.22741
LJ         -0.986676          4.7762        0.727553
LJ           2.95943          5.0221       -0.954995
LJ           4.94374        -1.86876        -5.51837
LJ           2.01667        -4.59236         2.40337
LJ            5.0287        -2.97298        -3.68848
LJ           5.76873         3.46263        -2.69393
LJ          0.695416        -5.06695        -3.86714
LJ           1.95904        -5.55167         3.93109
LJ           1.30713       -0.494984         1.44769
LJ           2.16163         5.70958         4.49291
LJ           -5.4027      -0.0117654         2.68173
LJ         -0.235058          1.6331        -5.71564
LJ          -4.65446        -3.33205         4.05015
LJ          -6.41138        -2.35283        -0.07456
LJ          -3.90862         2.38485         3.05122
LJ          -2.33535        -3.06046         5.58701
LJ           4.31787         5.61709        -2.87573
LJ          -3.11898         5.21071        -1.62889
LJ           1.74479         4.03406        -4.04101
LJ          -2.40698       -0.371378         4.11436
LJ           -1.8449         2.19644         1.08467
LJ          -5.51379        -1.17762         3.09449
LJ          0.512489        -4.55489        0.545397
LJ          -4.11233         5.82815       -0.829725
LJ          -3.49441        -3.89097        0.714696
