108
#Comment!
LJ          -6.01057         4.64561        0.947956
LJ         -0.847156         2.84374         -6.1502
LJ          -3.01669         6.20297         2.10412
LJ           6.24905        -5.26894         3.69335
LJ          -3.60291        -4.44813         1.08811
LJ          -1.34113        0.462268        -5.38298
LJ           3.31551         -3.9948        -2.45024
LJ           6.32395        -0.37646         5.82797
LJ           1.09377         4.77905         2.08331
LJ           5.95458         4.43316        -5.42412
LJ           -5.3237         6.35405        -2.11279
LJ          -4.97557         -4.3911         5.97118
LJ          -1.18374         1.01243         3.07839
LJ          -1.63632         1.71554        -3.00789
LJ           3.94105        -2.05308       -0.979386
LJ           3.33889          3.6862        0.123589
LJ           3.37914        -5.47262        -1.90428
LJ           4.05607         -5.2279         5.84243
LJ          -1.16076        -5.20551         1.72699
LJ           2.14795         1.63474         1.06576
LJ          -3.58719         1.32374         1.61217
LJ          -3.94205        -4.17593         3.76501
LJ          -3.41621        -5.05374        -3.99812
LJ           5.94965          2.8803        -2.58044
LJ         -0.500988        -6.38963          5.0656
LJ           2.78805        0.229166        -5.51894
LJ           6.29969       -0.604158         -2.1475
LJ           -5.5291        -1.74765        -3.32801
LJ           -1.9635        -3.89967        0.286778
LJ           5.86116        0.679179        -1.72595
LJ          -5.44906        -6.07125        -5.63522
LJ           6.26786         -3.9797        -1.43338
LJ           5.79123         1.88748       -0.787947
LJ           4.24298        -3.13747        -2.79891
LJ          -4.02826         2.02135         3.83107
LJ         -0.480483         5.22793        -1.95162
LJ           3.78104         6.28151        -5.80697
LJ          -2.72901         4.89397         3.42605
LJ           1.18339       -0.987772          3.6837
LJ          -1.57168         5.84039       -0.202926
LJ           2.99623        -4.10204          4.8896
LJ           5.51519        -2.93258         1.13051
LJ          0.234215         1.76209        -2.05526
LJ           5.31335         5.19726        -1.89584
LJ           4.19115         4.13156         6.26007
LJ           1.15534         1.53224        0.392164
LJ          -1.18585       -0.602042        -4.18686
LJ           4.52071        -4.43214        -3.68562
LJ           1.87863        -3.98863         4.25867
LJ           5.04041        -4.63562         5.88809
LJ           4.16226        -5.31476        -4.96049
LJ           4.46706         3.40477          1.6621
LJ           1.56724         4.95128         0.29177
LJ          -2.02457         4.47075        -3.41127
LJ           5.25577       -0.375042        -3.67425
LJ           0.77661         4.00819         4.19359
LJ         -0.874894         6.15787        -4.25828
LJ           4.20607        -6.15079        -1.09971
LJ          0.293709        -5.54428        -4.58884
LJ           4.97994        -3.46431        -1.39996
LJ          -2.18815         2.94239        -3.38237
LJ           4.15255         2.38301        -3.88195
LJ          -6.10996        -4.66034         5.99625
LJ         -0.635513        -1.76477        -4.83031
LJ          0.150105         -3.5874         1.36829
LJ           2.56775        -1.67355        -4.33255
LJ          -4.38829        -6.08827         3.09374
LJ          -1.03445          6.1115         3.66801
LJ           2.20838         3.51974        -4.85379
LJ          -3.40644         2.14092         2.69612
LJ          -1.78612        -1.71768        -5.14858
LJ           5.29038       -0.333838        0.872977
LJ           -5.9862        0.858155        -1.75983
LJ          -2.79031        -4.09296        -3.08724
LJ           2.36107        -6.00527        0.980972
LJ          0.858197         4.13078        0.448396
LJ           1.63244        -5.72759         6.09123
LJ          -4.22181         5.33218        -5.10857
LJ           2.74242        -4.21139        -3.97708
LJ           2.44409         6.42001        -2.24882
LJ           3.44233         5.82129        -1.18326
LJ          -2.21755       -0.491426         5.13496
LJ           0.90538        -1.27049         6.20315
LJ          -4.27129         3.32015         4.58052
LJ           6.26097         5.92884        -3.61361
LJ            5.4601       -0.204737         3.12177
LJ          -3.01074         2.21015        0.402918
LJ           1.59812         1.09173        -5.73454
LJ            -4.625         2.05557         0.21879
LJ           -4.7439        -5.31384         4.37537
LJ           2.97738        -1.62788         3.26573
LJ            3.0805        -3.39078       -0.116894
LJ           1.04166         5.14437         3.79101
LJ           -1.5679         5.50285        -2.15211
LJ          0.575732        -5.79463         -1.8201
LJ            6.2416         5.68727        -2.57359
LJ           4.55334        -1.81067        -2.72134
LJ          -2.90605        -5.31124        0.245831
LJ          -2.99737         2.98926       -0.545367
LJ         -0.994435         3.58887         4.90202
LJ           4.66161         4.41918         1.82664
LJ          -4.24903         4.49067         5.02929
LJ           4.29506         4.76403         3.29324
LJ           3.84195       -0.993766        -6.34335
LJ           4.75047         6.28905         3.52195
LJ          -1.92083         4.46102        -4.72255
LJ          -3.49001        -1.44009       -0.155872
LJ           3.33321        -5.32352        -3.87133
