108
#Comment!
LJ          -5.64054        -3.75112         4.26085
LJ          -2.74974         5.58757        -4.62872
LJ          -1.47357         4.49272         1.17198
LJ           5.08007        -4.37439         4.45829
LJ           4.56316        -1.50171        -5.02214
LJ          -2.16925         1.98606         4.61843
LJ           6.32359        -2.21699        -4.96339
LJ          -5.56795         4.47629         0.32092
LJ          -5.21068         3.28218         2.67847
LJ           4.80692         1.01577        -5.07913
LJ          -5.83226       -0.871632         5.44569
LJ          -1.41202        -5.05898          6.1959
LJ           1.65055         3.93904        -4.46634
LJ           5.07722        -2.89006         1.29063
LJ            5.6009        -1.29673        0.857279
LJ           4.74458         3.31472         2.43656
LJ           4.33727        0.317612            2.54
LJ          -5.34635        -5.13514        -6.36837
LJ          -3.15197         1.39552         3.50175
LJ          -6.08418         1.25345         1.71808
LJ           3.03648         3.74651       -0.809942
LJ         -0.200603         3.59581         5.19873
LJ           5.95986        -1.22673         4.51513
LJ           4.38821         -3.9867       -0.688433
LJ          -1.44402         3.93557         5.74272
LJ            3.1392        -5.21018         5.42283
LJ            5.2302         2.42067        -6.13007
LJ          -2.35701         5.44216        -1.49978
LJ          -3.24792         3.53822       -0.518119
LJ           4.35332         3.20729         -2.6745
LJ          -2.34711        -2.52954         2.31115
LJ          -6.25928        -5.82583        0.546891
LJ          -2.14099        -3.21023         4.71997
LJ        -0.0824045        -4.26599        -3.77235
LJ          -3.04543         -5.6463        -5.96972
LJ          0.428452        -6.23447          1.7161
LJ           1.20778        -4.93571         6.33054
LJ          -2.57161         2.43152         1.01558
LJ          -1.60405         -3.6723         -6.0503
LJ           3.77102        0.496045        -3.23621
LJ           1.13432         3.98649        -5.74876
LJ           5.66429         -3.7066           0.126
LJ           5.85339        -4.39008        -4.45613
LJ           1.16519        -3.08119       -0.717313
LJ          -4.67233         3.99364         5.60616
LJ          -6.45819        0.211467        0.730967
LJ           2.26021        -4.12619         5.18861
LJ           1.46032        -5.44026         2.80667
LJ            1.9241        -5.97167         -6.0516
LJ          -2.54405         5.91017         1.30595
LJ           -4.3369        -6.35266        -3.68384
LJ           4.98185        -4.98904        -1.34663
LJ          -2.49171        -4.12388        0.190657
LJ           1.56827         4.64088       -0.537921
LJ          -4.64276        -3.42961         5.05123
LJ           2.64957         6.04031       -0.548241
LJ          -3.45158         5.22592        -2.32141
LJ           4.35342        -6.18876        -1.68911
LJ          -4.16243        -4.91712         2.77977
LJ          -5.49988        -5.38568        -1.62356
LJ            5.4055         3.34424         -1.2805
LJ           2.73697       -0.325168        -4.60263
LJ          -6.28341        -3.19571         -4.4025
LJ         -0.149215       -0.652234         5.58642
LJ          -6.31491         6.11113        -1.90493
LJ           3.56536         4.14144        -1.97587
LJ         -0.183318         5.63827       -0.454241
LJ          -5.71661        -4.92749        -3.91397
LJ            5.6686         1.16906         6.07127
LJ          -3.09728          3.5878         -1.6784
LJ         -0.833301       -0.917099         1.88254
LJ           1.65023       -0.615686          3.7191
LJ           4.54464        -5.83626        -3.62371
LJ        -0.0482437        -1.38411       -0.182388
LJ          -4.06325         2.42319        -4.07246
LJ           5.25723         4.50201         1.88184
LJ          -1.74931          -3.378        0.888446
LJ           -4.2916         5.32759        -6.11998
LJ          0.763812         4.90405        -5.14276
LJ           4.37466        -1.97393        -3.22793
LJ           0.70279        -4.92033        -2.71011
LJ          -4.44642         1.30348         5.39221
LJ           5.25971        -2.05322       -0.823625
LJ          -3.86262         1.13681        -1.85535
LJ           3.30909         2.85423         2.21691
LJ             1.338        0.776463        -1.88586
LJ           4.74034         5.70197        -4.59797
LJ          -3.79293         5.53528        -5.18017
LJ          -1.49076         2.33083         5.84198
LJ           1.37815         6.01449      -0.0844696
LJ          0.185933        -4.38782         4.72518
LJ           5.13573        -4.90964       -0.281702
LJ           4.35122        -5.18381         3.55892
LJ           0.92284        -1.71043       -0.671964
LJ          -4.30263        -1.01202        -5.63683
LJ          -6.17014        -5.92049         2.09027
LJ            1.3686          5.1511        -3.67833
LJ          -3.62083        -3.85214         4.31382
LJ           4.76907        0.856916         -3.5998
LJ           1.11121         1.37274        -0.56271
LJ            3.9502        -4.41508        0.891778
LJ          -1.74916         1.47284         3.67185
LJ          -3.56528        -2.69691        -5.11711
LJ           -3.5261         3.75479        0.410181
LJ          -6.24508         1.07947         6.20383
LJ         -0.123278         3.61193        0.295904
LJ          -4.29408       -0.840415         4.86182
LJ           2.45165        -5.25077        -3.89775
