108
#Comment!
LJ           4.03243        0.861583            5.21
LJ          0.579234         5.46095         1.95684
LJ           4.57628          2.3052         2.56972
LJ          0.568724         6.20805         3.69649
LJ           3.33284        -6.41358        -5.70762
LJ           3.39204          4.1431        -4.14348
LJ          0.506513         1.84123         4.97625
LJ           3.17109        -5.19073        0.969656
LJ         -0.113749        -2.55012          3.8643
LJ          0.221921         1.47196         1.71515
LJ           4.48277         1.24009        -2.92943
LJ          -1.15184         2.41964        -6.40603
LJ           -3.3644        -2.87074          2.4351
LJ             -4.69         4.73358        -4.51088
LJ         -0.165794         1.93266         6.32277
LJ          -1.36627       -0.720656        0.839375
LJ           1.89923        -2.67052        -1.55224
LJ         -0.833905        -1.86091      -0.0672455
LJ           4.69874        -2.82968        -5.71621
LJ           1.35445         2.41588        -3.35433
LJ           3.01041        0.958828         4.46205
LJ           1.21919        0.773596        0.453985
LJ           3.95229        -2.75816         1.73104
LJ          -6.32037        -4.33649       -0.552198
LJ           -2.0699       -0.093083         2.76289
LJ           -6.4486        -4.79969         5.42836
LJ           3.79194        -1.93095        -2.61533
LJ          -3.03501         5.79815        -2.65673
LJ          -6.09338        -2.68911       0.0755267
LJ           3.17956        -3.88857        -1.02132
LJ           2.70336         5.60459        0.223248
LJ           4.08735         2.80656        0.262566
LJ          0.215059        -2.56097         5.06004
LJ         -0.696559         2.33111        0.200142
LJ          -5.10014        0.875776        -4.25419
LJ           1.29334         4.53849          2.1378
LJ          -3.34411       -0.263259         3.66214
LJ          -5.44001        -4.91915         1.50388
LJ         -0.565889        -5.20755         4.32814
LJ           1.95607         1.92527          3.8614
LJ           5.55596         2.48573      -0.0851816
LJ         -0.919258         2.45338         4.73189
LJ          -4.64325         1.17077         3.83365
LJ           2.41298         4.61148        0.294226
LJ          -4.87323         2.99966         -5.5543
LJ           2.94863        -6.24177        -3.32154
LJ         -0.773944       -0.693722         3.61451
LJ          -3.59207        -6.05868        -2.13946
LJ          -4.31443         0.95859        -0.37146
LJ          -4.87391       -0.297106        -1.58932
LJ          -6.17927       -0.305307       -0.591188
LJ         -0.602194        -4.25643         4.90103
LJ           5.82147         5.75476        -5.55974
LJ           3.07648        -5.82409       0.0856403
LJ          -2.84282         3.68933        -4.83957
LJ           4.18193         1.06103        0.394837
LJ          -1.76374       0.0792369          1.6013
LJ           3.28268          5.2429        -3.56715
LJ          -6.07733         1.32652         2.54954
LJ           1.35145        -1.92475         2.16862
LJ          0.632906        -4.98164        -1.98492
LJ           1.29445          2.8703         -1.5256
LJ          0.493794         1.88618        -4.54175
LJ         -0.892811        -4.77318         1.59194
LJ          -1.37703        -3.52051         2.06186
LJ          -5.69019        -1.08634         5.59018
LJ          -5.89677         1.87713         1.25648
LJ          -6.32792         -3.0642        -6.05796
LJ          0.172856         5.07284          4.6122
LJ          0.960263         1.90619        0.406633
LJ          -3.37602         3.09623         2.95435
LJ           3.61923         1.00487        -3.77198
LJ           2.01225        -4.47171        -1.51438
LJ          0.900308        0.499896          -6.071
LJ           5.57284         4.62307        -3.39843
LJ            4.5001        -1.24773        -2.01887
LJ         -0.950242        -4.60281        0.430846
LJ         -0.363785        -3.18637         5.91828
LJ         0.0910822         2.13679        -2.54469
LJ           4.06544         2.10074        -2.51179
LJ           5.48826          5.7737        -3.90455
LJ           1.15357         1.47905         5.95264
LJ            2.9921        -1.00875         2.55224
LJ          -6.09795        -6.25236         3.65749
LJ            -2.532        -4.74238         -2.6253
LJ           2.12986       -0.562996        0.706841
LJ          -1.77357        -2.52563          2.1592
LJ           1.17191         1.21663        -5.23244
LJ           5.24357        -5.77308        -4.25334
LJ           1.21153        -4.99546         2.98342
LJ          -1.23174       -0.488332         4.58385
LJ          0.274798        0.413287        -4.70915
LJ          -3.59557       -0.807238         6.38498
LJ           4.28602         6.22648        -5.96415
LJ          -4.04884       -0.738165         3.07234
LJ          -3.21189        -6.39532      0.00476489
LJ           3.76214         2.88115         1.42755
LJ           4.77424         5.25574        -5.54914
LJ          -3.66051        -6.03425        -3.74426
LJ          -5.44882        -1.45134         1.45795
LJ           3.34485         2.77518        -3.26782
LJ           -4.6067         5.10703        -1.31869
LJ          -1.48599         3.51014       -0.997621
LJ          -3.24405        -2.51462        -5.35503
LJ          -4.52207        -3.41988         5.11931
LJ         -0.728026         1.02739         4.14479
LJ            3.0711       -0.547026         1.61282
LJ          -6.14789          1.6641         -3.0948
