108
#Comment!
LJ           -6.4193         -1.0513          -6.004
LJ        -0.0296673          3.6772        -4.36254
LJ          -5.35406          2.2217         3.37955
LJ          -1.72772         3.20775         1.88671
LJ           5.74801          2.7469        -1.33777
LJ           5.84411         2.25428        0.261223
LJ           1.41562         3.90542        -5.81613
LJ           3.63258         3.45118        -6.17935
LJ            3.1552        -3.31413         1.77778
LJ          -2.85123         3.20587         2.15098
LJ           5.34015         1.38664        -3.20244
LJ           0.27081         1.58018        -4.23518
LJ         -0.941999         2.40046        -6.32642
LJ           4.83439         2.47318         6.07364
LJ          0.652074         3.83731         6.07245
LJ          -4.29779         3.80529       -0.820639
LJ           -1.0429      -0.0185444        -2.63948
LJ          -2.71333        -5.07314        -1.38696
LJ          -4.54786       -0.420115         4.39145
LJ           -2.9284         4.57011        -1.67606
LJ           1.15637         5.08701         6.38664
LJ         -0.310059          2.7584         3.00226
LJ           3.49291        -4.29783         2.64994
LJ          -4.37101        -4.57899        -1.87177
LJ          -5.55897       -0.995491         2.14596
LJ          -2.66436          4.6093         6.22388
LJ           3.59725         -4.4153         -3.4371
LJ          -3.20202         5.62948         2.03876
LJ          -6.13323        -6.20397       -0.508188
LJ         -0.220558        -2.40653       -0.325277
LJ           3.08962        -4.67028        -1.66358
LJ           1.08399         1.01421        0.632081
LJ          -2.33842        -2.83174         -3.5723
LJ        -0.0379298        -3.81963        -4.12573
LJ          -5.81055       -0.920615        -1.02841
LJ          -2.37269         4.14567        0.486782
LJ          -2.67417         2.51283         5.22492
LJ          0.297949        -4.61219         6.08482
LJ           1.93795         5.70871         3.07339
LJ        0.00687848         5.40896         5.49652
LJ           4.72447       0.0974505         2.13958
LJ          0.377446        -6.46327         4.04933
LJ           6.25755        0.278421        -1.29364
LJ           3.82272        -4.27653       -0.484414
LJ          -2.39577        -6.42446          -3.236
LJ           4.68284        -2.54063       -0.700439
LJ           3.91811         2.03099         2.42975
LJ          -4.26002        -6.20054        -1.78896
LJ           5.62688        0.670611         1.79643
LJ           6.15399         1.71974        -2.33134
LJ           2.29396         1.54336        -2.96213
LJ           6.15671        -2.57286         4.43694
LJ          -4.82615         1.33052       -0.883368
LJ          -4.63607         2.78805      -0.0868333
LJ          -2.19893        -2.40218         1.74656
LJ           3.62765       -0.470069         1.08306
LJ          0.354298        0.842286         1.47903
LJ           5.35504         6.39878         4.99482
LJ           -3.3365         3.97613        0.817507
LJ            2.1823         2.34629         4.52914
LJ        0.00792803         5.32406        -4.15266
LJ          -3.39974         1.08136        -1.47607
LJ          -1.73141         1.83316         -1.0522
LJ          0.244473        -3.95143        -2.39609
LJ          -1.26642        -6.05552         2.56943
LJ          -6.25761        -3.02384        -5.81858
LJ          -4.69784         1.38927          4.2224
LJ           1.19409        -4.05255        -2.94763
LJ         -0.616658         -4.3156         3.90281
LJ           1.00571        -1.05825         0.59634
LJ           6.21282         5.26646        -6.39137
LJ           6.22152         2.54308        -3.64593
LJ           1.68525         6.14434        -2.42185
LJ          0.527736         1.56423         6.38508
LJ          -1.36516        -6.15811         -1.9324
LJ           6.25094          -2.689        -2.53278
LJ          0.235847         -5.0271        -1.79497
LJ           2.72558        -6.17575        0.249868
LJ         -0.201433         2.81022         -5.4087
LJ          -6.30076        -3.48128        -2.09285
LJ           2.59421        -4.24803        -4.78687
LJ          -0.55815       -0.485755        -5.93379
LJ           4.77064         -1.0371        -1.20727
LJ           2.06549        -3.71551         4.15285
LJ          -2.15481        -5.86102       -0.920575
LJ         0.0479015       -0.367012         1.13021
LJ          -5.14476       -0.766756        -2.76737
LJ           2.22836        0.337779         6.31089
LJ           6.45708        -3.76372        -4.89475
LJ           3.40611          -3.366        0.481623
LJ          -1.65178        -2.24465         2.70388
LJ         -0.613274          0.1597         4.50653
LJ              -3.6        -4.06304         6.04304
LJ           3.58541        -6.37123        -4.57572
LJ          -2.77595        -1.03868         1.10556
LJ          -1.60329         4.94579        -1.96226
LJ           1.10127      -0.0249945       -0.306989
LJ            3.0828         5.66674         6.41624
LJ          -2.68743        -3.66831        -3.13492
LJ           6.10366         5.24097        -2.56611
LJ         -0.490173         1.86395         5.91072
LJ          -2.31282          5.8458         1.08976
LJ          -1.19679        -6.22756         -3.3224
LJ          -1.24851        -5.60803         -5.5527
LJ          -2.23415         2.83172        -6.09343
LJ          0.750587        -2.78347         2.81047
LJ           2.46625           2.253         5.72662
LJ          -2.36102        0.497418        -5.34381
