108
#Comment!
LJ           -3.4407         4.67486        -5.57911
LJ         -0.511159         5.60039        0.705737
LJ          -4.10079          2.0122         3.11214
LJ         -0.274615        -1.40639        0.664564
LJ          -4.54081        -1.14762       -0.415662
LJ          -3.67495         1.16743        -5.89216
LJ           2.35454        -6.18763        -4.94454
LJ          -5.32065       -0.460498       0.0408469
LJ          -5.69075        -6.34576         1.74104
LJ            6.1881          3.7204         5.35789
LJ          -6.12642        -2.65005       -0.434914
LJ             4.188        -3.13999        -4.43664
LJ          -4.12101       -0.938437         5.51911
LJ          0.353612        0.373471         4.08683
LJ           2.65181         2.04986        -5.07819
LJ           6.23786         4.50301         1.21313
LJ          -6.25091         3.24444        -3.73436
LJ          -5.52645         6.42559       -0.424052
LJ          -1.14059         1.58975         1.15237
LJ          -4.01199         2.90997        -1.72608
LJ          -1.24008         4.06426         5.90701
LJ          0.842249         2.64717         2.66671
LJ           5.17414        -4.18714       -0.978147
LJ          -1.23531        -2.92027         4.35704
LJ          -6.18459        -3.59387         2.66297
LJ          -2.02334        -3.72751        -2.69817
LJ           5.75739         5.40926       -0.759741
LJ          -2.56331         5.02645         6.26723
LJ           2.72475         4.81938        0.199014
LJ          0.817532        -2.22034        0.457442
LJ           5.75707        -2.42981        -2.80411
LJ           2.98975      0.00265237         -1.1654
LJ          -6.33766        0.119476         -2.9903
LJ           3.10546        -5.33257        -4.00618
LJ           6.25088       -0.624477         3.27647
LJ           -2.0195         5.53477       -0.637107
LJ          -4.10204         5.10475         5.13556
LJ           4.86129         3.58384        -6.05111
LJ           2.46051         3.94333         3.36262
LJ          -2.08411        -4.95564        -3.89005
LJ           3.21557        -1.10215         2.52032
LJ          0.670955        -5.02116         2.19543
LJ            2.8513       -0.309698        -5.17538
LJ           5.08674         0.14343         5.65458
LJ          -3.84947        -2.28311         3.66607
LJ           4.51858         2.61768        0.700813
LJ          -3.72043         4.02722         2.25073
LJ          -5.40737        -5.90853        -1.52614
LJ           2.57862        -2.32266         3.17237
LJ           4.65098         4.71834        -4.53276
LJ            3.2811        -4.14995         6.21243
LJ           1.22128       -0.486614         3.12919
LJ          -5.01687         2.36466         1.89748
LJ          -5.67816        -5.91302        0.677685
LJ          0.900781         2.18387        -3.03617
LJ           4.27846      -0.0602271         3.40551
LJ           1.72696       -0.629559        -1.08717
LJ           4.94109        -4.58264        0.638439
LJ           4.82727        -5.89639       -0.233864
LJ           2.42499         6.40996        -6.17954
LJ          -3.01518       -0.605634        -6.16202
LJ           1.80217        -5.26791          4.4179
LJ          -1.82295        -6.42417         1.45857
LJ          -0.61943        -4.86307        -2.77192
LJ          -2.03058         3.57565        0.215603
LJ            4.3542        -2.53252        -5.42251
LJ           5.24036         1.14698        -6.31493
LJ           3.71627        -1.76861        -4.63511
LJ          -1.29771         0.65192         2.34617
LJ        -0.0212915        0.240852         2.68721
LJ           1.93541        -4.84568       -0.985145
LJ           6.41383       -0.131632        -1.76957
LJ           1.70811         4.66226        -5.99871
LJ         -0.304412         3.90716          2.8799
LJ           5.30776         4.79879        -1.79867
LJ          -6.12734         1.75238        -1.38351
LJ          -2.97345         -4.5141         -3.5972
LJ          -5.01185         5.15371         3.75766
LJ          -1.48733         1.37165        -3.70947
LJ          -3.40455         -1.2031        0.947106
LJ           4.14699        0.959833        -5.58472
LJ          -1.85133        -2.04828        -5.72458
LJ           2.98038         5.86665        -2.03493
LJ          -3.05238         1.82321          2.2357
LJ         0.0284222        -4.76384         1.34144
LJ          -4.10655        -3.29032         1.99219
LJ            3.3621         1.06196         5.37778
LJ           1.33667       -0.153955         6.37275
LJ          -5.04482        -0.95088        -4.73791
LJ          -5.01921        -5.13304         2.54174
LJ           1.00363        -1.11687         1.02077
LJ         -0.573237       0.0462637         1.76012
LJ          -4.41632         6.25832        -6.01634
LJ          0.596448         6.23541        -3.39966
LJ          -5.02093         1.57952        0.999762
LJ          -5.04485         4.63218       -0.716465
LJ          -3.42037       -0.797081        -1.96737
LJ           3.47917        -5.25287         5.67644
LJ          -5.64902         5.26286        0.266683
LJ           5.66718         3.00984         -5.2841
LJ          0.448225         1.28088         2.68477
LJ          -1.59409         6.10804         4.49747
LJ           3.05233        -1.42951        -5.37081
LJ          -2.20382        -4.36729         6.15493
LJ         -0.743269       -0.847314        -2.93934
LJ           2.89975        -4.71226         4.10439
LJ           1.04191        -4.74504        -3.54423
LJ           5.17606        -3.21619         6.07917
