108
#Comment!
LJ           4.68541        0.369257          5.6947
LJ         -0.276255         4.44764         3.34592
LJ           6.15509         1.91201          3.3871
LJ        -0.0706551         5.67553         3.00376
LJ            3.5357         5.58121        -4.24958
LJ           3.81224         3.43956        -3.31291
LJ          0.870891         2.84595         5.30468
LJ           2.85159         6.45562         2.60336
LJ          0.761637         -2.8225         3.53682
LJ         -0.414277         1.89865         1.77612
LJ           4.76132          1.6213        -2.62707
LJ          -1.10097         2.11836        -5.67949
LJ          -3.42625        -2.11212         4.34553
LJ          -5.74321         4.27059        -5.04011
LJ         0.0627543         2.42618          6.1588
LJ          -2.38699        0.618522        0.111152
LJ           1.24578        -1.89505        -1.94827
LJ          -1.22704         -2.6745       -0.426483
LJ           5.63348        -2.12498         6.39278
LJ          0.440765         3.57636        -2.80833
LJ           2.68124         2.12581         4.72721
LJ           0.48052        0.919598        0.905646
LJ           3.66204        -2.58121          2.1185
LJ          -6.35419        -4.56954       0.0531623
LJ          -2.55754      -0.0392757         2.86706
LJ          -4.59162        -3.70085         5.57618
LJ           3.69119        -2.48429        -2.87862
LJ          -3.55979         6.04819        -1.96461
LJ          -5.42508        -3.82959       -0.656379
LJ           2.36704        -3.40686       -0.769669
LJ           2.72351        -6.39171        -0.35701
LJ           2.83334         2.55465        0.113875
LJ         -0.258899        -2.47662         6.33511
LJ        -0.0670718        0.728404       0.0510252
LJ          -5.20067        0.079532        -3.70591
LJ          0.449885         4.35803          1.4456
LJ          -3.28599        0.328662         4.29911
LJ           -3.9239        -4.37833          2.6269
LJ           0.71308        -5.48075         3.32419
LJ           1.67124         3.03308          4.4411
LJ           5.41961         1.66389        0.324851
LJ         -0.155298         3.89869         4.89478
LJ          -4.53336        0.501281         2.44379
LJ           2.77802         5.38694        0.240969
LJ          -4.14569         3.81913        -4.95858
LJ           3.49826        -5.24707        -2.57908
LJ          0.537575        0.429862         4.31429
LJ           -3.5393        -5.82605        -2.00885
LJ           -5.1675        0.574162        0.230842
LJ          -5.28412        0.439961        -2.10046
LJ           5.57988        0.367136        -1.40718
LJ           1.31165        -3.43433         4.46471
LJ           6.42522         3.87878        -4.35266
LJ           4.77056         5.71058      -0.0276398
LJ          -3.47357         2.49055         6.28607
LJ           3.95422        0.602196        0.541049
LJ           -1.3203        0.138904         1.64165
LJ           4.04484         4.72102         -4.8851
LJ          -5.81158         1.71096         1.72445
LJ           2.13012        -1.05769         2.61777
LJ          0.227639        -5.82921        -2.55029
LJ         -0.145418         2.72115       -0.975175
LJ         -0.335799         1.22761        -3.80581
LJ         -0.803571         -4.4266        0.692778
LJ          -1.13691        -3.51048         2.36513
LJ          -5.80749         1.83972          5.8915
LJ          -4.73672         2.24019         2.04037
LJ           4.80902        -3.76315        -4.97144
LJ          0.221248         5.80835         4.64131
LJ           1.67677        0.883251        0.023269
LJ          -4.21476         3.67988         3.85525
LJ           4.10714         1.54159        -3.84943
LJ           1.86939        -5.07337        -1.64774
LJ          0.792924        0.281836         -6.3184
LJ           4.22198         5.47345         -2.8756
LJ           5.03102        -1.60776        -2.14476
LJ         -0.518012        -4.91265       -0.342569
LJ        -0.0754058        -4.35383         5.01818
LJ          0.054799         2.31603        -3.08232
LJ           4.50311         4.42652        -2.56344
LJ           4.62525         6.21427        -4.60265
LJ          0.980688         1.01461         5.85307
LJ            3.0926       -0.981226         2.03488
LJ           5.56854        -5.63018         3.81659
LJ          -2.51872         -5.3516        -2.16758
LJ           1.34816       -0.686741        0.808416
LJ          -2.69496        -2.04367        0.842607
LJ           1.57237         1.19022        -6.25839
LJ           5.53213        -5.28967        -4.63156
LJ           1.23742        -4.61327         2.56409
LJ          -1.42376        -1.45509         4.30234
LJ         -0.167736         0.28928        -5.54616
LJ          -3.95344        -2.58739         5.64824
LJ           4.78204         -5.8887        -5.81339
LJ          -4.06179       -0.550026         2.29372
LJ          -2.56734         6.13243       -0.379123
LJ           3.25254         2.18233         1.22139
LJ           4.36227         5.73245        -5.53349
LJ          -3.23083        -5.70455        -3.76655
LJ          -5.88154        -2.73517        0.134593
LJ           2.57244           2.028        -4.05527
LJ          -3.82238         5.17786       -0.584813
LJ          -1.44017         4.40028           -1.64
LJ          -2.83654        -3.39366        -5.13576
LJ          -3.75794        -5.14424         5.51038
LJ          -1.13224       -0.646548         3.34899
LJ           2.69049      -0.0854397          2.2231
LJ          -5.71718         1.61941        -3.09859
