108
#Comment!
LJ           1.39099         6.18313       -0.312935
LJ           -1.8239        -1.23958         -1.3744
LJ          -2.12221         5.25751         4.04631
LJ           6.30837        -4.31078        -5.66625
LJ         -0.913005        -6.42999        -2.32695
LJ          -5.25618        0.386599         2.62217
LJ           5.58527        -2.68547        -4.38043
LJ           2.21649         2.86217       -0.596324
LJ          -2.79844        0.648913         3.50727
LJ          0.894583         2.23507        0.263437
LJ          0.271689        -4.01003        -5.11753
LJ          -5.58772         1.28511          3.4299
LJ          -4.13615         6.06559         3.05947
LJ          -5.64544       -0.966824        -6.01075
LJ          -3.30231        -6.18054          2.8344
LJ            5.3131        0.350445          6.3312
LJ           1.00788        -1.28921        0.382334
LJ           2.95966         2.01352        0.967978
LJ           4.26676          3.7533        -1.21194
LJ           6.25694        -3.30727        -4.90737
LJ          -2.79439         5.75033        -6.41437
LJ           1.33897        -2.00457        -2.00382
LJ          -3.85155        -1.85977       -0.890609
LJ            -5.624       -0.557862        -3.85393
LJ          -0.46649         1.31904         1.65881
LJ           6.27238         2.82187         3.69517
LJ           2.78642         1.11022        -0.19428
LJ          -2.18692        -3.16561        -6.15974
LJ          -1.82939        -2.77743        -4.69056
LJ           5.67391         4.57246        -2.91321
LJ         -0.264093        -1.88228        0.723633
LJ          -3.67921         2.84435         3.07388
LJ           1.81442           6.077         4.96114
LJ          -4.92512        -6.20632        -6.35589
LJ           3.31859         3.97174         4.32723
LJ           3.01309        -1.09524         5.01899
LJ          -1.73774       -0.171623        -4.15762
LJ          -3.99948        -2.76536         1.86969
LJ          -4.34166         6.44899         -3.0185
LJ           2.46862         2.82008         2.64521
LJ          -5.39427         4.96817        -3.98321
LJ           3.06237        -4.29124        -5.71571
LJ          -3.13285        -0.51474        -4.02582
LJ           2.06691          2.6398        0.893878
LJ           4.75272         2.07181        -2.31053
LJ           1.06222        -6.35861         5.42091
LJ           4.51996       -0.298715       -0.357749
LJ         -0.491375        -5.62333        -2.93063
LJ           1.90017         3.41219        -3.61189
LJ          -0.71065        -4.94211         3.75795
LJ           1.61775         5.94769        -5.68766
LJ         0.0271671        -4.62336         6.20855
LJ           5.02577        -4.56293      -0.0930975
LJ          -3.69372         -1.0041        -4.76555
LJ         -0.945717        -3.05509        -3.60185
LJ          -2.56811         2.73362         3.58127
LJ            -1.383         1.57001         -1.7785
LJ          -2.27705         3.34551         5.10173
LJ          -4.31989         1.57725          4.8628
LJ          -3.78623          6.0821        -4.80471
LJ          -4.60928        -5.90106         3.10137
LJ           4.94841         -5.6402        -4.17875
LJ           3.39755         4.22483        -4.17592
LJ          -2.83051        -1.37992         4.81309
LJ          -3.39438        -2.21603         4.43685
LJ            -2.192       -0.816872        -2.35148
LJ           1.15198         -1.4981         2.35024
LJ          -4.92877        0.381377       -0.476536
LJ          -1.05597      -0.0323634         1.49721
LJ          -3.10493        -4.20275           1.225
LJ          -2.71849          4.2037         3.30704
LJ           4.85511           4.468        -4.02693
LJ         -0.059853         3.69731         3.03566
LJ           2.38931         5.66425        -3.23009
LJ           2.40417        -2.96753         2.37058
LJ           1.43943         4.45276        -3.78101
LJ          -3.55837        -5.84307        -4.54477
LJ          -1.19506         4.64874        0.964216
LJ          0.201176         4.98709         2.03732
LJ          0.875499         3.00378        -1.20829
LJ           4.02642        -3.72915        -2.21406
LJ          -2.52716        -2.77275        -2.87477
LJ          -3.05594        -5.11884        0.523505
LJ        -0.0820735         1.33197        0.652926
LJ          -2.87606        -2.37457        -3.84738
LJ          -1.83236         3.82783        -4.36902
LJ          -2.48052         3.19095         6.39155
LJ           1.19082         3.64514         -6.0259
LJ           5.94758       -0.177065         -3.1275
LJ           4.02329         4.43363        -5.63277
LJ          -5.91939         1.40146          4.6894
LJ        -0.0603033         -2.3102        -1.67896
LJ          -4.72638         1.48437        -2.22564
LJ           6.28783         2.21638        -5.14141
LJ          -1.65572         5.10757         5.10512
LJ           4.68975        -2.44905         1.74028
LJ           5.86738        -5.16284        -3.87364
LJ          -1.26715        -6.24539        -3.46491
LJ          -4.79811        -4.92569        -2.52563
LJ          -3.52048        -4.35658        -2.00218
LJ          -2.43214        -6.13231        -3.05573
LJ           4.59932         3.42992         -6.1423
LJ          -3.70648         4.17476         -4.2833
LJ           5.39243         1.31793         5.25929
LJ          -5.24274        -4.11071         1.21022
LJ          -0.79531        -5.58604         1.51293
LJ          -1.66041        -3.48911        -1.47743
LJ           4.00409         5.66218        -4.40484
