108
#Comment!
LJ           4.92761        -3.94939         5.40076
LJ          -5.52343         6.26976        -4.24306
LJ          -1.63942         1.10663         1.99076
LJ           2.96738        -1.41333         3.61371
LJ           3.36922        -2.38798        0.199115
LJ          -1.51262        0.362085         2.92012
LJ          -4.60564        -5.08981        -3.97901
LJ           5.50078         5.25334         5.82519
LJ          -2.58095         3.18174         3.60592
LJ            1.6564         6.09364        -5.83533
LJ          -5.53895         1.75595        -5.36221
LJ          -2.17822         -3.2288        -5.13911
LJ           2.34572          4.9182        -4.15119
LJ          -2.50121        -3.30986         1.17888
LJ           1.12346        0.647271         1.42881
LJ           6.25978         3.36885         3.81834
LJ          0.861408         2.71548        -1.32624
LJ           -3.1097        -3.05092         6.38769
LJ          -1.39111         1.52979         3.74439
LJ           2.58656         1.99218         1.76175
LJ           2.25175         4.52647       -0.419582
LJ          0.564055         1.81408        -5.86989
LJ           6.24843        -4.54541         6.21898
LJ           2.09016        -3.15038          1.6948
LJ          -2.49753         5.94402         4.97484
LJ           2.40226         3.46766        0.831643
LJ          -6.38021        -0.50118         5.23583
LJ          -2.09984         6.39913       -0.733189
LJ          -2.57281         5.43107         -1.0673
LJ          0.322711        -6.22299        -2.20301
LJ           1.64922         1.99955         1.19882
LJ          -5.56547         6.37054         2.39568
LJ          -2.04864        -6.21773        0.229373
LJ          -2.94057         -4.9006        -5.20277
LJ          0.209769         5.64621         -3.7078
LJ           2.45029         5.89612         2.37081
LJ           2.86847          -6.405        -5.44254
LJ         -0.799673        -1.77621         1.49479
LJ          -3.64839         -4.0661        -6.05257
LJ          -5.11485        -1.00908         5.01373
LJ          0.523393        -0.60236        -1.57091
LJ           3.49868        -3.49212        0.594761
LJ          -6.32717         5.15627        -4.68679
LJ         -0.287235        -6.27265         0.78958
LJ          -1.50799         2.04465        -6.20817
LJ           1.85188        -0.20842         0.63942
LJ           3.32148        -2.97039         3.14187
LJ          -1.51146         -6.0003         4.37031
LJ           1.11273        -5.41741        -5.49455
LJ            1.5608         4.93826        -1.99855
LJ          -2.49823        -4.58933        -3.83593
LJ           5.08203        -2.05765        0.263863
LJ          -2.97692        -2.36841         2.38712
LJ         -0.482208         4.43798        0.592038
LJ            6.0985        -3.76104        -5.45362
LJ           1.70562        -3.68547         6.43464
LJ           -6.1499        -3.35797        -2.49517
LJ         -0.204969        -3.44141        -4.20223
LJ           -4.8652          6.0858         -3.1387
LJ          -4.03095        -2.13711         -4.6015
LJ          -4.50399        0.245549      0.00915805
LJ           1.74259       0.0305178        -4.31696
LJ          -5.68997        -4.72312        -5.61963
LJ          -1.01831       -0.952803        -6.45973
LJ           6.01443          1.0029         -4.3377
LJ          -4.41668         4.98936        -2.66694
LJ         -0.596171         5.27541       -0.309417
LJ           4.00237        -6.13409        -6.16579
LJ            5.7884      -0.0522655        -5.59747
LJ           1.14624         1.94104        -4.46223
LJ         -0.300085        -1.17735         4.27875
LJ        -0.0903743        0.323025         3.29327
LJ          -4.66867        -5.69968        -5.21265
LJ            2.7724         2.33035        0.317562
LJ         -0.397486        0.321141        -5.54305
LJ           5.37903          4.3815         3.40773
LJ          -2.90859        -4.38216        -1.09372
LJ          -4.88053         4.95339        -5.97804
LJ           2.64215          3.1765        -3.62241
LJ          0.609713        -3.65056        -3.11224
LJ           0.59565        -4.53629        -3.87135
LJ          -1.52438         1.83197         5.52411
LJ           1.73241        -4.18384         2.09215
LJ          -4.38728        -1.30303         2.11088
LJ           4.60795         1.54612        -1.09721
LJ         -0.829291          1.3623        -6.11898
LJ           4.35179        -4.22072         6.22411
LJ          -5.29043        -5.76911        -3.67601
LJ           -5.7747          1.0338        -6.24644
LJ           3.32543        -6.20957         -2.5396
LJ          0.577156        -3.98987         1.93448
LJ           2.28571        -3.17878         0.15666
LJ           5.20806        -5.09122         6.05817
LJ           1.01364         0.83287        -5.26991
LJ          -3.75284        0.286624        -2.68509
LJ          -3.63055        -4.77619         4.48501
LJ          -3.08408         5.50749        -2.02162
LJ          -4.50348        -3.43519          3.6445
LJ          -5.05449        -2.77849        -4.64389
LJ            3.7054         1.45556         1.24731
LJ          -5.71853        -1.50566        0.869948
LJ          -2.62142        0.871604         5.66885
LJ         -0.724487       -0.953189        -1.97933
LJ          -1.77227          2.1958         2.13475
LJ           5.66412       0.0182619         5.98216
LJ          0.557762         5.12162         1.68081
LJ           -4.5597         1.53695         2.78666
LJ           4.34083        -3.95096        -5.75677
