108
#Comment!
LJ           5.15783        -4.03403         5.11591
LJ          -5.22932         6.03865        -4.45082
LJ          -1.91607         1.53688         2.22801
LJ           3.30999        -1.83293         3.66959
LJ           3.32025        -2.13013        -1.12731
LJ          -1.39907        0.645508         2.95929
LJ          -4.57365        -4.57243        -4.50579
LJ           5.79722         5.17672         4.98888
LJ          -2.77886         3.07834         3.30258
LJ           2.13507         5.21031        -5.79586
LJ          -5.62457          1.4555        -5.43804
LJ          -2.77245        -3.27793        -4.95996
LJ           2.32329         4.94999        -3.96549
LJ          -3.36133        -3.20849         1.24386
LJ           1.82858        0.337374          1.2775
LJ           6.05083         3.28976         3.60242
LJ           1.28129         2.49422       -0.650684
LJ           -3.8884        -3.24207         6.31035
LJ          -1.47894         1.38217         4.08381
LJ           3.11009         1.84676         1.61657
LJ           2.12035         4.55767       -0.860062
LJ          0.342279         2.05773         -6.1756
LJ          -6.37134        -4.32605         6.03945
LJ           2.71963        -3.18723         1.14593
LJ          -2.83883         6.23315         4.79938
LJ           2.47375         4.21107         1.54303
LJ           6.23913        0.346888         5.07362
LJ          -2.22429        -6.28175        -1.02156
LJ          -2.17294         5.24407       -0.948011
LJ          0.903069         6.15606        -2.33979
LJ          0.994809         1.26926         1.44688
LJ          -5.69334        -6.44108          2.0917
LJ          -1.78991        -6.30055        0.500247
LJ          -2.40367        -4.88603        -4.90622
LJ         -0.300414         6.07936        -4.07637
LJ           2.21153         5.96272          2.2917
LJ           2.69658        -6.20649        -5.80296
LJ          -1.12899       -0.926666         1.39182
LJ          -3.58815        -4.16777        -5.77109
LJ          -5.46335       -0.503025         5.93986
LJ           0.73726        0.196789        -2.15697
LJ           3.87394        -3.76036        0.394134
LJ          -6.42596         5.64479        -4.67898
LJ        -0.0208664        -5.67427        0.542148
LJ          -1.94832         2.45604        -6.34264
LJ           2.63608       -0.187829        0.747528
LJ           3.25812        -2.93803         3.96049
LJ          -1.02084        -5.93952          4.1363
LJ           1.04627        -5.53409        -5.49002
LJ            1.1876         4.87986         -1.2829
LJ          -2.73683        -4.92265        -3.88374
LJ           5.16448        -2.41874       -0.146271
LJ           -2.9361        -2.67863         2.05522
LJ        -0.0399581         4.20222        0.350421
LJ          -6.35732        -3.31623        -5.72086
LJ           2.51843         -4.4304          -5.708
LJ           -5.7037        -4.17555        -2.34402
LJ          0.397937        -3.64101        -3.87423
LJ          -4.69514         6.40485        -2.07211
LJ           -3.6286        -2.89202        -4.49143
LJ          -4.65422         0.49374       -0.945318
LJ            2.0931       -0.262323        -4.33052
LJ          -6.16392        -4.27761        -5.19454
LJ         -0.748051       -0.883385         6.15837
LJ           6.03516         1.96709        -4.04641
LJ          -5.30581         4.78953        -2.41456
LJ          -1.40245         5.75795       -0.215941
LJ           4.26346         -5.5883        -5.87851
LJ           5.83012        0.250502        -5.76184
LJ          0.501301         2.42865        -3.95793
LJ         -0.417291        -1.27852         3.94764
LJ           0.20713        0.210769         3.57743
LJ          -5.22108        -5.94947         -4.9545
LJ           2.34926         1.55792        0.550023
LJ          -1.16391        0.550643        -5.27268
LJ           5.33212         4.42168         3.12922
LJ          -2.65103        -4.19449       -0.841939
LJ          -4.80132         4.97445        -6.09071
LJ           2.26383         3.30147        -3.98053
LJ            1.6576        -3.45747         -3.1101
LJ          0.518818        -4.81854        -3.65306
LJ          -2.22588         1.82844         5.55088
LJ           1.91013        -3.77605         1.84381
LJ          -4.30391       -0.904896         1.47987
LJ            4.5242         1.87387       -0.670531
LJ         -0.333966         1.40854        -5.48463
LJ           4.20665        -4.60014         6.25178
LJ           -5.0054         -6.0788        -3.63564
LJ          -5.22547        0.475994         6.38477
LJ           3.07441        -6.27251        -2.12552
LJ          0.421569        -4.00786         2.41363
LJ           2.79924         -3.6245        0.206199
LJ           4.95547        -5.37798         5.84908
LJ          0.566874        0.134005        -4.48755
LJ          -4.16217        0.331774        -2.40068
LJ          -3.54215        -5.58861         4.42162
LJ          -2.37171         5.18517        -2.01924
LJ          -4.39443        -3.47782          3.7684
LJ          -5.34478        -2.13874         -4.3932
LJ           3.42953         1.38174        0.588785
LJ          -6.23785        -1.89702        0.973721
LJ          -2.86167        0.982373         5.04095
LJ         -0.802735         -1.0664        -2.52896
LJ          -2.02491         2.52609         1.59239
LJ           5.81378       0.0262831         6.13824
LJ          0.436827         4.92494         1.67322
LJ          -4.56217         1.12838         3.08874
LJ           4.17039        -3.94441        -5.33773
