108
#Comment!
LJ           3.77819       -0.627887           3.179
LJ           3.82654        -3.74395        0.983635
LJ          -5.29345         3.15903        0.433841
LJ           1.00005        -1.13659         2.92634
LJ           5.05641         5.29176        -1.77087
LJ          -2.49454         -1.7254         3.46592
LJ           4.56376         3.23127          -5.752
LJ             5.353        -2.90476         3.53428
LJ          -4.38267         4.16754         4.00622
LJ          -5.44421         5.58868        -3.28488
LJ          -4.26784       -0.346492          5.0875
LJ          0.272034        -3.69388        -2.85074
LJ            3.7142        -2.78285       -0.953785
LJ          -3.80935         4.28806        -5.36192
LJ          -2.44205        -2.52077          4.9378
LJ          -3.48049         2.02054        -5.64595
LJ           3.45179         2.82934        -3.08984
LJ            4.3157        -1.70089        -2.59171
LJ           1.40877         5.17308         4.30091
LJ          -5.48488         2.19351       -0.515061
LJ           4.00739        0.519536       -0.341179
LJ          -4.33279        0.223352        -3.43889
LJ          -1.94578         -4.9099         5.03319
LJ          -5.90894         5.04622        -4.23074
LJ           1.06648         3.04955         1.80456
LJ            2.2689         1.13957        -4.63008
LJ           5.98285       -0.578626        -4.21742
LJ          -3.39737        0.210707       -0.353483
LJ          0.743151         -1.4258        -2.43927
LJ           3.39291        0.670083         2.46892
LJ           -3.2562         5.30557        -5.95691
LJ          -1.97269        -2.71681         -4.8837
LJ          -3.45983        -3.81777          2.0314
LJ         0.0397641        0.388156        -3.53179
LJ           1.07454        -2.65142         3.38463
LJ          -4.26018         2.28719         5.72256
LJ           1.75442        0.934571        -3.55583
LJ          0.158178        -5.96093        0.141927
LJ          0.845816         3.23179         3.86728
LJ          -4.81618        -4.56062          1.0321
LJ           3.43222        -5.41051        -3.09028
LJ          0.887011        -6.04962       -0.792615
LJ           3.91565         4.57236        -2.98961
LJ            4.3077         3.13424        -3.90918
LJ          -3.76552         1.48757         6.16642
LJ         -0.501583        -2.65627        -6.30714
LJ          -5.30842        -1.55463        -2.39583
LJ           3.71712        -5.39495         3.14273
LJ          -2.43181         1.12446        -1.07388
LJ           4.86724       -0.747628         6.34734
LJ          -5.32437        -1.51068        -6.32492
LJ           4.47392         1.86849        -5.12333
LJ          -2.95807         6.13432        -5.55288
LJ            4.2941        0.283745        -3.36263
LJ           3.10534        -4.41497         1.70124
LJ          -1.02655         3.12861          3.5313
LJ           3.10064         2.04763       -0.309279
LJ          -1.70054        -5.49904        -2.43183
LJ           2.33165         5.07809         3.48329
LJ          -2.72533        -2.30965        -6.19925
LJ          -4.84898         3.21438         5.53172
LJ           2.23534         6.39532         4.56905
LJ          -5.18091        -6.26352         3.54966
LJ          -4.29803         1.30272        -2.23683
LJ           5.26259         4.34789         2.44629
LJ          0.362637         4.45746         4.99235
LJ           4.27013         4.87108         2.58688
LJ          0.340712        -4.63831        -2.60233
LJ           5.73317        -2.31626        -1.16694
LJ          -3.90756        -4.20979        0.291244
LJ         -0.886484         1.93028         2.30825
LJ          -5.61231       -0.589482         5.95372
LJ           -2.7827        -1.41389          4.4884
LJ          -5.00602         3.01264         4.22931
LJ          -4.33069         0.18746       0.0966752
LJ          -5.30397         3.55912        -6.35847
LJ           6.20881         4.73307        -3.79101
LJ           4.25562         4.62275        -4.30766
LJ           -4.2395         1.88709         1.53236
LJ          -2.81403        -6.44618        -2.27477
LJ          -4.32745         -4.4452         4.10195
LJ           -5.6126        -2.89087        -5.43738
LJ          -5.88355         -4.7317        0.111587
LJ          0.124874        -5.80546        -1.49338
LJ           3.59325        -4.67283       -0.632679
LJ           4.27603         -2.9751        -5.13708
LJ           0.73001        -5.89811        0.999951
LJ            5.0741        -2.20311        -2.10991
LJ           6.04465         3.36554        -1.72543
LJ          -1.81462        -3.67688         -3.3126
LJ         -0.597271         5.84461         4.07953
LJ          0.486772        -1.05717        0.754283
LJ           2.90734         4.15362         3.95633
LJ          -3.36576        0.415655         1.01974
LJ          0.688147         3.78131         6.42946
LJ          -4.86534        -4.48056         2.71985
LJ           5.49079       -0.332158        0.768715
LJ          -4.53397        -6.30749         1.43916
LJ        -0.0104137        -1.61305          6.0857
LJ           5.40774        -6.18494       0.0917999
LJ          -3.04179        -6.09029         -3.6654
LJ           1.26518         4.88021        -6.03456
LJ          -4.00971        -1.46763         3.87764
LJ          -1.84753         1.08917         1.59451
LJ          -4.44067       0.0583321         1.08828
LJ           2.42168        -4.68333       -0.541939
LJ          -3.94968        -5.51457        -2.17953
LJ          -2.30035        -5.97362         3.39461
