108
#Comment!
LJ           5.16982        -3.66635         5.18148
LJ          -6.08879        -6.30935         -4.5715
LJ          -1.29767          0.5581         1.83652
LJ           2.54374        -1.00254         3.51673
LJ           3.26968        -1.96052         1.79782
LJ           -1.6139       0.0933708         3.06567
LJ          -4.05334        -5.39486        -3.87279
LJ           5.11415         5.36254        -6.02064
LJ          -2.29283         3.26366         3.96953
LJ           1.43136        -6.10388        -5.99553
LJ          -5.42441         2.09724        -5.26681
LJ          -1.54593        -3.24431        -5.43279
LJ           2.36354         4.86866        -4.37788
LJ          -1.38749        -3.33515         1.21285
LJ          0.467572        0.918052          1.4092
LJ           6.43492         3.60754          4.0409
LJ          0.336221         3.01335        -2.18285
LJ          -2.23324        -3.15457        -6.17015
LJ          -1.14949         1.19717         3.50842
LJ           3.17555         2.34122         2.62838
LJ           2.51314         4.42144        0.227992
LJ          0.328058         2.14218        -5.69204
LJ          -6.37803        -4.45946        -5.94934
LJ            1.2218        -3.39021         2.30006
LJ           -1.9599         5.71613         5.12141
LJ           1.98798         3.53409        0.204916
LJ          -5.95657        -1.55332         5.58466
LJ            -1.864         5.95011       -0.872574
LJ          -3.33295         5.51774        -1.21754
LJ         -0.419962        -5.55299        -2.05744
LJ           1.14479         2.48162        0.386644
LJ          -5.40149         6.22178         2.78873
LJ          -2.26686        -6.02659        0.390402
LJ          -3.62425        -4.55477         -5.7237
LJ          0.929728         5.10127        -3.17685
LJ           2.73953         5.80175         2.46172
LJ            2.9195         6.21694         -5.0288
LJ         -0.403674        -2.89456         1.62588
LJ          -3.41126        -3.77558        -6.33514
LJ          -4.87672        -1.56263         3.86366
LJ          0.233819        -1.70642       -0.806394
LJ           2.90373        -3.86808        0.935378
LJ          -6.34875         4.49051        -4.76049
LJ         -0.643497         5.79563         1.08104
LJ          -1.83998         2.37663        -6.24015
LJ          0.669897        0.011659        0.704932
LJ           3.34586        -2.98542         2.09512
LJ          -2.25646         -6.2047         4.74744
LJ           1.07141        -4.74582        -5.26445
LJ           1.92852         5.05643        -2.98566
LJ          -2.25609        -4.15977        -3.90321
LJ            4.9079        -1.61447        0.800642
LJ          -3.08949        -2.01221          2.7035
LJ          -0.95527         4.94716        0.764211
LJ           5.49433        -4.48463         -5.3876
LJ          0.661748         -2.7524         5.44022
LJ           6.20953        -2.31112         -2.7014
LJ         -0.667904         -3.4753        -4.36042
LJ          -4.69151         5.48393        -4.18341
LJ          -3.87232        -1.07439        -4.76679
LJ          -4.33821       -0.118295         1.23833
LJ           1.17316          0.6312        -4.50146
LJ          -5.09294        -5.33614        -6.12986
LJ          -1.33196       -0.958768        -6.03756
LJ           6.05677       -0.226093        -4.66943
LJ          -3.59281          5.2634        -3.46794
LJ          0.608462         4.72306      0.00387407
LJ           3.26849         5.94505         -6.1873
LJ            5.7246       -0.385508        -5.81678
LJ           1.89834         1.39581        -4.96696
LJ         -0.150853       -0.986311         4.67807
LJ         -0.522384        0.568403          2.8887
LJ          -4.31031        -5.32511        -5.11737
LJ           3.70198           2.472       -0.441624
LJ          0.655139        0.269259        -6.01005
LJ           5.53463         4.19687         3.82741
LJ          -3.23217        -4.64207        -1.41242
LJ          -5.02046          4.9498        -5.78492
LJ           3.10041         3.05988        -3.17821
LJ         -0.919253        -3.93312        -3.38776
LJ          0.525918        -3.89136        -4.20728
LJ         -0.771373         1.58904         5.57143
LJ           1.51867        -4.48821         2.33947
LJ          -4.44879        -1.86395         2.91916
LJ           4.70234         1.12693        -1.63096
LJ         -0.441298        0.269693         6.23694
LJ            3.9468        -4.36686         5.82547
LJ          -6.02894        -5.78612        -3.27664
LJ           6.32866         1.69002        -5.85183
LJ           3.63718        -6.13743        -3.07848
LJ          0.959505        -3.88521         1.27745
LJ           1.86097        -2.51851        0.343289
LJ           5.29839        -4.72142         5.77282
LJ           2.01654        0.681728        -6.12877
LJ          -3.22922        0.226606        -3.04598
LJ          -3.78405        -3.68443         4.52711
LJ          -3.88659         6.22517        -1.86592
LJ          -4.58011        -3.41782         3.53323
LJ           -5.3274        -3.77644        -4.98996
LJ           3.93494         1.59502         2.00546
LJ          -4.99906       -0.960727        0.762824
LJ           -2.0783        0.921815        -6.43217
LJ         -0.603217       -0.729828        -1.27868
LJ          -1.58954         2.08186         2.44106
LJ            5.7218       -0.101293          5.9536
LJ          0.623942         5.36952         1.57301
LJ          -4.54944         2.06067         2.39874
LJ           4.72731        -3.71321        -5.26238
