108
#Comment!
LJ          -3.37294         4.74868         -5.6708
LJ         -0.522892         5.56016        0.638763
LJ          -4.12245         2.02016         3.09849
LJ         -0.343336        -1.31481         0.66189
LJ          -4.54824        -1.11017       -0.422474
LJ          -3.73688         1.17513        -5.99849
LJ           2.31686        -6.20071        -4.98822
LJ           -5.4034       -0.362554      -0.0304325
LJ          -5.78724         -6.3269         1.76451
LJ           6.24593         3.71769         5.30992
LJ           -6.1455        -2.54919       -0.499171
LJ           4.13039        -3.13017         -4.4315
LJ          -4.00834       -0.901271         5.58183
LJ          0.384585        0.350967         3.99427
LJ           2.72891         2.15124        -5.09839
LJ           6.27439         4.56749         1.23196
LJ          -6.17451         3.14711        -3.71279
LJ          -5.42949         6.45236       -0.480305
LJ          -1.12012         1.61897         1.22451
LJ          -3.96698         2.96895        -1.72977
LJ          -1.23143         4.09571          5.9477
LJ          0.783827         2.67506         2.67711
LJ           5.13739        -4.18529       -0.871332
LJ           -1.2966        -2.96943         4.44948
LJ          -6.19774        -3.58231         2.64527
LJ          -2.02773        -3.63762        -2.75898
LJ           5.69004         5.46836       -0.824446
LJ          -2.50726         4.99338         6.22496
LJ           2.82903         4.83608        0.168729
LJ           0.75374        -2.24436        0.486864
LJ           5.70216        -2.44838        -2.81832
LJ           2.94917       0.0186808        -1.14598
LJ          -6.26813        0.124367        -3.01511
LJ           3.09194        -5.36976        -4.06102
LJ           6.26157       -0.631322         3.20219
LJ          -2.04002          5.5293       -0.658383
LJ          -4.05566         5.04922         5.10996
LJ           4.80909         3.64273        -5.96475
LJ            2.4552         3.97169          3.3573
LJ          -2.06372        -5.01277        -3.95951
LJ           3.22417        -1.04584         2.51512
LJ          0.659308        -5.06259         2.34772
LJ           2.91674       -0.441634        -5.11344
LJ             5.111        0.123361          5.7893
LJ          -3.80798        -2.36703         3.59599
LJ           4.53511          2.5369        0.683088
LJ          -3.75218         4.03229         2.20866
LJ          -5.39964        -5.93457        -1.47411
LJ             2.563        -2.28651         3.12344
LJ           4.65437         4.68202         -4.5161
LJ           3.22529        -4.02314         6.28258
LJ           1.09465       -0.540077         3.19751
LJ          -4.93791         2.33188         1.90411
LJ          -5.64093        -6.00355        0.597387
LJ          0.856812         2.27915        -3.05954
LJ           4.31086      -0.0789761         3.38252
LJ           1.74826       -0.607759        -1.02167
LJ           4.97525         -4.5522        0.672463
LJ           4.87252         -5.9245       -0.212638
LJ           2.43681          6.3739        -6.17751
LJ          -2.95379       -0.638823        -6.19627
LJ           1.79592        -5.20397         4.36622
LJ          -1.93718         6.42001         1.42207
LJ         -0.618254         -4.8757        -2.78465
LJ          -2.00883           3.545        0.288029
LJ           4.38356         -2.4813          -5.381
LJ           5.29336         1.11555        -6.36822
LJ            3.6202         -1.7426        -4.57084
LJ          -1.32583        0.592437           2.414
LJ        -0.0270916        0.194207          2.6623
LJ           1.97965        -4.88464        -1.05871
LJ           6.44299       -0.146694        -1.80138
LJ           1.67143         4.66139        -5.89773
LJ          -0.31541         3.91154          2.9616
LJ           5.36162         4.78956        -1.79261
LJ          -6.18496          1.7087        -1.44544
LJ          -2.88547          -4.439        -3.53167
LJ            -5.094         5.18289         3.90768
LJ           -1.3992         1.48178        -3.72021
LJ          -3.36332        -1.18951        0.966761
LJ           4.08529        0.870827        -5.58607
LJ          -1.85972        -2.06406        -5.69782
LJ           2.98406         5.96457        -2.12262
LJ          -3.01044         1.67101         2.20923
LJ       -0.00101355        -4.69041         1.29426
LJ          -4.06103        -3.21941         1.95867
LJ           3.42028          1.0455         5.43103
LJ           1.34595        -0.14234         6.37008
LJ          -5.06283       -0.998398        -4.74564
LJ          -5.05946        -5.17591         2.50205
LJ          0.960348        -1.19147         1.00876
LJ         -0.549497        0.128699         1.83768
LJ          -4.37481         6.27478        -6.03777
LJ          0.601353         6.23618            -3.4
LJ          -4.94619          1.4915        0.963322
LJ            -5.033         4.63755       -0.687933
LJ           -3.3462       -0.786771        -1.94812
LJ           3.45531        -5.31732         5.69092
LJ          -5.51289         5.25095        0.222064
LJ           5.56075         3.00994        -5.27939
LJ          0.382005         1.34602         2.67446
LJ          -1.60609         6.12713         4.54366
LJ           2.96438        -1.47387        -5.29203
LJ          -2.13072        -4.43986         6.18161
LJ         -0.796213       -0.781816        -3.00607
LJ           2.68072        -4.74676         4.15946
LJ           1.13691        -4.84084        -3.54027
LJ           5.05495        -3.19395         6.03281
