108
#Comment!
LJ           5.81794        -4.16454         4.71535
LJ          -4.10271         5.62627        -4.58343
LJ          -2.20032         2.57917         2.09711
LJ           3.93756        -2.69064         3.79303
LJ            3.2057        -1.80029        -3.52866
LJ          -1.15634         1.29168         3.51292
LJ          -4.98948        -3.70845        -5.32833
LJ           6.28717         4.95353         3.32416
LJ          -3.31535         2.92984          2.8341
LJ           3.11063         3.73877        -5.59603
LJ          -5.74708        0.553787         -5.8501
LJ          -2.15103        -4.11686        -5.66606
LJ           2.20966         4.84223        -3.65346
LJ          -4.96899        -3.08554         1.26175
LJ            3.0078       -0.124941         1.22594
LJ            5.5433         3.24725         3.18415
LJ           2.16143         1.93984         0.67996
LJ          -5.24391        -4.00358        -6.34345
LJ          -1.96987        0.900441         4.45956
LJ           4.41887         1.41805         1.65678
LJ           2.57831         4.33429        -1.13987
LJ          0.179651         2.61292         6.17776
LJ          -5.98371         -3.6501         5.96776
LJ           3.58751        -3.41011        0.764887
LJ          -2.49452         5.63121         5.03786
LJ           2.65459         5.54624         2.92117
LJ           5.70061         1.57288         5.37013
LJ          -2.26251         6.44283        -1.29497
LJ          -2.84587         4.82167        -1.08603
LJ           2.04551         5.02947        -2.57243
LJ         -0.234975      -0.0672385         1.63738
LJ          -5.93075        -6.22912         1.53125
LJ          -1.85973        -5.33183         1.90737
LJ           -1.5828        -4.70834        -4.68102
LJ          -1.21677        -5.98133        -4.73298
LJ           1.66084         6.08356         2.04521
LJ           2.33809        -5.75127        -6.38226
LJ          -1.71862        0.677858         1.24085
LJ          -3.33385         -4.1695        -5.54921
LJ            5.9565       -0.503163        -5.61473
LJ           1.06443         1.63573        -3.31303
LJ           4.78469         -4.1097        0.191568
LJ           5.98823         6.34442        -4.81801
LJ          0.393046        -4.61668       0.0752959
LJ          -2.85164         3.10867         6.32312
LJ           4.28062      -0.0223931        0.792216
LJ            3.1509        -2.81764          5.4483
LJ         -0.152658        -5.83947         3.71161
LJ           1.08868        -5.75923         -5.4722
LJ          -0.26144         5.03657       -0.435784
LJ          -3.25876        -5.42786        -3.74312
LJ           5.24984        -3.16044       -0.820031
LJ           -2.8669        -3.17169         1.53865
LJ          0.824854          4.0413      -0.0409961
LJ          -5.53067         -2.6941        -6.44871
LJ           3.03331        -5.66764        -3.98647
LJ          -4.84134        -5.74392        -2.07819
LJ           1.83683        -4.28329        -3.05954
LJ          -4.45469         -5.9676       -0.321111
LJ          -4.21571        -3.69307         -3.4132
LJ          -5.52187         1.39804        -1.38599
LJ            2.5486       -0.737879        -4.38957
LJ           6.11342        -3.66267        -4.50838
LJ         -0.244106       -0.711249         5.58356
LJ           6.10997         3.74155        -3.55292
LJ           5.99906         4.59122        -1.96793
LJ         -0.932721         6.21936        -0.17992
LJ           5.09111        -4.94244        -5.22277
LJ           6.05564        0.800671        -5.98192
LJ         -0.670269         3.28603        -3.09532
LJ         -0.563947        -1.27077         3.31908
LJ          0.535967       -0.114155         4.08201
LJ          -6.17963        -6.14037        -4.07255
LJ           1.33674        0.335581        0.370728
LJ          -2.22852         1.19311        -4.82471
LJ           5.42513         4.48168         2.74509
LJ          -2.16895        -3.88028       -0.361832
LJ           -4.6778          5.0697        -6.22034
LJ           1.55658         3.74761        -4.63614
LJ           3.25613        -3.22245        -3.31238
LJ           0.42996        -4.96976        -3.29371
LJ          -3.49175         1.74831         5.42626
LJ           2.58747        -2.79654         1.02192
LJ          -4.15123       -0.191015        0.305944
LJ           4.20181         2.38762        0.237725
LJ          0.110768         1.06971         -4.1493
LJ           4.23168        -5.67092        -6.17794
LJ          -4.59348         -6.4367        -3.90539
LJ          -3.82149        0.837708         6.43584
LJ            2.5537        -6.42766        -1.37377
LJ          0.340902        -4.03381          3.2446
LJ           3.39714        -4.47749       -0.202303
LJ           4.85001        -5.20085          4.8986
LJ          0.149786        -0.96155        -3.04509
LJ          -4.33569      -0.0341957        -3.20264
LJ          -4.32302        -5.91515         3.72439
LJ          -1.11089         4.64956        -2.65365
LJ          -4.17605        -3.57056         4.00077
LJ          -6.16947         -1.1021        -3.97639
LJ           2.76744         1.24067       -0.307741
LJ           5.70082         -2.6367         1.12937
LJ          -2.91757         1.34745         3.87807
LJ          -1.21341        -1.38032        -3.52567
LJ          -2.47959         2.84885         1.06837
LJ           6.35274        0.307442          5.8056
LJ          0.206986         4.46167         1.41486
LJ          -4.52905        0.377816          3.6673
LJ           3.62673         -4.2924        -4.87735
