108
#Comment!
LJ          -5.34069        -3.64682         4.13537
LJ          -2.65025         5.65663        -4.67108
LJ          -1.33405         5.06268        0.972733
LJ           5.35128        -4.63541         4.63339
LJ           5.05976        -1.20537        -4.76388
LJ          -2.50105          1.9953         4.68603
LJ           5.93616        -2.04389        -4.81711
LJ          -5.36843         4.37467       -0.284451
LJ          -5.59718         3.34937         2.63593
LJ            5.1841        0.450022        -4.94362
LJ          -5.91971         -1.0767         4.98884
LJ          -1.37461        -5.09613         6.09777
LJ            1.5372         3.62062        -5.01768
LJ           4.46064        -2.90321         1.18129
LJ           6.10739         -1.5705        0.754077
LJ           4.51316         3.30588         2.25486
LJ           4.81681     -0.00368164         2.90178
LJ          -5.20275        -5.30902         6.35548
LJ          -3.09244         1.67683         3.20727
LJ           -5.6038         1.20714          1.6812
LJ           3.39986          3.4097       -0.784396
LJ         -0.401371         3.80824         5.05227
LJ           5.86635       -0.728188         4.27238
LJ           4.74225        -4.29741        -1.02504
LJ          -1.13436         3.56367         5.86363
LJ            3.1895        -4.69022         5.92261
LJ           5.18818         2.36986        -5.81558
LJ          -2.53407         5.14741        -1.61056
LJ          -3.08429          2.9423       -0.542109
LJ           4.78645         3.00584         -2.5616
LJ          -2.70719        -3.02452         2.47121
LJ          -6.32384        -5.73351        0.418041
LJ          -2.24181         -2.7825         5.30632
LJ          0.280975        -4.21038        -3.51475
LJ          -3.36024        -5.83082        -6.18016
LJ          0.199732        -6.06862         1.70413
LJ           1.02891        -4.86629         6.34932
LJ          -2.71869         2.55274        0.942715
LJ          -1.19408         -3.5061        -6.29477
LJ           3.49899        0.721152        -2.74696
LJ           1.23361         4.38447        -6.17311
LJ           5.61704        -3.69555        0.160828
LJ           6.02309        -3.85215        -4.30675
LJ           1.40838        -3.40127       -0.741615
LJ          -5.04835         4.20694         5.48345
LJ          -5.98069        0.260349        0.772877
LJ           1.93869        -4.77575         4.65846
LJ           1.76541          -5.371         2.56657
LJ           2.07357        -5.88744        -6.26918
LJ          -2.96007         6.10751         1.62535
LJ          -4.52267         6.36805        -3.69473
LJ           4.77423        -5.38704        -1.28663
LJ          -2.20294        -4.21515      -0.0643858
LJ           1.13192         5.07521       -0.418925
LJ          -4.73496        -3.48082         5.04789
LJ            2.7232         5.84565       0.0418111
LJ          -3.17046         5.16206        -2.52898
LJ           4.91093         6.36552        -1.36995
LJ          -4.12673        -4.69243         3.45452
LJ          -5.75912        -5.71259        -1.25201
LJ           4.95746         3.75011        -1.28728
LJ           2.79971       -0.180211        -4.64421
LJ          -5.82835        -3.23611        -4.66362
LJ         -0.204651       -0.671316         5.69336
LJ          -6.14589           6.341        -1.44422
LJ           3.40302         3.93165        -2.24533
LJ       -0.00456473         5.44557       -0.455935
LJ          -5.58672        -4.95252        -3.42535
LJ           5.31793         1.43146         5.88991
LJ          -3.50142         3.58065        -1.63535
LJ         -0.951583       -0.879437         1.53882
LJ            1.9475       -0.690101         3.52687
LJ           3.98078        -5.51841        -3.74289
LJ         -0.284397        -1.79685       -0.352824
LJ          -4.44588         2.67828         -3.9196
LJ           5.23884         4.49777         1.68654
LJ          -1.88157        -3.36701         1.15951
LJ          -4.27926         5.35768         -6.2016
LJ           0.69524         5.21242        -4.97738
LJ           4.23321        -1.57719        -3.07693
LJ          0.703224        -4.85934        -2.68399
LJ          -4.22568         1.27774         5.28866
LJ           5.86264        -2.01547        -1.14906
LJ          -3.80156         1.42065        -2.30574
LJ           3.20338         2.94891         2.65635
LJ           1.54432        0.537521        -2.00204
LJ            4.8677         5.43204        -4.21205
LJ          -3.42125         5.29631        -5.30718
LJ          -1.04384         2.63509         5.53449
LJ          0.955192         5.80197        0.258677
LJ          0.168829        -4.49966          5.0373
LJ           5.47699        -4.62221       -0.306665
LJ           4.21358         -5.2706         3.25946
LJ          0.948094        -1.16554       -0.259484
LJ          -4.29459        -1.23602        -6.15204
LJ           6.38363        -5.90241         1.64692
LJ           1.71224         5.44077        -3.84432
LJ          -3.24761        -4.03544         4.12496
LJ           4.14987         1.24986        -3.63044
LJ          0.828372         1.59486      -0.0142155
LJ           3.74906        -4.79622         0.70201
LJ          -1.68241         1.48992         4.02682
LJ          -4.06341        -2.96105        -5.46141
LJ          -3.92404         4.15277        0.912456
LJ          -6.31435         1.03324        -6.43961
LJ         -0.218558         3.46824       0.0520412
LJ          -4.28812        -1.07184         5.14821
LJ           2.20528        -5.46021        -3.68631
