108
#Comment!
LJ           4.74047        -1.03448         4.07828
LJ           4.55992        -5.75434        -2.11811
LJ           -3.5266         1.59434         1.14241
LJ          -0.51968         1.91386         2.96735
LJ           4.19534         5.67654        -4.85956
LJ          -1.85435       -0.516507          2.7663
LJ           1.63902         4.25594        -5.13867
LJ           3.65663        -5.64555        -6.13052
LJ          -2.17568         3.22661        -6.23492
LJ           5.01974        -6.12871        -5.03917
LJ          -4.53503       -0.161597         5.92793
LJ          0.362519        -2.60284        -4.14642
LJ           3.73074         6.11084        -3.87417
LJ           -1.3576          6.3876           4.965
LJ          -2.71291        -1.79812         1.94417
LJ          -4.40939          3.7963         6.12295
LJ          0.184909         3.84433        -4.01207
LJ           2.16665        -2.95069         -4.8333
LJ        -0.0806182        -4.62433         3.73219
LJ           6.32024         2.53596        -4.44938
LJ           4.86988        -5.76429         2.05072
LJ          -2.20523         2.56945        -5.22419
LJ         -0.301071        -5.72125         5.93329
LJ          -2.60256        -6.22004        -5.09043
LJ         -0.169931          4.4709         5.52373
LJ         -0.567571         2.78548        -4.53995
LJ            5.6623        -2.74421         6.24856
LJ          -2.03079         2.48907         -0.1067
LJ           3.93839        -3.47882        -2.14329
LJ          -6.41876       -0.965876        0.614022
LJ          -2.85192         3.40374        -4.47394
LJ          -3.68445        -6.43569         5.84155
LJ          -3.24585         -5.6327        0.489675
LJ          -1.89986         4.50979        -4.22796
LJ          0.716032       -0.345133        0.123461
LJ           6.32216         3.99211         4.43651
LJ           2.06467          3.2507        -4.87241
LJ           1.45034        -6.00532        0.774574
LJ          0.383011         1.42958         4.64118
LJ          -5.44971        -3.41597         3.40995
LJ           2.59278        -4.72387        -1.34385
LJ           1.13885        -5.54391       -0.222035
LJ           5.63672           5.239        -3.34085
LJ           2.79876         4.69943         5.89842
LJ          -4.08891          2.4402         5.83963
LJ          -1.25226        -1.13307         5.56667
LJ           3.79007         2.40744        -2.44505
LJ           3.72319        -5.97933         4.66827
LJ          -1.34743       0.0755585        -3.13219
LJ           4.41161          2.0398         2.23914
LJ           6.09465        -1.74539        -6.06302
LJ           3.69969         1.18947          5.3611
LJ          -2.89004        -3.69958        -5.72146
LJ          -5.66885         1.84035        -1.86162
LJ           4.36339        -5.27165         3.23094
LJ           4.55485        0.898904        -4.14015
LJ           4.25951      -0.0965799         4.00055
LJ          -1.71716         -5.2414        -2.64462
LJ         0.0380854          3.9279         3.93671
LJ          -2.28322        -6.15471        -6.29536
LJ           6.27173         4.22611         3.22257
LJ          0.921907         4.15742         5.87737
LJ          -3.27275        -6.11743         4.54472
LJ          -3.00502        0.112468        -3.33003
LJ           6.42263        -6.20826         5.16675
LJ        -0.0612295         4.99658          4.3711
LJ           5.42745        -5.69923         4.97756
LJ           1.29028         4.85424        0.639185
LJ           5.60337        -4.68507        -6.28424
LJ           5.46956        -2.91045         3.52949
LJ          0.232814          0.4782         2.48537
LJ          -1.88214         1.57311         3.88348
LJ          -4.08189         1.93331        -5.55049
LJ          -3.07282         1.82419         6.31898
LJ          -6.19286        0.737886         2.10543
LJ          -5.82738         4.20518         6.37102
LJ          -6.36318         5.55195          -3.131
LJ           6.08265           4.075        -4.16666
LJ           6.41839         2.31512      -0.0144552
LJ          -1.64946        -6.36138        -2.59501
LJ          -3.13718        -1.18332         4.23619
LJ           4.65854        -1.32211        -4.49648
LJ          -3.50815         -4.6323         1.47744
LJ          -1.01709         4.33338         1.15181
LJ           3.16628          4.5605         -1.0376
LJ           4.38313        -1.84395        -5.57914
LJ           2.21703        -4.41557         2.62471
LJ             5.049        -3.26124        -3.57707
LJ           5.69148         3.54104        -2.94596
LJ           1.12272        -5.24934        -3.94911
LJ           1.89484        -5.43895         3.59045
LJ           1.25738       -0.581915         1.47188
LJ           2.41182         6.16909         4.62267
LJ          -5.82908       -0.178809         3.02791
LJ         -0.331544         1.34554        -5.52431
LJ          -4.60419        -3.15498         4.22796
LJ          -6.27027        -2.66161       -0.193759
LJ          -3.80604         1.68878         3.30517
LJ          -2.66116        -3.27886         5.65817
LJ           4.13049         5.22921        -3.60029
LJ          -3.11805          4.6929         -1.4298
LJ           1.92649         3.98737        -3.65791
LJ          -2.11798       -0.420477         3.87855
LJ          -1.76439         2.36149         1.27716
LJ          -5.61793        -1.21112         3.30058
LJ          0.269337        -4.78911        0.659788
LJ          -4.20563          5.5967         -0.5503
LJ           -3.8431        -3.79647        0.176798
