108
#Comment!
LJ           3.64511         1.27365         4.95258
LJ           1.30864         5.98237         1.16993
LJ           3.55727         2.39486         2.15945
LJ          0.922632         6.41694         4.22061
LJ           3.11292        -5.85418          6.3813
LJ           3.17988         4.67707         -4.4737
LJ          0.980797         1.23865         5.20873
LJ           3.51066        -4.07203        0.207295
LJ          -0.88134        -2.29679          3.9328
LJ           0.71562         1.23467         1.38746
LJ           4.83883       0.0976406        -3.21215
LJ          -1.52441         2.74607         6.08725
LJ          -3.22833        -3.32215         1.18925
LJ          -3.98693         4.93552        -4.21176
LJ          0.185687         1.48847         6.16905
LJ         -0.769108        -1.56866         1.41008
LJ           2.42205        -3.05019        -1.26215
LJ         -0.545484        -1.35722     0.000285326
LJ           4.21875        -3.38192        -5.14389
LJ           1.62063         1.50802        -3.72146
LJ           2.97364        0.284368         4.12736
LJ          0.675428          1.5423        -0.35775
LJ           4.29874        -3.26836         1.39774
LJ          -6.23091        -4.03276       -0.918901
LJ          -1.99086       -0.168809          3.0144
LJ           5.37351          -5.515         5.33372
LJ           3.54481        -1.84289        -2.65934
LJ          -2.75794         5.54916        -2.33642
LJ            6.3516         -2.0376        0.600186
LJ           3.32914        -4.29459        -1.29576
LJ           2.71765         5.20128         0.62092
LJ           4.82263          2.8655        0.577371
LJ          0.419106         -2.9793          4.5109
LJ         -0.991719         3.36853        0.329743
LJ          -5.09888         1.45595        -4.53159
LJ           1.68537         4.85467         2.57628
LJ          -2.91961       -0.238295         3.80156
LJ          -6.41839        -5.25825        0.770519
LJ          -1.35112        -5.46588         4.82207
LJ           2.22701          1.0258         3.67666
LJ           5.60534         2.99514       -0.373062
LJ          -1.78956         1.80821         4.76803
LJ          -4.68467         1.51492         4.67119
LJ           2.12123         3.96922        0.335243
LJ          -5.31505         2.55402        -5.89982
LJ           2.54654         6.18502        -3.92756
LJ          -1.89308        -1.30972         3.21819
LJ          -3.44958         6.37205        -2.62692
LJ           -3.8064         1.16173       -0.792401
LJ          -4.73541       -0.719613        -1.11261
LJ          -5.28948        -0.73649         -0.1711
LJ          -1.88783        -4.31825         5.65775
LJ           5.86206        -5.82359        -6.14078
LJ           1.85112        -5.24553       -0.179344
LJ           -2.5378         4.48116        -3.66248
LJ           4.33759         1.51173        0.317873
LJ          -1.86293       0.0758597         1.30189
LJ           2.95109         5.37698        -2.73231
LJ          -6.06066         1.27483         2.81928
LJ          0.896315        -2.40412         1.87928
LJ           1.11698        -4.35027        -1.54358
LJ           2.16353         2.89659        -1.97772
LJ           1.05027         2.78616        -4.59876
LJ          -1.01683        -4.78203         2.18426
LJ          -1.46946        -3.75292         1.77461
LJ          -6.04996        -2.70118         5.23108
LJ           6.10613         1.43212         1.03946
LJ          -5.24008        -2.66777        -6.37998
LJ          0.191261         4.75983          4.3821
LJ          0.368498          2.1698         0.87664
LJ          -2.84013         2.70755         2.37591
LJ           3.67603        0.719963        -3.56438
LJ            2.1842         -4.2285        -1.38146
LJ          0.732224        0.863997        -5.80374
LJ           6.36742         3.84017        -3.61088
LJ           4.45901       -0.739045        -1.71422
LJ          -1.21276        -4.45803        0.977795
LJ         -0.302732        -2.26962         5.99177
LJ          0.415912         2.16073        -2.31615
LJ           3.46505          1.0829        -2.33436
LJ           5.96013          5.9168        -3.86932
LJ           1.37562         1.36693         6.27887
LJ           2.68078       -0.660845         2.98627
LJ           -5.2872         6.28439         3.56023
LJ          -2.60154        -4.46773        -2.92219
LJ           2.91905       -0.464587        0.953966
LJ          -1.23251        -2.70402         3.10079
LJ           1.08346         1.38562        -4.84769
LJ           5.06357        -6.40873         -4.0157
LJ           1.21347        -5.19573         3.20338
LJ          -1.01688        0.298123         4.54654
LJ          0.567547       0.0387394        -4.56063
LJ          -3.36937        0.314184        -6.07013
LJ           4.28096         5.72626         -6.0838
LJ          -4.59452        -1.18052         3.02981
LJ          -3.64894        -6.14542        0.207834
LJ           4.19519         3.41581         1.23601
LJ           4.45132         4.75204        -5.42747
LJ          -4.01636        -5.74763        -4.03329
LJ          -5.13808       -0.682515         2.28716
LJ           3.19016         3.79793        -3.10852
LJ          -5.06417         5.10777        -1.81228
LJ          -1.50572         2.87595       -0.595078
LJ          -3.51453        -1.93079        -5.51719
LJ          -4.70322        -2.42781         4.61552
LJ         -0.495391         1.51723         4.49528
LJ           4.00548        -1.34448          1.4346
LJ          -6.37487         1.62229        -3.15242
