108
#Comment!
LJ          -5.31999        -3.63964         4.05821
LJ          -2.60663         5.68114        -4.65998
LJ          -1.30601         5.17715        0.931726
LJ           5.40355        -4.68904         4.66602
LJ           5.16779        -1.15117        -4.71087
LJ          -2.55963         1.99189         4.69029
LJ           5.85431        -2.01001        -4.78497
LJ          -5.32687         4.35418       -0.404831
LJ          -5.67453         3.36251         2.62699
LJ           5.25779        0.336759        -4.91358
LJ          -5.94142        -1.11599         4.89106
LJ          -1.36667         -5.0987         6.07942
LJ           1.50893         3.56716        -5.13843
LJ            4.3406        -2.90837         1.15531
LJ           6.20818         -1.6257        0.732107
LJ           4.46065         3.30855         2.21687
LJ           4.91353      -0.0683905         2.97487
LJ          -5.17272        -5.34371         6.31499
LJ          -3.07222         1.73414          3.1559
LJ          -5.51102         1.18975          1.6659
LJ           3.47609         3.34615       -0.788799
LJ         -0.452715         3.84422         5.03108
LJ           5.85709       -0.629423         4.22986
LJ           4.79816        -4.35249        -1.10788
LJ          -1.07491         3.60227         5.91677
LJ            3.1923        -4.58562         6.01958
LJ            5.1815         2.35241        -5.75779
LJ          -2.57684         5.08561        -1.63872
LJ           -3.0553          2.8302       -0.554393
LJ           4.87009         2.97184        -2.53028
LJ          -2.77689        -3.12562         2.49956
LJ          -6.34032        -5.71488        0.402436
LJ          -2.26289        -2.69916         5.42388
LJ          0.358839        -4.20504        -3.45547
LJ          -3.42405         -5.8697        -6.22168
LJ          0.156176        -6.03555         1.70147
LJ          0.998934        -4.85806         6.35028
LJ          -2.75034         2.58008        0.923752
LJ          -1.11306        -3.47701        -6.34706
LJ           3.44936        0.769854        -2.65684
LJ           1.25278         4.46567        -6.23979
LJ           5.60137        -3.67721        0.174132
LJ           6.07143        -3.73528        -4.27917
LJ           1.45637        -3.46361       -0.746338
LJ          -5.12265         4.25093         5.46043
LJ          -5.88273         0.27708        0.789522
LJ           1.87653        -4.90842         4.55846
LJ           1.82493        -5.35791         2.51782
LJ           2.09827        -5.86203        -6.31641
LJ          -3.04219         6.14563         1.68858
LJ          -4.55941         6.32696        -3.69731
LJ           4.73572        -5.47049        -1.26463
LJ          -2.14154        -4.22718       -0.107296
LJ           1.04706          5.1316       -0.428143
LJ          -4.70795        -3.48037         5.09638
LJ           2.73096           5.805        0.160049
LJ          -3.10853         5.14825        -2.56396
LJ           5.02504         6.30798        -1.30376
LJ          -4.11407        -4.63964         3.59752
LJ          -5.75008        -5.64103        -1.14627
LJ           4.86173         3.82814        -1.29573
LJ           2.81376       -0.150661        -4.65141
LJ          -5.75398        -3.24743        -4.71468
LJ         -0.215805       -0.675154         5.71462
LJ          -6.17651         6.25092        -1.38094
LJ           3.37543         3.88304        -2.29153
LJ         0.0503712         5.40651       -0.447871
LJ          -5.56217        -4.95674        -3.32895
LJ           5.25644         1.48619         5.86383
LJ          -3.57799         3.57679        -1.61304
LJ         -0.975075       -0.872398         1.46943
LJ           2.00692       -0.704971         3.48845
LJ           3.86654        -5.45569        -3.76662
LJ         -0.323302        -1.87541       -0.385739
LJ          -4.52217         2.72915        -3.88841
LJ           5.23119         4.48946          1.6509
LJ          -1.91409         -3.3693         1.21029
LJ          -4.27909         5.36156        -6.22535
LJ          0.691764         5.26525        -4.94567
LJ           4.20579        -1.49701        -3.04869
LJ          0.699844        -4.84202        -2.68731
LJ          -4.18091          1.2724         5.26747
LJ           5.98306        -2.00886        -1.21193
LJ          -3.78936         1.47846        -2.39597
LJ           3.19285         2.97087         2.74219
LJ           1.58589         0.49015        -2.02427
LJ           4.89269         5.37917        -4.13416
LJ          -3.36981         5.24215        -5.34557
LJ          -0.94438         2.58704         5.43241
LJ          0.854489         5.79076         0.35397
LJ           0.16859        -4.52344         5.10379
LJ           5.56025         -4.6007       -0.308062
LJ           4.18784        -5.28634         3.20195
LJ          0.945113        -1.06203       -0.177848
LJ          -4.29298         -1.2825        -6.25777
LJ           6.31057         -5.8969         1.54355
LJ           1.77707         5.49674        -3.88422
LJ          -3.18278         -4.0749         4.08336
LJ           4.02234         1.32319        -3.63385
LJ          0.771864         1.63917       0.0943813
LJ           3.71246        -4.87105        0.661232
LJ          -1.68257         1.49982         4.10401
LJ          -4.16434        -3.01231        -5.53102
LJ          -4.00227          4.2296         1.00908
LJ          -6.33861         1.02678        -6.38664
LJ         -0.237501         3.44152      0.00323452
LJ          -4.29242        -1.11841         5.20873
LJ           2.15645        -5.50242        -3.64349
