108
#Comment!
LJ         -0.894806        0.903038        -2.20862
LJ          -2.32516       -0.807382         1.69377
LJ          -6.30763        -1.73629         4.59733
LJ          -5.17742         -6.2949        -5.53279
LJ           5.87017         5.52128        -2.19338
LJ           -1.7404         -4.6852         4.26263
LJ          -6.04327        -5.28425        -3.85933
LJ           4.25229        -6.16293       -0.969261
LJ          -5.90587        -1.72106         3.57097
LJ           1.15115         3.42983        0.161511
LJ         -0.599825        -1.41193        0.916357
LJ           4.12278         2.08577         3.91176
LJ           2.75519         4.86901        0.692288
LJ         -0.967957          -2.894         6.12215
LJ           5.06222         2.69179         5.50503
LJ          -6.10845        -2.13607        -4.43065
LJ          -2.34305         5.50686         0.19659
LJ           3.05707        0.929436         2.71665
LJ           3.16085        -5.26521         4.64318
LJ          -6.34337        -5.68709        -2.83971
LJ         -0.999838       -0.126988        -5.46318
LJ           1.97827        0.915172       0.0767563
LJ          0.610257         1.85161        -2.80262
LJ          -4.78469         1.16501         5.45507
LJ           1.10883       -0.873832        -4.84473
LJ            5.4718        -2.84903         0.35356
LJ           1.59562         -1.2945        0.277987
LJ           -6.3891         1.82447         1.86373
LJ            1.9408          6.2247        0.403941
LJ           1.41785         1.41868        -5.90457
LJ           1.80838        -6.09764         2.89904
LJ          -2.00531        -4.75127        -2.87291
LJ          -4.66915        -4.05206        -3.71261
LJ           3.21144        -1.71249         4.11532
LJ          -3.58536         5.16263         6.39291
LJ           2.92232         5.36193        -6.23315
LJ           2.33974       -0.567938        -1.80357
LJ           3.02659        0.210801        0.289942
LJ          -5.68918          1.9044        -3.15807
LJ           2.80927         1.80747          4.2157
LJ          -1.18843          1.5477         3.39732
LJ           1.10274          3.8744        -1.64733
LJ          -4.22853        -4.24583         4.67512
LJ           3.84293         3.20298         3.67325
LJ           2.24127        0.926904        -2.98543
LJ           3.70698         6.13574         4.09058
LJ            1.1645         1.04239         3.32644
LJ          0.214749         2.89017        -2.86902
LJ           1.26684         5.54512         2.97364
LJ           1.15295         6.05914        -5.77314
LJ           3.14918         2.03795        -4.97119
LJ          -2.56065        -4.95531         3.08391
LJ           -3.0152        -6.23186        -4.18119
LJ          -2.90941        -2.68372         6.03675
LJ           -2.6424         1.35254        -3.99951
LJ           1.51007          5.0785         6.40947
LJ          -1.12847         1.94779         5.68501
LJ           4.33929        0.231829         5.86572
LJ          -4.87768        -5.37872         5.26352
LJ            5.8087        -4.59495         5.12025
LJ           1.76754          2.8724       -0.858618
LJ           4.80045        0.369819        -3.23439
LJ          -5.88308        -2.72317         4.33232
LJ          -5.24526         0.27695         4.59889
LJ          -5.31156          1.1362         1.01408
LJ          -3.42107        0.112802        0.186373
LJ          -2.05196        -2.24793        -5.50056
LJ          0.388236         1.75161        -1.35084
LJ          -5.02438        -1.55605         -0.6942
LJ           1.80486         5.22609       -0.193889
LJ          -4.53227          2.9991         4.99411
LJ           6.18236         1.43585        -3.57396
LJ           4.30587         5.83829         3.09893
LJ          -1.30642        -3.94469          5.8839
LJ          -2.52986         3.17079        -2.75387
LJ           2.69884         5.71847         2.36005
LJ          -5.16498          5.3964         5.96444
LJ         -0.149421        -5.29819        -1.58522
LJ           3.45836         -2.3348       -0.340581
LJ           1.54582         5.95362         1.42353
LJ          -1.39703        -4.92687        -5.09588
LJ           5.65426        -5.31749        -4.00801
LJ          -1.15987         1.98593        -2.53909
LJ           0.86596       0.0777584        -5.22601
LJ           1.30657        -4.21957         5.07432
LJ          -2.83375         1.37355         3.23376
LJ          -4.24527         1.90802         -4.8789
LJ           1.46387         2.67666        -6.36246
LJ           2.00715         -2.0237        -2.16399
LJ          -5.23525        -2.92614        -5.72617
LJ           1.08353         1.05031         4.70553
LJ           4.06475        -4.03925         2.47802
LJ          0.832194        -2.56167        -2.88038
LJ          -3.11454       -0.144432        -3.75588
LJ         -0.821703       -0.340628        -1.50072
LJ           2.79199         1.77334         1.38918
LJ           -4.8885        -2.62408        -4.41079
LJ          -5.16215         2.88823        -3.91272
LJ          0.570641        -5.73724       -0.348232
LJ          -3.45098        -2.10071        -3.57912
LJ         -0.915569         1.60403        -6.16249
LJ          -4.56931         2.67858         2.83533
LJ           5.13667        0.659844        -6.23144
LJ           5.18631         1.50747         3.54594
LJ          -1.42859         0.16599         2.36966
LJ          0.145613        -6.16142        -2.22953
LJ           3.86746        -1.02056        0.949322
LJ           4.78108         4.94916        -2.55562
