108
#Comment!
LJ         -0.304837         3.74796          1.7512
LJ           4.83637         2.10612        -5.02165
LJ           4.35762        0.552077           3.378
LJ         -0.312894        0.873922         1.66983
LJ           1.78409        -1.04264         3.86817
LJ            3.8504        -2.23402        0.208984
LJ          -2.28994         1.98549        -3.75264
LJ          -1.94365         3.29035        -1.43717
LJ           5.23808         5.01461        0.573492
LJ          -2.60302         4.07826        -1.98317
LJ          -2.90881        -2.95798        -5.30661
LJ          -2.31894         4.13681        -6.05418
LJ           1.35973         4.53036          5.3613
LJ         -0.848622        -4.34804        -3.74475
LJ          0.188678        -6.32507        -1.66939
LJ          -2.35038        -5.12177         6.33377
LJ           1.12316        -2.23037        -1.53284
LJ           5.20435        0.312609         4.60615
LJ          -4.61346        -1.86826        -3.81756
LJ          -4.64165       -0.835637        -6.31975
LJ           -6.2386        -4.74571         5.50479
LJ          -1.82029        0.868042        -1.31097
LJ           4.16656        -2.42734        -6.30147
LJ         -0.423212         2.94073        -2.89287
LJ          -5.67483         1.40355        -4.34318
LJ          0.716424       -0.951481         5.07937
LJ          -6.05295         3.39402         1.15577
LJ          -6.37912         2.56774        -4.21142
LJ            1.3663         2.52429         5.48934
LJ          0.602979        -1.14278         3.95885
LJ          -5.07142        0.498128         1.13971
LJ          -1.73064        -5.44451       0.0434765
LJ           3.47473        -1.45983        -5.97804
LJ           2.35055        -3.40235       -0.385046
LJ           1.50815        -3.11755         -3.7031
LJ          -5.35362        -1.66768        -6.37052
LJ           0.15023          4.7297       -0.255382
LJ          -1.73144         6.04768        -5.44242
LJ          -1.62804         3.32649         2.56576
LJ          -4.02275        -5.83074        -2.97761
LJ           4.79668        -6.17385         4.97036
LJ          0.710259        -5.11457        -2.84699
LJ          -4.91125         2.23877         5.40901
LJ          -3.25529         1.17142        -3.91627
LJ          -2.40004      -0.0712447         4.76158
LJ           3.44158        -1.81326         3.92809
LJ           3.31711        -5.29126         2.42201
LJ           4.92925        -5.36634        0.573022
LJ           5.92355         3.06327         4.73055
LJ             4.632         5.59803         3.16156
LJ          -1.58264        -5.55131        -5.90642
LJ          -3.39274          2.9273        -1.28557
LJ          -4.26839        -4.94932        -1.80583
LJ           2.72086        -4.01753         2.71672
LJ           1.06001        -4.38395         4.80086
LJ           3.39768        -5.61088           3.577
LJ           2.31232         5.60417        -2.40163
LJ          -3.24919        -4.49671         6.28884
LJ           2.51825         3.84312         2.54327
LJ          0.653826         4.16701        -1.97701
LJ          -2.60272         4.48397         4.48935
LJ           3.53945       0.0650679         2.13699
LJ           1.41857       -0.448497         2.18961
LJ          -5.14071        -6.34709       0.0472559
LJ           2.68532         4.61237         4.52274
LJ           4.10941         4.83942         4.41178
LJ          0.535369         1.13847        -4.27388
LJ          -3.78869        -2.91568         5.90445
LJ           4.60512         1.48182         -4.1781
LJ          -2.78186         6.13764        -6.21021
LJ          -3.76066          2.5986         3.02199
LJ           4.30879        -0.32919         3.79684
LJ          -4.13441       -0.905372         5.10114
LJ           4.06275          -6.112        -5.02981
LJ          -1.46182         3.06887        -3.64035
LJ          -3.78225         1.40578         1.52913
LJ             5.726         5.95127        -1.94128
LJ           -4.3106         2.98831         5.85788
LJ          -2.52308         2.07838          -2.701
LJ          -1.02321        -5.42598        -1.57766
LJ          -4.94213         5.71783       -0.644645
LJ          -2.00868         3.75378         3.62352
LJ          -2.59715        -1.80905       -0.642487
LJ         0.0159667          4.3785        -4.94474
LJ          -2.50687           2.269       -0.444306
LJ           4.92217        -3.61381         6.18053
LJ           5.09495          -5.871         3.51503
LJ           6.21589         1.99335         4.98071
LJ           5.57036         4.67477        -2.77589
LJ           1.49796         1.00493         4.92274
LJ          -2.01186        -3.47094         4.68384
LJ          -2.35046        -3.67994       -0.227649
LJ           1.55045         3.93055         2.16542
LJ             -3.65         1.40668        -2.25938
LJ           3.30566         5.17747         3.71423
LJ          -6.25977         4.67938         3.99558
LJ           2.26709         4.59732         6.27126
LJ          -2.79226        -1.98845        0.380567
LJ           4.69794        -2.62383        -4.75244
LJ          -5.49469        -5.44472          6.0904
LJ          -3.05264         4.15348         5.46213
LJ           2.54846        -1.66438         1.47848
LJ           5.21402        -4.07822        0.363339
LJ           2.56345        0.201866         4.37587
LJ          -4.81027         1.03246       -0.674274
LJ          -3.25591        -5.96078        -3.96611
LJ          -3.59875       -0.502202         -1.9199
LJ          0.427249         2.28505        -4.78492
