108
#Comment!
LJ           3.29529         1.56937         4.70466
LJ           2.05484         6.33655        0.505715
LJ           2.71715         2.36177         1.91493
LJ            1.2237        -6.31233          4.6335
LJ           2.99366        -5.42146         5.65329
LJ           3.05018          5.2167        -4.66632
LJ           1.73186        0.704588         5.54233
LJ           3.82868         -3.0637       -0.501845
LJ          -1.33908        -1.68126         4.58955
LJ           1.11034         1.15907        0.958109
LJ           4.78465       -0.739414        -3.48163
LJ          -1.80643         2.93664         5.61118
LJ          -3.05714        -3.72981       0.0979546
LJ          -3.25315         5.12985         -3.8511
LJ          0.722669        0.892197         6.00609
LJ         -0.294486        -2.23119         2.14231
LJ           2.99987        -2.82327       -0.977356
LJ         -0.229426        -1.00758      -0.0853739
LJ           3.79393        -3.87547        -4.63497
LJ           1.74873        0.689459        -4.17275
LJ           3.27615       -0.443846          4.1698
LJ          0.133052         2.36038       -0.881442
LJ           4.56008        -3.71437         1.02714
LJ          -6.15391        -3.76431        -1.22298
LJ          -1.67624      -0.0321076         2.90226
LJ           4.41735        -6.15841         5.34624
LJ           3.38576        -1.69226         -2.6249
LJ          -2.63627         5.51749        -1.74891
LJ           5.92072        -1.44684         1.06177
LJ           3.58518        -4.51663        -1.44979
LJ            2.5489         4.63303        0.941157
LJ           5.30069         2.65676        0.897169
LJ           0.49313        -3.31139         4.13645
LJ           -1.1156         4.25132        0.622384
LJ           -5.1427         2.01941        -4.81019
LJ           1.99925         5.20692         2.90145
LJ          -2.82719        -0.29387          4.1118
LJ           5.63894        -5.54654        0.103296
LJ          -2.08342        -5.65462         5.28983
LJ           2.23315        0.547359         3.42776
LJ           5.78741         3.39215       -0.663417
LJ          -2.60489         1.39466         4.91573
LJ          -4.72192         1.81476         5.41045
LJ            1.9869         3.65156        0.445317
LJ          -5.68836         2.11764        -6.14405
LJ           2.20935         5.80013        -4.51253
LJ          -2.72332        -2.09656         3.01066
LJ          -3.30719         5.89195        -3.12636
LJ          -3.36653         1.31868        -1.16944
LJ          -4.50618        -1.06776       -0.952216
LJ          -4.60941        -1.13918        0.493346
LJ          -2.97585        -4.39324         6.29369
LJ           5.79603        -4.65001         6.20733
LJ          0.839516         -4.6181       -0.622851
LJ          -2.31576          5.0759        -3.01124
LJ           4.61153         2.11006        0.330502
LJ          -1.92198     -0.00280581         1.12495
LJ           2.72307         5.20772        -2.04835
LJ          -6.03831         1.21843         3.00865
LJ          0.416274        -2.79083         1.62477
LJ           1.38876        -3.78443        -1.07629
LJ           2.92915         2.92257        -2.43201
LJ           1.57158         3.35003        -4.56046
LJ          -1.15114         -4.7169         2.66187
LJ          -1.68886        -3.42703         2.23482
LJ           5.71265        -3.54105         4.52158
LJ           5.20836         1.09689        0.850391
LJ          -4.15123        -2.57969        -5.74523
LJ           0.23884         4.54249         4.15488
LJ          -0.09272         2.17526         1.17661
LJ          -2.35922         2.35541         1.86236
LJ           3.98904        0.061996        -3.82537
LJ           2.22321        -4.81865        -1.14213
LJ          0.481021         1.26315        -5.50276
LJ           -5.8589         3.17466        -3.81131
LJ           4.35006       -0.312489        -1.56101
LJ          -1.26857        -4.79276        0.934572
LJ         -0.216264        -1.47301         5.92973
LJ          0.772947         2.18393        -2.09776
LJ           3.01377        0.393364        -1.65909
LJ           6.36415         5.98723        -3.84397
LJ            1.5616         1.48918        -5.95855
LJ           2.29395       -0.470978         3.08443
LJ          -4.56786         5.94018         3.47447
LJ          -2.68162        -4.25094        -3.19043
LJ           3.77957       -0.482513         1.27914
LJ          -1.05795        -3.21511         3.12776
LJ           1.15782         1.81091        -4.75541
LJ           4.90553         5.94219        -3.83701
LJ           1.19016        -5.44597          3.4558
LJ          -1.01505        0.687662         4.41854
LJ          0.754608       -0.303035        -4.50704
LJ          -3.17247         1.30516        -5.65235
LJ           4.25607         5.23356        -6.08171
LJ          -5.00392        -1.66693         3.10838
LJ          -4.03753        -5.92133        0.382585
LJ           4.46939         4.04238        0.900781
LJ           4.07576         4.46578        -5.32225
LJ          -4.29551        -5.53734        -4.20336
LJ          -4.98134         0.16041         2.86555
LJ           3.01691         4.80805        -3.02013
LJ          -5.45222          5.1196        -2.26769
LJ          -1.60492         2.30963        -0.39872
LJ          -3.79897        -1.44297        -5.68705
LJ          -4.00145        -1.85271         3.71183
LJ         -0.560787         2.02268         4.59856
LJ           4.66347        -1.96798         1.23082
LJ           6.36999         1.58601        -3.23993
