108
#Comment!
LJ          -1.22016        0.831561        -2.53299
LJ          -2.31908       -0.830302         1.28952
LJ          -6.01885        -1.92822         4.59375
LJ           -5.3372        -6.20314         -5.2013
LJ           6.36968         5.75117        -2.38736
LJ           -2.0208        -4.20053         4.48935
LJ          -5.76697        -5.38948        -3.96155
LJ           4.13767        -6.45163       -0.863633
LJ            6.1554        -1.60126         3.24901
LJ           1.52357         3.23524        0.775773
LJ         -0.762336        -1.62546         1.45108
LJ           3.83314         1.88094         3.72581
LJ           3.18358          4.9156        0.867653
LJ          -1.10869        -2.65288         6.17287
LJ           5.40568         3.02104         5.18584
LJ          -6.00637        -2.02568        -4.79959
LJ          -2.05304          5.7664        0.224218
LJ           2.77705         1.10719          2.4313
LJ           3.36206        -4.88629         4.44436
LJ          -6.36616        -5.81193         -2.9786
LJ         -0.950743        0.147089        -5.52861
LJ           1.92675         1.19646        0.250499
LJ          0.338422         1.78562        -2.71961
LJ          -4.69889         1.05519         5.68708
LJ           1.15116       -0.725671         -4.5917
LJ           5.55385        -2.52956        0.548188
LJ            2.1447       -0.787497        0.148721
LJ          -6.09656         1.50381         1.18653
LJ           1.70473         5.84454      -0.0714247
LJ           1.62659         1.12927        -5.54825
LJ           1.58091        -6.04704         2.72575
LJ          -1.99979        -5.34089        -3.26876
LJ          -5.16892        -4.19898        -4.11486
LJ           2.96326        -2.16338         4.00988
LJ           -3.7259         5.05933         6.19288
LJ           3.03757         4.97488        -6.36701
LJ           2.13585        -0.36535        -1.92242
LJ           3.20132       0.0130634        0.165938
LJ           -5.4705         2.12397        -3.40454
LJ           2.85253         1.91507           4.133
LJ          -1.45759           1.795         3.76593
LJ           1.15101         4.16524        -1.96565
LJ          -4.07591          -4.175         4.80411
LJ           3.58142         2.96692          3.4702
LJ           2.35249        0.742033        -2.71287
LJ           3.61329         6.02174         4.37039
LJ           1.29296         0.26293         2.98643
LJ         -0.234792         3.20547        -2.74795
LJ           1.55566         5.71737         2.68266
LJ           1.09117         6.00939        -6.05785
LJ           3.24576         1.87613        -4.83399
LJ          -1.98345        -4.86804         3.24587
LJ          -3.21882         5.98329        -3.90173
LJ          -3.11881        -2.65839         6.25653
LJ          -2.13193         1.20481        -3.60189
LJ           1.09357         4.93201         6.42815
LJ          -1.17724         2.06517         5.95139
LJ           4.59461         0.40395         5.71484
LJ          -4.92134        -5.63031         5.03354
LJ           6.31741        -4.98705         4.71376
LJ            1.3882         2.31141       -0.613326
LJ           4.48079        0.437861        -3.49023
LJ          -6.12006        -3.22376         4.54466
LJ          -5.09599        0.242849         4.86494
LJ          -5.19571        0.964263         1.42708
LJ          -3.42586       0.0915136        0.159801
LJ          -1.86242        -2.27783        -4.69201
LJ        0.00120866         1.50434        -1.21865
LJ          -4.83636        -1.50341       -0.501372
LJ           1.70324         4.54545      -0.0698659
LJ          -4.41538         3.24124         5.05452
LJ           5.89014          1.5834        -3.71239
LJ           3.63192         6.16428         2.86493
LJ         -0.930787        -4.16649         6.13519
LJ          -3.01056         3.60755        -2.38086
LJ           2.61248         5.77056         2.73724
LJ          -4.77573         5.37427         6.23777
LJ         -0.295915        -5.12755        -1.63591
LJ           2.98882        -2.02299       -0.116785
LJ            1.6665         6.31657         1.33899
LJ           -1.1186        -4.88367        -4.70629
LJ           5.82026        -5.15566        -3.99008
LJ          -1.28276         2.51578        -2.46236
LJ           1.12326        0.431058         -5.1126
LJ           1.15031        -3.87272         4.78497
LJ          -3.02947         1.25465         2.79819
LJ          -4.17687         1.75351        -5.21531
LJ           1.50977         2.82162        -6.45608
LJ           2.32926          -1.956        -2.16187
LJ          -5.33813        -3.20247        -5.54494
LJ           1.50636         1.18422         4.67207
LJ           3.67881        -4.33344         2.50601
LJ           1.38808         -3.0966        -2.78388
LJ          -3.36993      0.00231012         -3.7858
LJ        -0.0656879       0.0555111        -1.74999
LJ           3.02182         1.53595         1.26161
LJ           -4.9599        -2.61312         -4.7317
LJ          -5.11257         3.35542        -3.71193
LJ         0.0873939        -5.91353        -0.56879
LJ          -3.52137        -1.83246        -4.36403
LJ           -1.0806         1.91874        -5.87759
LJ          -4.85731         2.71461         3.19773
LJ           5.63034        0.467869        -6.11795
LJ           5.34158          1.4935         3.67414
LJ          -1.49973        0.720333         2.27495
LJ          0.192665        -6.13996        -1.99705
LJ           3.64439        -1.18135         1.06842
LJ           4.68281         4.98734        -2.65888
