108
#Comment!
LJ  -0.13391353591612751   0.31519218266738946   0.23395374433920335
LJ  0.33192381835228246   0.27525310358364513   0.0048760241534497517
LJ  0.14867647213044555   0.25324321628485036   0.23263103206698724
LJ  -0.097155534327616019   -0.39303226408174058   0.16431437153059772
LJ  0.065326678800364135   -0.25231574109442845   -0.35655671260379318
LJ  -0.43463085037162774   -0.1894945147299297   -0.070365658105975309
LJ  -0.095553624804747481   -0.1580493576447084   -0.33518370952485455
LJ  -0.14574143528631628   0.20844768859572094   -0.0081857499003184821
LJ  -0.45416190837885523   0.46989504678311284   -0.062733001743536437
LJ  -0.063782014460650516   0.18018852580971115   0.056629750331874978
LJ  -0.19797163179052651   -0.36938515251860471   -0.47936891996117692
LJ  -0.25847168749043964   0.43327944788233741   0.22386073123634781
LJ  0.15967577906851638   0.27807737070186384   -0.41700707680946708
LJ  0.086600397746067106   -0.23583114835106764   -0.47994495771022716
LJ  0.37548800047888276   -0.44832937776123527   -0.10468788299003773
LJ  -0.044469600145836279   -0.43392338299738142   0.34922055792576384
LJ  -0.24369778746097442   0.49363999296737082   -0.17536958534981117
LJ  0.22903285290977607   -0.003694372609746721   -0.49018279676839344
LJ  -0.16076593348978752   -0.3287974242400557   -0.043473475821580822
LJ  -0.44880478879131264   -0.34920310888639849   -0.39252834237516421
LJ  -0.2808135784895669   -0.25609746873189992   -0.00031391392314281992
LJ  0.413061942054057   0.23844835930470532   -0.12465041348640621
LJ  0.083831380213411688   -0.22592200781889038   -0.20592574234540606
LJ  0.14089248518184577   0.37548411405660154   -0.20142049152842939
LJ  -0.1171001586250978   0.26225577907678993   0.49930809480120675
LJ  -0.15373593709542396   -0.074798225900213303   0.24422778686659458
LJ  -0.40894310521538685   -0.4286772570721169   0.28327627165492214
LJ  0.25294876465371985   0.22021887338041102   -0.30016110238529753
LJ  0.034730958448124363   0.43902381364044135   0.32216347103551413
LJ  -0.11730538737495723   -0.1313046549291996   0.12905186251225015
LJ  -0.29913458676902238   -0.20317719715039609   -0.051903792430753937
LJ  -0.083366024860510299   0.090819677242255842   0.25894624894371598
LJ  0.03017622665682029   -0.16013649816359846   -0.45159265918758068
LJ  0.20078331107189321   0.053223891436738571   0.23584359767104635
LJ  0.090336462180122201   -0.26157406675088185   -0.056398910355481821
LJ  -0.45231516482187023   -0.33099841116759487   -0.30199306576350315
LJ  -0.18210200656985637   -0.084059978230757532   0.14322278859344903
LJ  -0.24813014967782976   0.36267991825407808   0.27351275159591099
LJ  -0.15448694328299858   0.33882443623194097   0.1423861004469581
LJ  -0.07569821373773257   0.44060584316913232   -0.21537880118123093
LJ  0.3744979529311146   -0.47148017299327954   0.24863898999529849
LJ  0.14333597782511864   -0.35900728926373576   -0.19133613436940464
LJ  0.28561719300181815   0.15086339966211013   0.30504274164062051
LJ  -0.09592858778101232   0.13074901354712357   -0.18702996404374655
LJ  0.19698263498691737   0.098378061038810707   0.16271367384131824
LJ  0.34848745177301144   -0.044265204912572333   0.1933037954723654
LJ  0.14962051452612443   -0.11547855184418886   0.12668145799184688
LJ  -0.40385342925166517   0.41747171260926758   0.10329088732021841
LJ  0.22860486047527431   0.34182751359073338   0.3168000705765463
LJ  0.30373313018474213   0.38418563768939595   0.30689988595503265
LJ  -0.033360915021059583   0.49920509745378211   -0.11158117778857493
LJ  0.0042921909232852724   0.32179334926865105   -0.015252564958096043
LJ  -0.43743927712451036   -0.18133488274732287   -0.29073362756291798
LJ  0.0785998461604238   -0.2487942553068995   0.42492301615467976
LJ  -0.026048207756343481   -0.31723253051944589   -0.22691186679973829
LJ  -0.10302832148139637   0.28838136647298579   0.11250533204662061
LJ  0.039185233189700748   0.17163947503673116   -0.16739016847387514
LJ  -0.36915431244385938   -0.39679056881020985   0.3363610211704538
LJ  0.16613456935504295   0.18611786465781097   0.38547074622803773
LJ  0.28780184913075824   -0.48082442369727263   0.0032897004765043993
LJ  -0.28679481266059631   0.24166777447153442   0.18039225098192158
LJ  0.35155993561499177   0.24473377709900571   0.068919211608635386
LJ  -0.16717977916059243   -0.33917923458401883   0.29868050466449347
LJ  -0.31799271932830425   -0.38832984258630626   0.028062553197964066
LJ  0.27927503117371777   -0.3168901607200364   0.39202205633940646
LJ  0.21345959191951058   0.32417393656715976   -0.27003950870976701
LJ  -0.19374667172499363   -0.14615366450005629   0.46353283238092158
LJ  -0.22555703804496069   -0.16696262686568081   0.39624453556399425
LJ  0.38746490757023455   0.32830974987687961   0.04735094328207106
LJ  -0.036200111650972464   0.35091972792467757   -0.45546461298491264
LJ  -0.45435968604166316   0.14149638521520197   0.28135537700253382
LJ  -0.4143063011306965   -0.1255182853171751   0.21969739218282031
LJ  -0.31961599126306878   -0.049061345230539948   -0.45577541282548278
LJ  0.18790389046949083   -0.38095884844788769   -0.3119913848499079
LJ  -0.1439783816668701   0.054263176381587459   -0.21458420570253448
LJ  -0.1609431012107328   0.25379743368580282   -0.1391343134634718
LJ  -0.48546601925007504   0.48954050321882409   -0.2481911638804021
LJ  -0.28439991406815229   0.12840208835868636   0.40587637818690009
LJ  -0.1847449049261648   0.10806434501361774   0.49241066256200933
LJ  -0.050791333225132823   -0.057529971107706614   -0.11708316703029965
LJ  -0.43901367151497839   -0.40208579245708537   -0.092541961285413157
LJ  0.036276146840099888   0.21959789365753307   0.22900671891454008
LJ  -0.18099837769867796   0.14325570978951757   -0.16909570032665855
LJ  -0.11976140676431578   0.036618669122355264   0.46335619968695468
LJ  -0.027403228962116274   0.18219352052571053   -0.25205531684882548
LJ  0.40339563057118044   -0.12627744729878645   0.44973479220158952
LJ  -0.4089470578091039   -0.3956841634299828   0.067581285069498412
LJ  0.18458152735687419   0.39554472607869062   -0.46542128158755208
LJ  0.44456288516133197   -0.4226484299544927   -0.18132606758714601
LJ  0.32621822410809342   0.042717289878809378   0.16945571931883416
LJ  -0.10728448634805166   -0.48006871469436668   0.37932310380709733
LJ  -0.30326336640296603   -0.34755331039558002   -0.044837788508497657
LJ  -0.026522842591386157   0.22984993696646847   0.34873165959601671
LJ  -0.19884223252588709   0.22015175672733187   0.47535339604387178
LJ  0.28069556788626981   0.16121110419565668   0.11819680156998834
LJ  0.35067695168165064   0.18130439647154789   -0.41201256651199697
LJ  0.15843787778054289   -0.4943635676848836   -0.22868944851967929
LJ  -0.041867229913218229   -0.28544924036679753   0.1432751139737643
LJ  -0.49588537713803371   -0.23842271557259173   0.45482446972512003
LJ  0.40563969271144579   0.4577667029622608   -0.37158519655116928
LJ  -0.11953793030176052   0.2178429777020332   0.097018278109170714
LJ  0.24531228717645845   0.14357007859194154   -0.12359403996526168
LJ  0.44599542006545345   -0.3459742366590457   -0.16615123228438405
LJ  0.18030456531940214   0.07408649851966527   0.37341196687465389
LJ  -0.2006949593207969   -0.11900122419400551   -0.27195768746412158
LJ  -0.056143637049476579   0.45282728757416607   -0.29735544640017114
LJ  -0.39623737425870376   0.14823366520767778   -0.02772660247919485
LJ  0.037405515980140677   0.37056742821556077   0.4650156637590831
