108
#Comment!
LJ           2.12613         1.96486         3.84317
LJ           2.66564        -5.67283       -0.826826
LJ          0.318673         2.15136         1.12215
LJ           2.26192        -5.52726          5.3442
LJ           2.83437        -4.68254         3.61546
LJ           3.96543         5.38154        -5.62029
LJ           3.38736       -0.572045         6.42667
LJ          -6.14166        -1.36392        -0.88587
LJ          -2.60293        0.200234         6.00335
LJ           1.71675         1.61183      -0.0308942
LJ           4.48555         -2.8408        -4.02312
LJ          -2.16348         3.21044         4.19521
LJ          -2.56914        -4.82414        -2.76048
LJ         -0.839191         3.73739        -4.47601
LJ           2.24823       -0.495424         6.18916
LJ          0.774584        -2.15523         3.85806
LJ           2.36787         -1.6867        -1.59934
LJ          0.594787       -0.069206       -0.227932
LJ           2.73668         -4.8054        -3.35404
LJ           2.41156       -0.309033        -5.62759
LJ           4.53222         -2.0848         4.99167
LJ         -0.944688         4.29135        -2.61748
LJ           5.20097        -4.60525       -0.180615
LJ          -5.98889        -3.04652        -1.97954
LJ         -0.995305        0.453564         3.10231
LJ           1.65038         5.37996         5.46756
LJ           3.05572        -1.27536         -2.2954
LJ          -2.88526        -6.42084         1.08142
LJ           6.40009        -1.86803         1.42543
LJ            4.4046        -4.99875        -1.40551
LJ           2.01249         3.11127         1.75865
LJ           6.39415         2.35808         1.46813
LJ          0.655155        -4.93388         3.35107
LJ          -1.51551        -6.43477         1.29875
LJ          -5.80815         3.86859        -5.57825
LJ           2.73916         6.22807         3.78576
LJ          -2.12911       -0.488639          4.8739
LJ           4.53256        -6.05251        -2.34666
LJ          -4.09467        -6.01574        -6.31334
LJ           2.04536        0.989965         3.37169
LJ           6.03343         4.34086         -1.0706
LJ          -4.41106        0.115405         5.17173
LJ           -5.2294         1.89562        -5.45686
LJ           1.83052         2.78156        0.704141
LJ          -5.64509         1.34845        -6.40912
LJ           1.05337         4.96759        -5.83318
LJ          -4.28894        -4.47346         2.27565
LJ          -2.68066         6.18164        -2.33487
LJ          -2.12464          1.7416        -2.06427
LJ          -3.82914         -2.0027       -0.147059
LJ          -2.88632        -2.18141         1.94182
LJ          -5.89335        -4.55592        -5.24924
LJ            5.4639        -1.57085         4.53058
LJ          -1.14322        -2.67697        -2.07217
LJ          -1.96826         5.97039        -3.11383
LJ           5.62637         2.75648        0.773914
LJ          -1.99758       -0.108621        0.853765
LJ           2.08836         5.03031       -0.143921
LJ          -5.90892        0.926167         3.45455
LJ         -0.625708        -4.13781        0.835718
LJ           2.38345        -2.89995       0.0859953
LJ           4.92465         3.12576        -3.68776
LJ           2.22288         4.25869         -4.1387
LJ          -1.94085        -4.37094         3.36893
LJ          -2.29241        -3.01705         3.30238
LJ            2.5537        -5.78487         2.89509
LJ           2.76597         1.20266      0.00719212
LJ          -1.23679        -1.54775        -4.16532
LJ          0.354827          3.9488         3.59553
LJ         -0.760845         1.98484         2.06436
LJ          -1.09515         1.52266        0.934824
LJ           4.70047        -1.80554         -4.3344
LJ            1.7944         -5.8455       -0.177163
LJ           1.25487         2.17767        -5.01453
LJ          -4.07527         1.22166        -4.70625
LJ           3.38589        0.819423        -1.18893
LJ          -1.43124        -5.48574         1.22472
LJ         -0.123392        0.653065         5.58899
LJ           1.30409         2.43704        -0.95017
LJ           2.47409        -1.68625       -0.164045
LJ          -6.10106         6.40537        -3.86596
LJ            1.5505        0.804459        -4.59739
LJ           1.19699         -1.5943         2.31996
LJ          -2.67231         5.03943         3.24898
LJ          -2.92908        -3.72376        -3.88751
LJ           3.92092        0.797586          2.3684
LJ         -0.634187        -4.91786         3.58366
LJ          0.909522         3.14607         -4.1739
LJ           5.04966          4.3512        -3.44339
LJ            1.1831         -6.3633         4.41919
LJ          -1.61891         0.88348         3.85729
LJ          0.768506         -1.2477        -4.45398
LJ          -2.70027         3.94053        -4.57499
LJ           4.17214         4.04552        -5.82105
LJ           6.31427        -2.56611         2.80873
LJ            -5.027        -5.31849        0.827597
LJ           5.34439         5.25635       -0.102711
LJ           2.84767         4.78927        -4.91634
LJ          -4.82004        -5.17729        -4.37302
LJ          -4.58761         2.30366         4.48715
LJ           2.58351        -6.08653        -3.18059
LJ           6.35418         4.89201        -3.41731
LJ          -1.96015        0.543671       -0.528159
LJ           -4.5866       -0.987501        -6.07838
LJ          -1.56624       -0.364964         2.44973
LJ         -0.927679         4.01952         4.94869
LJ          -6.22763        -2.86456        0.672907
LJ           6.01251         1.63838        -3.57961
