108
#Comment!
LJ          -2.49782         5.90124         5.82358
LJ          -0.81166         4.97119       -0.389674
LJ          -4.35738         2.13549         3.00735
LJ         -0.861138      -0.0482226        0.847177
LJ           -4.9711       -0.273144       -0.457531
LJ          -4.64837          1.2408         5.32601
LJ           1.75208        -6.33385        -5.59028
LJ          -6.36645        0.819419        -1.34453
LJ           5.85577        -5.89988         1.88209
LJ          -5.79328         3.72288         4.59874
LJ          -6.38907       -0.932966        -1.49827
LJ           3.22228        -2.23257        -4.55416
LJ          -2.99334       -0.194443         6.00997
LJ           1.43379        0.767552         4.16632
LJ           3.11655         3.62367        -5.55996
LJ          -5.97537         5.70313         1.38714
LJ          -5.05185         1.66074        -3.38209
LJ          -3.59493         5.96349          -1.012
LJ          -1.50384         2.17942         1.93438
LJ          -3.34225         3.89487        -1.74282
LJ         -0.798032         4.49235        -6.22262
LJ         -0.254719         3.26253         2.99354
LJ           4.40919        -4.16007        0.323781
LJ          -2.22041        -3.72367          5.8575
LJ           -6.3791        -3.45152         2.35202
LJ          -1.74772        -1.77379        -3.53586
LJ            4.7472         6.19329        -1.83865
LJ          -2.14288         4.63466         5.47568
LJ           4.41772         5.10315       -0.301683
LJ         -0.433528        -2.61728        0.640409
LJ           4.85201        -2.71044         -3.0617
LJ           2.55483        0.420397       -0.976028
LJ          -5.24439         0.21347        -3.18657
LJ           2.72552        -6.04162        -4.76795
LJ           6.36584       -0.722033          2.0987
LJ          -2.31128         5.43695       -0.889756
LJ          -3.39136         4.27017         4.74805
LJ           3.93223         4.59442        -5.23635
LJ            2.3575         4.38785         3.27334
LJ          -1.72924        -5.73269        -4.86945
LJ           3.45438       -0.344174         2.65072
LJ          0.545275        -5.48102         3.42225
LJ            3.8038        -1.01768        -4.20101
LJ           5.18025        -0.64844        -5.23548
LJ           -3.2394        -3.55521         2.20891
LJ           4.78661         1.32588         0.41398
LJ          -4.23686          4.0767          1.5594
LJ          -5.36658        -5.82249        -1.65291
LJ           2.46292        -1.48516         2.32085
LJ           4.90282         4.16497        -3.76944
LJ           2.46687        -2.13938        -5.51963
LJ         -0.879669        -1.41522         3.92474
LJ          -3.70869         1.49248         1.44257
LJ          -5.49967         5.50251        0.399362
LJ          0.347693         3.89645        -3.27058
LJ           4.58555       -0.478693         2.88925
LJ           1.83262       -0.458555        0.111859
LJ           5.70212        -4.26019         1.56803
LJ            5.6113        -6.33549       0.0366381
LJ            2.6641         5.95947        -6.14909
LJ          -1.33526        -1.42753        -6.06588
LJ          -1.29683         -5.8186         5.24706
LJ          -3.48289         5.00422        0.951085
LJ         -0.669241        -5.04909        -3.04149
LJ          -1.66547         3.06006         1.40837
LJ           4.57071        -2.13238        -4.38079
LJ           6.05776         1.15217         5.98104
LJ           2.92591         -2.2456        -3.40005
LJ          -1.56674      -0.0750294         3.21779
LJ         -0.224375       -0.441102         1.92579
LJ           2.68798        -5.53527        -2.29168
LJ          -6.04095       -0.204764         -2.2472
LJ           1.15849         4.72144         -4.3857
LJ         -0.343492         3.75094         4.04577
LJ           6.11323         4.95356        -1.49679
LJ           5.97688        0.827278        -2.37336
LJ          -1.81937        -3.98998        -2.80363
LJ          -6.21501         5.54383         6.23153
LJ         -0.222311         2.94185        -4.02699
LJ          -2.83183         -1.0374         1.21537
LJ           3.29129       -0.551738        -5.73021
LJ          -2.03131        -2.12509        -5.41181
LJ           3.39915        -5.37217        -3.17177
LJ          -2.28957       -0.567461          1.9774
LJ         -0.388766        -4.00798        0.770691
LJ             -3.31        -2.16213         1.76699
LJ           4.38964        0.714541         6.39735
LJ           1.51467       0.0266585         6.33706
LJ          -5.33596        -1.69713        -4.85294
LJ          -5.77529        -5.99507         1.75556
LJ         0.0505414        -1.64182         1.00796
LJ         -0.712853        0.790147         1.85813
LJ          -3.61008         6.38528        -6.39791
LJ          0.792398         6.38436        -3.42902
LJ          -3.80166        0.464122        0.761124
LJ          -4.58166         4.21118        -1.04408
LJ          -2.25315       -0.637657        -1.63953
LJ           2.95694        -6.29052         6.03956
LJ          -3.98624         6.01996        0.302837
LJ           4.65304         2.92177        -4.99468
LJ           -0.1639         1.77597         3.03119
LJ          -1.83436         6.27442         5.22424
LJ             1.416        -2.89531         -4.8096
LJ          -1.03942        -5.52917        -6.36434
LJ          -1.60154        0.200044        -4.00482
LJ           2.43272        -3.69007         4.47921
LJ           2.18589         6.45681         -3.8733
LJ           3.11893         -2.8657          5.4363
