108
#Comment!
LJ           2.66722        0.190299         2.24648
LJ           4.75507        -1.60382         1.52809
LJ           6.32501         3.23721       0.0394583
LJ           1.93935        -3.47742         2.66145
LJ           5.49809         3.86698      -0.0350064
LJ          -1.49631        -2.47415         2.56928
LJ           6.30516         1.89143        -4.49208
LJ           6.33348        -1.25681         1.45462
LJ          -5.88259         4.30244         2.83181
LJ          -4.57605         4.03449        -3.78548
LJ          -4.63545       -0.668029         6.43048
LJ         -0.150993       -0.839463         -2.8869
LJ           3.73726         -0.7609        0.551571
LJ          -3.77852         5.57032        -2.46567
LJ          -1.56649        -4.25991          6.4401
LJ          -3.18018        0.615381        -6.12114
LJ           4.10749         2.47707        -1.47452
LJ           5.24644       -0.834973       -0.392772
LJ           3.40428         3.21826         5.57163
LJ          -4.78549         1.93871         2.02578
LJ           3.65595         4.49064        -2.14475
LJ          -5.77632       -0.808323        -1.81335
LJ          -3.46384        -3.21486         5.04796
LJ          -5.15412           5.004        -3.46928
LJ           2.32611         2.00166       -0.259343
LJ           2.74005        0.157413        -4.99407
LJ          -6.02888        0.716063        -2.54792
LJ          -2.51791       -0.085487        -2.17639
LJ          -1.17969       -0.443259        -2.78417
LJ           2.19945        0.442015         3.68454
LJ          -3.63262         3.98218         5.32016
LJ          -1.95938        0.324174        -3.85999
LJ          -3.94505        -3.35822         3.59722
LJ           1.70258        -1.74273        -3.20805
LJ            1.4983        -3.08355         5.11769
LJ          -4.34249         1.59857         5.32677
LJ           1.28959       -0.782896        -3.56482
LJ         -0.824438         -6.0022        -1.51554
LJ        -0.0189796         3.55562         3.64459
LJ          -5.02958         -4.4655        -1.18252
LJ           3.76854        -5.39367        -4.30292
LJ          0.323949        -6.03994        -1.39041
LJ           2.88112         4.65732        -2.84094
LJ           5.99287         3.64242        -3.84286
LJ          -3.13194       -0.409747        -6.31206
LJ        0.00195428        -2.44521         5.85961
LJ          -3.72955         -3.5498        -1.89287
LJ           4.05781        -5.28379         2.53974
LJ          -3.52202        0.725945        0.653186
LJ           5.18403        -2.20183        -3.93282
LJ          -3.95402        -2.31632        -5.42804
LJ            5.4837         2.82295         -4.5417
LJ          -2.05473         6.41269        -4.42989
LJ           3.23647        -1.89603        -3.16076
LJ           1.40317        -4.70212         2.18392
LJ          -4.02948         4.70344        0.147268
LJ           2.78801         3.36358        -2.90226
LJ          -2.90049         -4.7393        -4.21669
LJ           3.11011         5.03114         3.26953
LJ          -2.66512        -0.66681        -5.32981
LJ           -4.3172         3.02331         6.07304
LJ           2.63058        -4.64261         4.24386
LJ           6.36742         5.28903         3.52215
LJ          -5.18382         1.65839        -2.02453
LJ           4.40831         2.95764        0.797119
LJ           1.05105         4.47051          4.5023
LJ           3.47325         3.39777         1.25668
LJ          -1.30229        -4.81962        -3.46836
LJ           4.71718       -0.865501        0.826829
LJ          -3.13875        -5.61135        -1.16779
LJ          -2.35301         2.36454         2.21935
LJ           5.80315       -0.677858          5.8208
LJ          -3.27912        -1.38208         4.43342
LJ          -6.00901          4.3431         5.13129
LJ          -3.36076        0.381425        -1.30517
LJ          -6.00215         2.52678         5.20404
LJ           4.52649         4.06988        -2.51905
LJ           2.71994         3.92876        -4.25726
LJ          -2.53858         1.31401         1.51674
LJ          -3.20794        -5.48457        -2.75885
LJ          -4.71144          6.2925         3.06063
LJ          -4.64926         -4.3054         6.36087
LJ           -5.8949        -4.41645       0.0665507
LJ           2.00133        -5.84291        -2.43662
LJ           4.00259        -1.63957       -0.118974
LJ           4.33349        -3.53626        -5.54652
LJ           1.57794         6.41311         2.30306
LJ           5.51271         -1.9247         0.66029
LJ           6.12065         3.57037       -0.957159
LJ           -2.5652        -2.63207        -3.64648
LJ         -0.827068         3.43006         2.94735
LJ         -0.227681        -1.74505        0.415641
LJ             2.553          4.0712         3.05963
LJ           -1.6414           1.405        0.726529
LJ            1.3278         4.58836         5.82249
LJ          -4.42697         -5.4721         1.39091
LJ           4.53666         1.07981          1.3025
LJ          -5.29203        -2.86344        0.188598
LJ           1.19986        -1.84377        -5.16718
LJ           6.27056        -5.83527          1.7823
LJ          -3.19772        -6.29682        -3.74053
LJ           1.68136        -6.36302         5.62926
LJ          -5.38788        -2.15681         3.01493
LJ          -1.46967        0.759218         2.15938
LJ          -4.97235        0.981769        0.898103
LJ           4.37159        -5.17967        -1.35875
LJ          -4.01632        -3.71806        -3.54649
LJ          -1.72759         5.30772          5.0278
