108
#Comment!
LJ          0.686439        0.726701       -0.757566
LJ          -2.79113       -0.851425         2.77379
LJ           6.11064        -1.48351         4.37341
LJ          -4.56356         6.21769         6.09921
LJ           5.23153         5.52616       -0.882437
LJ         -0.904797        -6.44747         3.26418
LJ           5.99815        -4.81851        -3.54763
LJ           4.68745        -5.15733        -1.36498
LJ          -2.39752       -0.489862         3.99528
LJ         -0.190497         4.00457       0.0722311
LJ         0.0865728       -0.674771       -0.990939
LJ           4.61662         2.51592          4.6668
LJ          0.677732         5.64038        0.213317
LJ         -0.754748        -3.61899         5.96314
LJ           3.95687         2.37018          6.0397
LJ          -6.07715        -2.76825        -3.17119
LJ          -3.38222         4.57275       0.0962478
LJ           4.12951        0.794508          3.9123
LJ           2.40572         6.19982         5.27909
LJ            6.4172         -5.2541        -2.57165
LJ          -1.00994        -1.04581        -5.18598
LJ           1.64868        0.194466       -0.798605
LJ           1.78963        0.698953        -2.34422
LJ          -5.18735          1.1164         4.43963
LJ          0.929878        -1.91025          -5.507
LJ           5.24196        -4.17307       -0.128029
LJ         -0.442427        -2.96272        0.678525
LJ           5.77655         2.88564         4.10363
LJ           2.06833        -5.65032         1.57473
LJ           0.43472         1.13189         5.98929
LJ           2.96814        -6.00727         3.28511
LJ          -2.22849        -2.60874        -1.49549
LJ          -2.90408        -3.13858         -2.1909
LJ           4.10912       0.0082557         4.49075
LJ          -3.36436          5.6341         -5.8581
LJ           2.20748        -6.01646        -5.59729
LJ           2.92225        -1.52046        -1.45863
LJ           3.02279        0.518553         1.11062
LJ          -5.47732         1.87915        -2.67788
LJ           3.27485         1.38997         4.07905
LJ          -0.40341        0.487477         2.06029
LJ           1.18425         3.88897        -2.48282
LJ          -4.91509        -4.77987         4.42783
LJ           4.83798         3.66637         4.47018
LJ             1.859         1.49915        -3.97049
LJ           4.34536         6.38418         2.66177
LJ          0.660092         3.55751         5.16631
LJ           1.12013         2.30087        -3.65335
LJ          0.478863         4.35607         3.67843
LJ           1.65975        -6.35755        -4.76397
LJ           2.70503         2.59512        -5.54712
LJ          -4.49151        -5.18476         2.82904
LJ          -2.08871        -3.68432        -5.51514
LJ          -3.56935        -2.64018          4.1361
LJ          -4.15984         1.37708        -5.56814
LJ           3.01639         5.14114         6.13001
LJ         -0.938391         1.41901         4.97257
LJ           3.39071       -0.422188         6.29659
LJ          -4.56445        -4.20812         5.87942
LJ            4.0038        -3.17204        -6.35191
LJ           2.90472         4.99235        -1.24215
LJ           6.08963        0.252242        -2.17957
LJ          -5.92652        -2.09639         4.77353
LJ          -5.80706        0.389359         3.70406
LJ           -5.8708         1.85652       -0.353615
LJ          -3.38784         0.15464         0.30226
LJ          -2.00777         -1.4746         5.53036
LJ           1.76249         2.26732        -2.68672
LJ          -5.68902        -1.74063        -1.39382
LJ           2.97091        -5.82401        0.580186
LJ          -4.85144         2.52617         4.84082
LJ           6.26157        0.276421        -3.46144
LJ           6.05012         4.93716         4.36205
LJ          -1.74047        -4.16365         5.05401
LJ         -0.583142         1.31301        -4.03251
LJ           2.83728         5.15991         1.34179
LJ          -6.34468         5.53833         5.10161
LJ          0.548386        -6.22762        -1.55352
LJ            5.0424        -3.18793         -1.3114
LJ           1.68306         4.72894         1.23813
LJ          -2.60887        -4.99165        -6.19992
LJ           5.27374        -5.96207        -3.78309
LJ         -0.724565        0.679992        -3.08578
LJ         -0.232102       -0.496436        -6.02443
LJ           1.95788        -5.57423         6.08783
LJ          -1.85276         1.77523         4.81983
LJ          -4.52724          2.7402        -3.50106
LJ           1.56722         3.40457        -6.19977
LJ          0.562865        -2.00172        -2.29793
LJ          -4.80868        -1.80526        -5.79325
LJ         -0.250143        0.875761         4.28768
LJ           5.45285        -2.98331         2.37769
LJ         -0.753186       -0.529636        -2.99079
LJ          -2.12466       -0.507693        -3.69033
LJ          -3.54634        -1.46722       -0.738392
LJ           1.95188         2.36911          1.9193
LJ          -4.85246        -2.79999         -3.5581
LJ          -5.77423        0.985781        -3.92176
LJ           1.81175        -4.68827       0.0558393
LJ          -3.21074        -3.29695        -1.06094
LJ         -0.332749         0.41512         5.43185
LJ          -3.53947         2.51062         1.55821
LJ           3.16608        0.539622        -6.17412
LJ           4.18076         1.79339         3.36496
LJ         -0.695458        -1.53405         2.93364
LJ         0.0241088        -5.99796        -2.51882
LJ           4.43682        -0.27299        0.383158
LJ           3.96858         4.10056        -2.80616
