108
#Comment!
LJ           1.63478         3.59992        0.808951
LJ        -0.0780111        -3.38572        -1.77861
LJ          -1.30515         3.90472          2.3733
LJ           4.87524        -4.80661         6.43535
LJ          0.623112        -5.80792        -0.66671
LJ           6.08932         2.71243         4.57516
LJ           4.45061         -2.4144        -4.71736
LJ          0.486734           1.799        -1.36857
LJ          -3.73183         1.34968         6.22098
LJ          0.160017         2.10979         1.73905
LJ          0.465392        -4.81255        -3.14283
LJ          -3.34563         2.70185         3.20424
LJ          -1.95482         5.53352         4.41452
LJ           4.10771        0.670132         -5.6855
LJ           6.09868        -3.74485         3.77322
LJ           3.80723        0.644276         6.08544
LJ          0.889196          1.0834       -0.372034
LJ           2.19554         2.50086        0.557002
LJ            2.8978        0.795386        -2.49103
LJ           5.21618          -1.535         -5.2865
LJ          -4.74085        -5.30633         6.07619
LJ          0.309151        -3.83305        -3.64276
LJ          -4.88788         -3.5033        -1.71947
LJ          -5.67763        -1.31449         -3.3955
LJ         -0.990761         1.67013         2.98118
LJ          -4.95904         4.05222         4.78711
LJ            2.7829      -0.0707824       -0.886924
LJ          -2.28592        -4.31497         5.03929
LJ          -3.53668        -3.28718        -2.33931
LJ           5.51763         5.51244        -2.19943
LJ          0.390821        -0.75074         1.17225
LJ          -4.94068         2.23802         2.07827
LJ          0.208186         6.11516         3.69429
LJ          -4.27624        -6.37878          3.8794
LJ            5.6649         4.45258         5.35115
LJ           2.87492        -3.08012         4.63569
LJ          -1.59306       -0.103288        -5.43408
LJ          -5.54285        -4.29868         4.12315
LJ           -5.7944        -6.35968        -4.26678
LJ           1.51047          2.4348         2.37008
LJ           6.45389         5.16005        -2.45264
LJ           4.96939        -2.73405          6.2348
LJ          -4.51444        0.172005        -5.05728
LJ           1.42512         1.80609        0.376437
LJ          -5.81493         1.70012        -3.76667
LJ          0.304081         5.51945         5.85161
LJ           5.98138         2.99394        0.555124
LJ         -0.669134         -5.9408        -3.27542
LJ          0.972328         2.65657        -3.74738
LJ          -1.95757        -3.88251         2.22766
LJ          0.283531         -5.1156         5.79746
LJ            2.6213         -4.9752        -6.16732
LJ           3.49701         4.77044         1.19755
LJ          -4.27857       -0.361364        -4.09747
LJ          -2.02371        -6.00801        -3.10888
LJ           -4.4668         3.43905         2.40094
LJ          -1.27499        0.555814      -0.0204231
LJ         -0.356531         4.56801          3.8616
LJ          -5.32282        0.514712         4.81861
LJ          -1.15833        -5.00247        -3.58188
LJ           -6.3787        -5.72567         3.24406
LJ           6.43751         4.39797        -5.04559
LJ           2.34894         4.08374        -3.70138
LJ          -2.11881        -2.61219         4.18196
LJ          -3.08172        -2.95493         4.68719
LJ          -1.86699         1.51609       -0.722352
LJ           1.96687       -0.436017         1.69879
LJ           5.11904       -0.135592        -1.82904
LJ          0.298426         1.35577          2.4934
LJ          -2.11435        -1.52543         1.55159
LJ          -2.18626          2.3749         2.20676
LJ             5.677        -6.24054        -4.29271
LJ          0.081981         4.98074         2.30277
LJ           2.43137         4.72413        -2.66908
LJ         -0.331382        -1.51621         4.41607
LJ            1.7899          3.1654        -3.32494
LJ          -3.31052        -4.39514        -6.19363
LJ         -0.591861         3.03918         2.28439
LJ           2.38412          5.1131        0.567518
LJ           1.20979       0.0679621         -1.2309
LJ           5.28845        -4.50229        -2.90576
LJ         -0.106263       -0.616929        -2.74835
LJ          -1.48415         -3.9129         1.22816
LJ          0.717475         3.03452         2.00646
LJ          -3.38372         -3.6166        -4.51049
LJ          0.292442         3.81655         5.39974
LJ          -1.68427         4.54905         5.18516
LJ           1.35041         3.44569        -4.48199
LJ           5.71081         1.38465         -2.9764
LJ           2.40421          4.5757        -6.04631
LJ          -4.33105         1.78637         4.44043
LJ         -0.106742        -2.24093        -2.98423
LJ          -3.93275        -2.05087        -2.93397
LJ           5.49813         2.97079        -5.70797
LJ           2.69746        -6.44863         4.91876
LJ           5.78651        -3.73105         1.72334
LJ           6.12575        -5.89424        -2.27796
LJ          0.244984         6.09418        -2.98157
LJ          -4.72619        -5.12367        -3.02078
LJ          -3.80276         6.40567        -4.87987
LJ         -0.129337        -5.38936        -2.17029
LJ           4.46669         2.63791         -5.5853
LJ          -3.57134        -4.76284        -2.62144
LJ          -6.22629        0.400657         5.57241
LJ           4.18932        -2.02806         1.18085
LJ         -0.628806        -6.25399         3.61246
LJ          -2.62461        -3.90334       -0.880113
LJ            5.3059         4.09868        -4.74483
