108
#Comment!
LJ           1.05518        -3.86508        -1.16603
LJ          -2.84463       -0.348984        -1.32304
LJ          -3.64204        -5.37766         4.34546
LJ          -5.33925        -5.28027        -5.74007
LJ          -2.56304         -6.2466        -3.70634
LJ          -4.40867        -1.36694          3.5892
LJ          -5.90856        -3.05356        -4.06991
LJ           2.85232         3.58605        0.353147
LJ          -0.76836       -0.295136         1.36712
LJ           2.33393         3.05556         1.22025
LJ         -0.995733        -3.23281          5.4067
LJ           5.24131        -0.65293         3.02388
LJ          -6.38689         5.61634         2.24239
LJ          -2.95064        -1.50992        -6.44266
LJ          -3.52026          4.7429         2.89447
LJ          -6.20572        -1.18807         6.27876
LJ          0.221983        -4.43108        0.397298
LJ           2.62373         2.03304         1.42667
LJ            4.1264        -4.78909         1.44858
LJ           6.30677        -4.82652        -3.63341
LJ          -1.19586         3.52067        -5.88737
LJ           1.25886       -0.684861        0.152297
LJ          -2.90453        0.149195       0.0977236
LJ          -4.96648       -0.174347        -5.03167
LJ           0.63067         0.33231       -0.751299
LJ           6.17097        0.696251         2.33763
LJ           2.68178         1.04303       -0.466122
LJ          -2.94442        -1.72292         -4.6365
LJ         -0.389793        0.224501        -3.69751
LJ           5.00953         3.64184        -5.43826
LJ          0.592292        -2.97928       -0.115394
LJ          -2.26358         3.73242         5.21487
LJ           4.20711         5.42753         -6.4602
LJ           4.40053        -5.02154         5.20308
LJ         -0.578116         3.94861         4.30792
LJ           3.20285         1.11281         5.43382
LJ         -0.896063       -0.355358        -2.78218
LJ          -4.48442        -0.42232        0.610218
LJ          -3.27074         -6.3977        -2.67778
LJ           2.73641         3.30596           2.448
LJ          -3.91367         4.39707        -5.77751
LJ           1.28002        -6.20834        -4.39321
LJ          -3.68569        -2.35739        -5.76324
LJ           1.80304          2.3959         2.11558
LJ           3.77043         1.33526        -1.97606
LJ           1.57209         5.70977         5.20834
LJ            3.1196         -3.1149       -0.323543
LJ          -1.61346        -6.16966        -2.16294
LJ           1.61614         4.19146        -1.32357
LJ          0.376479        -5.99282         5.18192
LJ            2.6441          4.0492        -4.91152
LJ          -1.02328        -3.45468        -6.39614
LJ          -5.96928       -0.559825        -1.47319
LJ          -3.38344       -0.929367        -5.26743
LJ          -1.24569        0.703054        -5.44418
LJ           -1.3742         2.10022         5.42198
LJ          -1.57315         2.54953        -3.98011
LJ          -4.79654         1.99698         5.56923
LJ          -3.70954         3.80562         4.46022
LJ          -3.69108         5.56625       -0.602106
LJ           -2.2125        -2.93331         1.96158
LJ           3.50277        -2.80878        -3.17429
LJ           4.96045         6.33894        -6.34111
LJ          -3.84637       -0.560734          5.3351
LJ          -3.79319       -0.627131         4.19156
LJ          -2.04395        -1.16231        -1.30026
LJ       -0.00840999        -1.92441         2.11141
LJ          -2.09785        0.837799        0.430871
LJ          -2.84186        -1.23306          1.0038
LJ          -1.01378         6.36754        0.942196
LJ          -4.71354         4.45522         4.38147
LJ            4.2814         2.72392        -4.12084
LJ           1.89796         4.33592         2.44088
LJ           2.38433        -5.70237         -4.5093
LJ           5.51208        -5.34089         0.54388
LJ          0.985081         5.21928        -5.92487
LJ          -4.76688         6.26551        -4.76515
LJ         -0.953105         5.69917       -0.400338
LJ        -0.0871052         2.71149         2.72293
LJ           1.74993         6.28659       0.0566352
LJ           1.97371        -3.81682        -1.89775
LJ          -4.39549        -4.32436        -2.87421
LJ          -4.68723         5.14126        -1.34969
LJ          0.468227        0.952587        -1.74562
LJ         -0.636332        -1.82448         3.79088
LJ          -3.79095          2.2428        -1.29321
LJ          -2.91641         2.19587        -5.81326
LJ           1.70891         3.94981         5.94764
LJ           4.68567       -0.875475        -2.48946
LJ            6.4592         6.29731        -5.05552
LJ           4.74399        0.853649         5.19873
LJ           1.46613         -2.3007        0.775328
LJ          -5.94575         5.23255         -1.7021
LJ          -5.43564         1.52004        -4.38023
LJ          -5.95978          3.4215        -5.00218
LJ            3.6946       -0.852576         1.26915
LJ          -6.43931        -3.51508        -5.63608
LJ          -3.42611         5.29919        -3.87441
LJ          -3.36315        -5.37221        -2.17421
LJ          -3.92824        -2.77579         1.66785
LJ          -2.18756          4.3654        -3.83438
LJ           4.90543         4.06573         6.44198
LJ          -3.49657       -0.118511        -5.98249
LJ           5.43707         1.99636         4.45124
LJ          -3.12437         5.86282          1.6428
LJ         -0.948454        -5.54519       -0.759066
LJ         -0.389761        -3.31258        0.472939
LJ           4.03526         5.57227        -3.48679
