108
#Comment!
LJ          -1.19031        0.560918         -2.3804
LJ          -2.29765       -0.840108        0.799506
LJ          -5.70599        -2.29757          4.5202
LJ           -5.5462        -6.07114        -4.77032
LJ          -5.98252         6.11528        -2.67819
LJ          -2.36591        -3.66572         4.68348
LJ          -5.62282        -5.43341        -3.99736
LJ            3.9983         6.12267       -0.737384
LJ           5.14366        -1.48218         2.93818
LJ           1.98679         3.01633         1.42376
LJ         -0.983156        -1.86499         2.09007
LJ           3.74878         1.59016         3.38599
LJ           3.64033         4.99047          1.0633
LJ          -1.29223        -2.45354         6.23424
LJ            5.8125         3.40521         4.79201
LJ          -5.86364        -1.93622        -5.29122
LJ          -1.70062         6.07999        0.254629
LJ           2.45997         1.37964          2.0022
LJ           3.60239         -4.4435         4.18429
LJ            -6.367         -5.9265        -3.34239
LJ         -0.883006        0.507893        -5.60657
LJ           1.90791         1.57661        0.454269
LJ        -0.0783461         1.74649        -2.52821
LJ          -4.59684        0.932634         5.97689
LJ           1.22551       -0.616354        -4.25737
LJ            5.6473        -2.14246        0.783522
LJ           2.43534       -0.470983      -0.0268037
LJ          -5.75119         1.12342         0.38448
LJ           1.41463         5.23888       -0.550411
LJ           2.28207          1.3618        -5.45534
LJ           1.47602        -5.58204         2.42458
LJ          -1.97377          -6.042        -3.76984
LJ          -5.83759        -4.45603        -4.62717
LJ            2.6643        -2.70868         3.88269
LJ          -3.57765         4.80434         5.87743
LJ           3.14717         4.51148         6.39438
LJ           1.81487       -0.237765        -2.03001
LJ           3.81288      -0.0322405       0.0903834
LJ          -5.20749         2.53315         -3.7524
LJ           2.70536         2.09369         4.07929
LJ          -1.79675         2.07207         4.18777
LJ           1.19701         4.49637        -2.33547
LJ          -3.90455        -4.12176         4.96774
LJ           3.20809         2.58509         3.28459
LJ           2.54445        0.588302        -2.41712
LJ           3.49518         5.89758         4.60123
LJ           1.47257       -0.649521         2.59343
LJ         -0.561395         3.60911        -2.63508
LJ           1.53625         5.42395         2.16887
LJ          0.978408          6.1968        -6.25469
LJ           3.33613         1.66322        -4.67903
LJ          -1.28986        -4.71168         3.54074
LJ          -3.46113         5.13582        -3.56426
LJ          -3.35821        -2.63025        -6.39763
LJ          -1.88109         1.24167        -3.62166
LJ          0.663572         4.49555         6.30596
LJ          -1.24535         2.21835         6.22544
LJ           4.96535        0.623749         5.59509
LJ          -4.99149        -5.88108         4.74322
LJ          -5.95244        -5.44838         4.23775
LJ          0.946287          1.5937        -0.23524
LJ            4.1069        0.542317        -3.80376
LJ          -6.39373        -3.68488          4.7974
LJ          -4.91695        0.199923          5.1796
LJ          -5.04226        0.753494         1.91699
LJ          -3.42011       0.0473991        0.147821
LJ          -1.65741        -2.31018        -3.73047
LJ         -0.413965          1.1722        -1.18056
LJ          -4.60607        -1.43381       -0.266751
LJ           1.60364         3.83991        0.137202
LJ          -4.27757          3.5303         5.12082
LJ           5.56964         1.76282        -3.86592
LJ           3.20644         -6.1277         2.64162
LJ         -0.492697        -4.34515         6.43424
LJ          -3.57818         4.12366        -1.93876
LJ           2.32808         5.70396         3.27807
LJ           -4.6329         5.48264        -6.28485
LJ         -0.393664         -5.1107        -1.62207
LJ           2.42782        -1.51128        0.212765
LJ           1.83266        -6.22001         1.34148
LJ         -0.805437        -4.84152        -4.21823
LJ           6.27539        -5.05076        -3.88386
LJ          -1.57075         2.96583        -2.32418
LJ           1.01422        0.386725        -4.66801
LJ          0.965214        -3.45729         4.43727
LJ          -3.21337          1.1066          2.2697
LJ          -4.10013         1.56586        -5.61666
LJ           1.56511         2.97693         6.36923
LJ           2.67508        -1.85559        -2.16532
LJ          -5.55319        -3.63375        -5.36604
LJ            2.0783         1.37994         4.58009
LJ           3.21116         -4.6992          2.5579
LJ           2.09102        -3.69683        -2.64335
LJ          -3.65252        0.193504        -3.82703
LJ          0.805811        0.659768        -2.05931
LJ           3.20915         1.17545         1.16849
LJ          -4.92717        -2.51312         -4.9621
LJ           -5.0945         3.74667        -3.43834
LJ         -0.569497        -6.05427       -0.931413
LJ          -3.62644        -1.52911        -5.32266
LJ            -1.263         2.24906        -5.48604
LJ          -5.19815         2.75497         3.64526
LJ              6.16        0.231649        -6.04884
LJ           5.44151         1.50741         3.84143
LJ          -1.63304         1.39505         2.18297
LJ          0.255022        -6.01064        -1.69024
LJ           3.29775         -1.3413         1.09176
LJ           4.59306         5.05007        -2.77406
