108
#Comment!
LJ           5.39734       -0.184213         6.21909
LJ         -0.801949         3.70905         5.16548
LJ          -5.07972         1.53604         4.13025
LJ         -0.770779         4.76049         2.65095
LJ           4.61076         4.21473        -3.04917
LJ           4.61988         2.84894        -2.10971
LJ           1.31181         3.39902         6.24316
LJ           2.42026         4.96781         4.42379
LJ           1.63712        -2.82935         2.75172
LJ          -1.46379         2.38265         1.73114
LJ           5.71388         1.70797        -2.79707
LJ         -0.787206         1.78254        -5.03374
LJ          -2.63291          0.4184         5.48671
LJ           6.19886         3.49747        -5.71423
LJ          0.080325         3.00552         6.14878
LJ          -3.40134         2.06774       -0.616953
LJ          0.504027        -1.03657        -2.33412
LJ          -1.74958        -3.68752       -0.725921
LJ           -6.1364        -1.45991         5.55845
LJ          -1.06129          4.2676        -2.17203
LJ           2.22866         3.29398         5.20463
LJ          0.139265         1.88163         1.91568
LJ            3.7449        -3.34887         2.31797
LJ          -5.71515        -4.15848      -0.0838797
LJ          -4.23059       -0.139113          2.5578
LJ          -3.54692        -5.85296         5.87622
LJ           3.66284         -3.1386        -3.14404
LJ           -3.9125         5.85153       -0.324395
LJ           -5.3043        -5.24807       -0.663023
LJ           1.32643        -2.96067       -0.593341
LJ           2.68822         -5.6137        -1.04877
LJ           1.55401          2.0242        0.309508
LJ         -0.859226        -2.61423        -5.23519
LJ         -0.495317        -1.19124        -1.74418
LJ          -5.43676       -0.426768        -2.63479
LJ         -0.657066         4.25951        0.897103
LJ           -3.1397        0.969929         4.79465
LJ          -2.16941         -3.7313         3.91722
LJ           1.47541        -6.35483          3.0287
LJ           1.50664         4.63227         4.61528
LJ           5.04432        0.569034        0.818241
LJ          0.249396         5.58685         4.57944
LJ          -4.91742        0.593042        0.723525
LJ           3.29945        -6.30414        0.106462
LJ           -3.4726         4.90572         -4.2871
LJ           4.04047        -4.13824        -1.72164
LJ           1.74892         1.59574         3.64917
LJ          -3.75532        -5.94076        -1.93054
LJ          -6.00069        0.238224         1.11025
LJ          -5.85002        0.618585         -2.4364
LJ           4.17321        0.915232        -2.14923
LJ           3.33864        -3.04076         4.53056
LJ          -6.10984         2.19833        -2.91151
LJ          -6.36297         4.18338       -0.138435
LJ          -4.05028        0.997671         4.29655
LJ           3.70584        0.314333        0.805464
LJ         -0.852817        0.405738         1.65413
LJ           4.85285         5.17377        -6.20403
LJ          -4.57898         2.42977         1.02546
LJ           2.07194        0.029243         3.46129
LJ         -0.157358         6.16817        -3.11385
LJ          -1.81295         2.50622       -0.444811
LJ         -0.970282         1.37137        -2.64913
LJ         -0.572297        -4.04911       -0.634597
LJ         -0.859639        -3.52991         2.59004
LJ          -5.94362         5.18366         6.31184
LJ          -4.32268         2.00726         2.80984
LJ            2.7627        -4.58164          -3.789
LJ          0.260674        -6.23905         4.18136
LJ            1.9733        -0.67164        0.232526
LJ          -5.19362         4.30847          4.8963
LJ           4.80069         2.49754        -3.28796
LJ            1.8629        -5.77787        -1.71949
LJ           1.11225         0.30527        -6.12674
LJ            2.3399        -6.23094        -2.99102
LJ           5.55014        -2.02837        -2.30777
LJ         -0.153698        -5.03765       -0.869339
LJ          0.610297         -5.5169         3.62184
LJ          0.129806         2.68298        -3.86427
LJ           5.14702        -6.43933        -2.67529
LJ           3.64971        -5.59439        -4.65498
LJ          0.297044        0.844093         6.05293
LJ           4.22645       -0.923667        0.944091
LJ           4.12481         -4.9134         4.00053
LJ          -2.20526        -5.91852        -1.87442
LJ          0.736238       -0.471873        0.997012
LJ          -3.66356        -1.55157       -0.625468
LJ           2.11795        0.841783         6.26581
LJ           5.87098        -4.67638        -4.86407
LJ           1.84879        -3.52679         1.51216
LJ           -1.7092        -2.46482         3.97937
LJ          -0.59106        0.035286         6.08904
LJ           -3.7528        -3.07767         5.61347
LJ           4.68239        -6.02984        -5.22158
LJ          -3.44916       -0.873218         1.58648
LJ          -2.04594         5.63234        -1.25823
LJ            2.6254         1.26191        0.562862
LJ           3.44933         5.78496        -6.06634
LJ          -2.82237        -4.72762        -3.99094
LJ           -6.3944         -4.7693        -1.38549
LJ           1.14639         1.80986         -5.3058
LJ          -2.77976         5.46374        0.240089
LJ          -1.29119         5.32628        -2.35368
LJ          -2.40248        -4.45225        -4.86064
LJ          -3.20156         6.14027         5.98473
LJ         -0.556556        -2.60672         2.79452
LJ           2.88553        0.749618         3.79692
LJ          -4.79203          1.5361         -3.7871
