108
#Comment!
LJ           4.99224        -3.98351          5.3032
LJ          -5.49144         6.13383        -4.32678
LJ          -1.73871          1.2501         2.15071
LJ           3.11198        -1.56892         3.63899
LJ           3.35193        -2.25653       -0.382092
LJ          -1.49747        0.535682         2.85129
LJ          -4.57879        -4.83665        -4.19145
LJ           5.62794         5.22028         5.46735
LJ          -2.66839          3.1414         3.47813
LJ            1.8436         5.69478        -5.82671
LJ          -5.57145         1.64781        -5.37557
LJ          -2.41521          -3.239        -5.06032
LJ           2.33688         4.93639        -4.07008
LJ          -2.86837         -3.2805         1.18811
LJ           1.39386        0.538999         1.38296
LJ           6.18238         3.31857         3.73219
LJ           1.03973         2.61941        -1.03842
LJ          -3.44067        -3.10291         6.32957
LJ          -1.42467         1.48237         3.90731
LJ           2.68316         1.92875         1.56822
LJ           2.16701          4.5524       -0.625656
LJ          0.446208         1.90767        -5.99424
LJ           6.39301        -4.45579         6.11963
LJ           2.36202        -3.13913         1.47633
LJ          -2.64675         6.06073         4.90304
LJ           2.43374         3.79284         1.14003
LJ           6.40857       -0.133369         5.14486
LJ          -2.15635        -6.37497       -0.850093
LJ          -2.33334         5.35228       -0.985215
LJ          0.570863        -6.45307        -2.25907
LJ           1.45361         1.67791         1.35517
LJ          -5.62025         6.41989         2.26521
LJ          -1.94506         -6.2475        0.349246
LJ          -2.70432        -4.91373        -5.06016
LJ        -0.0115576         5.82949        -3.86946
LJ           2.34949         5.92602         2.33805
LJ           2.80617         -6.3077        -5.58885
LJ          -0.94021        -1.41254         1.44951
LJ          -3.63972        -4.13365        -5.93103
LJ          -5.24647        -0.80756         5.40918
LJ           0.62379       -0.255524        -1.81929
LJ            3.6299        -3.61557        0.500177
LJ          -6.28216         5.41985        -4.65457
LJ         -0.167464        -6.01223        0.685447
LJ          -1.68777         2.18411        -6.32514
LJ           2.20663       -0.222084        0.668298
LJ           3.29763        -2.97981          3.4933
LJ          -1.29546        -5.97095         4.26757
LJ           1.07833        -5.46699        -5.49398
LJ           1.43193         4.90007         -1.6758
LJ          -2.59072        -4.73307        -3.85925
LJ           5.12191        -2.21128       0.0878818
LJ          -2.95893        -2.48916         2.26398
LJ           -0.2934         4.32202        0.488237
LJ           6.29859        -3.56911        -5.54886
LJ           2.05335        -4.00034        -6.15775
LJ          -5.95941        -3.70782        -2.42909
LJ         0.0273801        -3.49857        -4.08207
LJ          -4.78226          6.2311         -2.6563
LJ          -3.97347        -2.47967         -4.5495
LJ           -4.5689        0.352421       -0.398415
LJ           1.91105       -0.105589        -4.31333
LJ          -5.89458        -4.51692        -5.43595
LJ         -0.903233       -0.928026         6.33207
LJ           6.01951         1.41775        -4.20675
LJ          -4.79892         4.87678        -2.55552
LJ          -1.02232         5.43935       -0.342381
LJ           4.24118         -5.8472        -6.17315
LJ            5.8031       0.0739145        -5.64259
LJ          0.869789         2.15634        -4.23792
LJ          -0.35149        -1.22831         4.13952
LJ         0.0503607        0.278001         3.41558
LJ          -4.89376        -5.81065        -5.14708
LJ           2.62354         2.01116        0.498807
LJ         -0.735175         0.41725        -5.42413
LJ           5.34658         4.41444         3.28084
LJ          -2.79879        -4.29992       -0.986549
LJ           -4.8443          4.9599        -6.02957
LJ           2.48307         3.22444        -3.77445
LJ           1.08076        -3.55181        -3.08673
LJ          0.566484        -4.69835        -3.77898
LJ          -1.80218         1.87439         5.60572
LJ           1.82074        -4.03013         1.99719
LJ          -4.35102        -1.12975         1.84154
LJ           4.57399          1.6869       -0.916781
LJ         -0.613202          1.4219        -5.86532
LJ            4.2978        -4.33982         6.17176
LJ          -5.19827        -5.94112        -3.67799
LJ          -5.53052        0.786284        -6.38977
LJ           3.21896        -6.23587        -2.36187
LJ          0.481916        -3.99738         2.14356
LJ           2.53927        -3.39115        0.164583
LJ           4.99238        -5.32575         6.10262
LJ          0.818262        0.530439        -4.93818
LJ          -3.92763        0.305959        -2.56504
LJ          -3.59419        -5.12284         4.45721
LJ          -2.76536         5.36275        -1.99772
LJ          -4.45856         -3.4521         3.69717
LJ          -5.07179        -2.47483        -4.53409
LJ           3.61203         1.41008        0.965912
LJ          -5.94231        -1.67394        0.913727
LJ          -2.74669        0.896911         5.39503
LJ         -0.767188        -1.00621        -2.21731
LJ          -1.87662         2.31116         1.89852
LJ           5.70989       0.0228594         6.03819
LJ          0.509778         5.04112         1.68705
LJ           -4.5615         1.36193         2.91599
LJ           4.26453        -3.93544        -5.55118
