108
#Comment!
LJ           5.91953       -0.594897        -6.36315
LJ         -0.948693         3.29754        -6.31441
LJ          -5.42677         1.91543          3.8591
LJ          -1.22571         4.06765         2.38069
LJ           5.17036         3.25121        -2.06242
LJ            5.1802         2.72608        -1.17097
LJ           1.39162         3.59886        -6.27804
LJ           2.97405         4.16531         5.55303
LJ           2.31616        -3.02071         2.12035
LJ          -2.26921         2.78982         1.75038
LJ           5.53211         1.68164        -3.07318
LJ         -0.337383         1.67073        -4.58319
LJ           -1.5586         2.24601         6.38976
LJ           5.55168         2.99808        -6.25802
LJ          0.460572          3.4997         6.12453
LJ          -3.91257         3.07198       -0.979069
LJ         -0.204366       -0.497588        -2.47699
LJ          -2.24503        -4.28637        -1.01378
LJ           -5.3697       -0.970563         4.99813
LJ          -2.14491         4.46107        -1.84173
LJ           1.64529         4.19333         5.66109
LJ        -0.0439232           2.324         2.46701
LJ            3.7237        -3.85664         2.47632
LJ          -5.05851        -4.24236       -0.932006
LJ          -5.35241       -0.280515         2.11732
LJ          -3.15779         5.98467         6.02047
LJ            3.6545        -3.71517        -3.28071
LJ          -3.62261          5.7608        0.809375
LJ          -5.67177        -5.79596       -0.509358
LJ          0.583733        -2.67801       -0.463799
LJ           2.99256         -5.1664        -1.17575
LJ            1.1037         1.29681        0.535182
LJ          -1.28152        -2.71493        -4.29691
LJ         -0.573096        -2.46084        -3.06354
LJ          -5.58674       -0.754713        -1.90144
LJ          -1.45741         4.19528        0.626998
LJ          -2.94451          1.7083         4.97987
LJ         -0.976042        -4.00155         4.97669
LJ           1.75224          6.0906         3.07382
LJ           0.71207         5.12384         5.07693
LJ           4.80543        0.147947         1.43645
LJ          0.346532         6.12504         4.27626
LJ          -5.59248        0.651138         -0.3377
LJ           3.49252        -5.32335       -0.284195
LJ          -3.01059         5.65747        -3.82012
LJ           4.35539        -3.36705        -1.21257
LJ           2.80316         1.93784         2.94454
LJ          -3.48776        -6.12921        -1.75439
LJ          -6.11743        0.170114         1.71626
LJ          -6.32844        0.913338        -2.48211
LJ           3.25909          1.2062         -2.5385
LJ           4.69494         -2.7995         4.49583
LJ          -5.62771         1.73492         -1.7509
LJ          -5.11596         3.12322       -0.221497
LJ          -3.16279       -0.646824         3.13906
LJ           3.58284      -0.0225482        0.945163
LJ         -0.398151        0.707925         1.64791
LJ           5.10721         5.76183         5.87326
LJ          -3.57685         2.79123        0.661358
LJ           2.03947         1.01569         3.97232
LJ         -0.294972         5.42729        -3.60403
LJ           -3.1778         2.36562       -0.115683
LJ           -1.3309          1.5932        -1.88489
LJ         -0.204827        -3.92721        -1.48039
LJ          -1.08067        -4.76807         2.53473
LJ          -6.07263        -5.51164        -6.26051
LJ          -4.31153          1.6871         3.39133
LJ           1.80938        -4.67389        -3.23453
LJ         -0.101765        -5.54155         4.11609
LJ           1.91199        -1.73302        0.640337
LJ          -5.90186         4.75487         5.67777
LJ            5.4524         2.67604        -3.40903
LJ            1.7964        -6.33519        -2.07318
LJ           1.12287        0.771927        -6.29289
LJ          0.733179        -5.85769         -2.7282
LJ           5.88667        -2.32775        -2.42656
LJ         0.0653827        -5.07766        -1.23395
LJ           1.61713        -5.77528         1.93198
LJ         0.0241497         2.72033        -4.49989
LJ           5.76504        -4.97963        -2.48121
LJ           3.08763        -4.90944         -4.7593
LJ         -0.189224         0.48603        -6.26519
LJ           4.63621       -0.843592      -0.0552641
LJ           3.12216        -4.36731         4.11493
LJ          -2.52148        -6.25559        -1.56797
LJ          0.579472       -0.222952        0.936273
LJ          -4.34464        -1.19586        -1.62358
LJ           2.30935        0.526482         6.29259
LJ           6.14191        -4.20124        -4.85484
LJ           2.22903        -2.60368        0.919848
LJ          -1.71304        -2.50417         3.42198
LJ         -0.636481       0.0423922         5.22206
LJ           -3.6824        -3.54778         5.81912
LJ           4.23324        -6.23654        -4.90154
LJ          -3.12357       -0.940907          1.2749
LJ          -1.67897         5.59162        -1.85157
LJ           1.97428        0.649304       0.0873028
LJ           3.23555         5.74366        -6.27691
LJ          -2.80476        -4.22846        -3.54403
LJ           6.35895        -6.24719         -1.9399
LJ          0.159727         1.64055        -6.25636
LJ          -2.53931         5.68282        0.674663
LJ          -1.19306         6.01406        -2.77504
LJ          -1.83129        -5.01912        -5.23023
LJ           -2.5961         4.40591         6.38734
LJ          0.104798        -2.66417          2.7945
LJ           2.77716         1.47914          4.7943
LJ          -3.62928         1.03797         -4.5337
