108
#Comment!
LJ           5.54392        -4.24232         4.85844
LJ          -4.41348          5.7352        -4.53907
LJ          -2.29648         2.34616         2.33762
LJ           3.76199        -2.41343         3.71735
LJ            3.2497        -1.87774        -2.78088
LJ          -1.21759         1.08244         3.34825
LJ          -4.69256        -4.00168        -5.24951
LJ           6.16445         5.05424         3.87378
LJ          -2.97798         2.86708         2.85593
LJ           2.81981         4.19217        -5.67513
LJ          -5.78596        0.880399        -5.69892
LJ          -2.33681        -3.94375         -5.3915
LJ           2.26898         4.89636        -3.76403
LJ          -4.50757        -3.13018         1.24138
LJ           2.59504       0.0349079         1.24187
LJ            5.6619         3.37399         3.25924
LJ           1.86311         2.16455         0.26993
LJ          -4.83214        -3.75106        -6.41284
LJ          -1.72977         1.03684         4.34668
LJ           4.02767         1.56516         1.68221
LJ           2.45678          4.3939        -1.04715
LJ          0.235259          2.4496         6.34356
LJ          -6.06611         -3.9312         5.99138
LJ           3.37548        -3.28602        0.902495
LJ          -2.67087          5.9062         4.92253
LJ           2.53561         5.21346         2.46587
LJ           5.85111         1.26727         5.21367
LJ          -2.26585        -6.38054        -1.23507
LJ          -2.66535         4.91559        -1.04694
LJ           1.67113         5.38957        -2.48551
LJ          0.136914        0.346445          1.5881
LJ          -5.85787         -6.2941         1.70318
LJ          -1.81649        -5.67983         1.43642
LJ          -1.85459        -4.68067        -4.84488
LJ         -0.933061        -6.26384        -4.53115
LJ           1.89984         5.97111         2.15548
LJ           2.44946         -5.9174        -6.23527
LJ          -1.55067         0.17951         1.27958
LJ          -3.55948        -4.15013        -5.50859
LJ           6.43871       -0.551953        -6.03324
LJ          0.973731          1.1978        -2.94301
LJ           4.58252         -4.0417        0.267292
LJ           6.08513         6.07906        -4.79743
LJ          0.270325        -4.93804        0.218246
LJ          -2.56026         2.94084         6.43303
LJ           3.83658       -0.108164        0.767426
LJ           3.16486         -2.8655         5.02863
LJ         -0.419622        -5.87264         3.84409
LJ           1.04865        -5.68625        -5.47176
LJ           0.16716         5.02358       -0.738118
LJ          -3.10675          -5.286        -3.75013
LJ           5.23602        -2.91149       -0.638928
LJ          -2.85404        -3.01326         1.71282
LJ          0.570429         4.03105       0.0891533
LJ          -5.80804        -2.77365        -6.20333
LJ           3.12821        -5.36221        -4.57033
LJ          -5.11547        -5.24776        -2.16343
LJ           1.39857        -4.06243        -3.31108
LJ          -4.52559        -6.14623       -0.844564
LJ          -3.99754        -3.43336         -3.7324
LJ          -5.18905         1.07287        -1.40426
LJ           2.41264        -0.58968        -4.37596
LJ           6.29895        -3.86157        -4.69604
LJ          -0.39978       -0.766957         5.76641
LJ           6.08578         3.19402        -3.70607
LJ          -6.42939         4.65189        -2.10185
LJ           -1.0866         6.13086       -0.116908
LJ           4.54996        -5.03841        -5.25845
LJ           6.02703        0.704209        -5.81821
LJ         -0.312959         3.02463        -3.35766
LJ         -0.532337        -1.29837         3.50745
LJ          0.460405      0.00298926         3.93228
LJ          -5.91132        -6.01532        -4.36751
LJ           1.60488        0.636239        0.458767
LJ          -1.92563        0.985505         -4.9625
LJ           5.40635         4.31718         2.87977
LJ          -2.31708        -3.97382       -0.511503
LJ          -4.71663          5.0332        -6.19373
LJ           1.75971         3.57253        -4.43944
LJ           2.79268        -3.30056        -3.24727
LJ          0.415593        -4.95693        -3.40278
LJ          -3.12528         1.77381         5.48326
LJ           2.29744        -3.09212         1.31708
LJ          -4.19868       -0.409886        0.666703
LJ           4.33275         2.25274      -0.0571286
LJ        -0.0136728         1.17611        -4.56391
LJ            4.1924        -5.35703        -6.37792
LJ          -4.67651        -6.34452         -3.7734
LJ          -4.24895        0.677873         6.40063
LJ           2.72427        -6.36962         -1.5995
LJ          0.364129        -4.02377         2.99028
LJ           3.14702        -4.26193       -0.136399
LJ           4.97105        -5.14697         5.10854
LJ         0.0300595        -0.74473        -3.45982
LJ          -4.34759        0.126407        -2.80158
LJ          -4.01246        -5.90708         3.98086
LJ           -1.4868         4.81087        -2.46234
LJ          -4.24338        -3.54012         3.92893
LJ          -5.91622        -1.41929        -4.09834
LJ           3.01232         1.27855      -0.0870879
LJ           6.01025        -2.40462         1.09029
LJ          -2.97591         1.22493         4.19858
LJ          -0.84528        -1.17513        -3.24701
LJ          -2.34287         2.79702          1.1298
LJ           6.20341        0.119867         5.87315
LJ          0.269749         4.61559         1.53088
LJ          -4.54992        0.604491         3.48398
LJ           3.84769        -4.17229        -5.02424
