108
#Comment!
LJ           4.72937        0.335449         5.72754
LJ         -0.327087         4.37786         3.44068
LJ           6.27152         1.88248         3.44114
LJ         -0.115862          5.6309         2.97064
LJ           3.60112          5.4962        -4.15589
LJ           3.85764         3.40133         -3.2422
LJ          0.942314         2.89908          5.3133
LJ             2.828         6.36274         2.71653
LJ          0.808122        -2.81252         3.48047
LJ         -0.456438         1.92077         1.76959
LJ           4.81602         1.61048        -2.60877
LJ          -1.08885         2.09796        -5.63521
LJ          -3.43092        -2.05695         4.48657
LJ          -5.80277         4.23062        -5.09019
LJ         0.0543217         2.46346         6.16763
LJ          -2.45193        0.709315       0.0641061
LJ           1.20119        -1.84179        -1.97528
LJ          -1.25643        -2.73324        -0.44907
LJ           5.70627        -2.08424         6.34056
LJ          0.355588         3.62912        -2.76511
LJ           2.64179          2.2227         4.74291
LJ          0.438668         1.00097         0.98301
LJ           3.66955        -2.63395         2.13155
LJ          -6.33999         -4.5639       0.0886332
LJ          -2.64748      -0.0407493         2.85506
LJ          -4.43945        -3.62436         5.58542
LJ            3.6864        -2.52338        -2.89613
LJ          -3.59133         6.03051        -1.86374
LJ          -5.39646        -3.91802       -0.688809
LJ           2.30278        -3.37785       -0.757422
LJ           2.72719         -6.3599       -0.384596
LJ           2.75288          2.5257        0.124752
LJ         -0.296126        -2.48544         6.42038
LJ         -0.102003         0.60582      -0.0688866
LJ           -5.2118       0.0302883        -3.65715
LJ          0.381798         4.35109         1.40765
LJ          -3.27548        0.370607         4.33228
LJ          -3.81557        -4.33923         2.70714
LJ          0.762315        -5.54122         3.30382
LJ           1.64846         3.09462         4.50511
LJ           5.40514         1.60153        0.355437
LJ         -0.124962         4.01797         4.89927
LJ          -4.51848        0.438578         2.33777
LJ            2.8076         5.47545        0.224454
LJ           -4.1004         3.88701        -4.91616
LJ           3.53571        -5.17704        -2.52518
LJ             0.613        0.515186         4.36653
LJ          -3.58309        -5.83417         -2.0084
LJ          -5.23014        0.546935        0.273802
LJ          -5.31808        0.497137        -2.14155
LJ            5.4987        0.416287        -1.46713
LJ           1.44846        -3.41433         4.48146
LJ          -6.45937         3.74638        -4.25432
LJ           4.88398         5.61494      -0.0341316
LJ          -3.52572         2.40734         6.16158
LJ           3.93756        0.577128        0.553134
LJ          -1.29469        0.149248         1.64194
LJ            4.1086         4.72178         -4.9794
LJ           -5.7598         1.75864         1.66166
LJ           2.12011       -0.984702         2.67604
LJ          0.203433        -5.88748        -2.58768
LJ         -0.249525         2.70771       -0.941255
LJ         -0.386432         1.21488        -3.73578
LJ          -0.79713         -4.3984        0.623936
LJ          -1.11947        -3.51101         2.37899
LJ          -5.81555         2.04871         5.91279
LJ          -4.68543         2.23923         2.10629
LJ           4.67639        -3.80839        -4.89898
LJ          0.223683         5.86243         4.62326
LJ           1.70673        0.791982        0.021978
LJ          -4.27503         3.72057         3.91913
LJ           4.14839         1.59294        -3.82525
LJ           1.86244        -5.11284        -1.65623
LJ          0.773022        0.259489        -6.27662
LJ           4.11944          5.5146        -2.84675
LJ           5.06638          -1.633        -2.15365
LJ         -0.489642        -4.93036       -0.386967
LJ        -0.0369275         -4.4203         4.93528
LJ         0.0692576         2.34407        -3.13315
LJ           4.51569         4.59133        -2.59626
LJ           4.56698         6.29317        -4.57875
LJ          0.968191        0.999562         5.76783
LJ           3.17677       -0.986722         1.95792
LJ           5.47865        -5.58547         3.82809
LJ          -2.46848        -5.37474        -2.15051
LJ             1.301       -0.686308        0.828636
LJ          -2.75663        -2.01309        0.750313
LJ           1.60071         1.17721        -6.29912
LJ           5.54188        -5.26869        -4.66671
LJ           1.28044        -4.54292         2.48771
LJ          -1.42975        -1.50365          4.2608
LJ         -0.177258         0.26538        -5.63827
LJ          -3.98015        -2.72011         5.58933
LJ           4.81085        -5.85486        -5.77536
LJ           -4.0661       -0.517244         2.24473
LJ          -2.52843         6.10053       -0.413119
LJ           3.20934         2.13519          1.1834
LJ           4.28742          5.7289        -5.59531
LJ          -3.20729         -5.6463        -3.78476
LJ          -5.90955        -2.84197       0.0282299
LJ           2.48261         2.01533        -4.13231
LJ          -3.75847         5.19142       -0.536096
LJ          -1.43587         4.46316        -1.68568
LJ          -2.80797        -3.45609        -5.12131
LJ          -3.71906        -5.25808         5.54013
LJ          -1.10538       -0.785171         3.33786
LJ           2.69963      -0.0344252         2.33028
LJ          -5.68199         1.60512        -3.09936
