108
#Comment!
LJ           1.49535            1.33         1.93321
LJ           4.97539        -0.14891         3.80946
LJ           5.94392          2.4325        0.808136
LJ           2.08766        -6.21342         2.52921
LJ           4.56455         2.71852         1.72435
LJ          0.136223        -2.37937         1.87752
LJ          -6.19854         2.03585        -3.21761
LJ          -4.99951         0.45903       -0.204904
LJ           5.64836         4.65978         2.10554
LJ          -4.17768         4.06899        -3.94933
LJ          -3.78041        -2.11453        -5.38339
LJ            -1.053         1.91034        -3.21151
LJ           3.02301          1.6658         1.13686
LJ          -3.62776         -6.0325        -0.76228
LJ         -0.994091        -5.82503        -5.31255
LJ          -3.11143        -1.04844         6.42438
LJ           3.88057         2.35849        -1.09893
LJ           5.42413       -0.542511        0.945291
LJ           4.87958         1.68328        -6.26598
LJ          -4.17162         1.27747         3.69222
LJ           4.48229         6.29836        -3.13986
LJ            4.9001       -0.904919        -1.15536
LJ          -5.07719        -2.09773         4.69573
LJ          -3.66053          3.8765        -2.97718
LJ           3.66482         1.27491        -1.95421
LJ           2.33513      -0.0883343         -5.8817
LJ          -5.87849        0.329798        -1.28671
LJ          -3.24962        0.361223        -3.41166
LJ         -0.638113        0.124605        -4.14544
LJ           1.52442       -0.206534          4.0872
LJ           -4.1978         2.98404          4.0959
LJ          -1.88937         2.19852        -2.58923
LJ          -4.93138        -3.09786         5.45358
LJ           2.49945        -2.80086        -3.05782
LJ           1.62095        -3.26231        -6.45366
LJ          -4.62926         1.60584         5.34254
LJ          0.968054        -3.10619        -2.99813
LJ          -1.20671        -6.01266        -2.89877
LJ         -0.503364         3.52049         3.37626
LJ          -4.79025        -4.37003         -1.9618
LJ           4.07151        -5.28735        -5.37137
LJ         -0.423588        -5.84895        -2.30659
LJ          0.307718         4.24514        -4.24934
LJ          -5.28717         3.49631        -4.21619
LJ           -3.9073        -1.77669        -6.37761
LJ          0.823709        -2.28035         5.25976
LJ          -4.83216        -5.49122       -0.649405
LJ           4.24666        -5.17604         2.03568
LJ           -4.3496        0.574245           2.448
LJ           5.36483        -3.51272        -1.64578
LJ          -2.85348         -2.6814        -5.23765
LJ          -5.42722          2.4504        -4.18449
LJ          -2.21219        -6.05974        -3.46014
LJ            2.9349        -4.54875        -2.20646
LJ          0.747974        -4.62755         2.88513
LJ           6.43755         6.06903        -2.85191
LJ           3.74675         5.29261        -3.26469
LJ          -3.62054         -4.0084        -5.03967
LJ           3.42263         4.51516         3.11711
LJ          -2.30742        0.635849         -3.9839
LJ          -3.87117         3.31715         5.89321
LJ           2.86999        -3.03361         3.78954
LJ            4.8493         3.35362         3.37485
LJ          -5.18419         3.11039        -1.45016
LJ            4.4686         1.86896        0.557917
LJ           1.87694         4.96341         4.03575
LJ           2.62701         2.15501        0.206541
LJ          -3.37099        -4.99985        -4.55382
LJ           4.73804       -0.339691         2.78196
LJ          -3.12866          6.3072         -2.9932
LJ          -3.14808         2.62304         2.06853
LJ           4.58135       -0.760079         5.72013
LJ          -3.63865        -1.40093         4.47918
LJ           6.13116         5.14677         5.94806
LJ          -2.35537         1.02782         -1.9295
LJ          -5.90838         1.94549         3.87104
LJ           4.34236         3.89333        -1.62628
LJ          0.915332         3.87562        -5.03769
LJ            -2.498         1.03513       0.0342802
LJ          -3.41698         -4.7792        -2.29051
LJ          -4.63266         4.99549         2.01096
LJ          -3.82922        -5.72379         5.46247
LJ          -4.84661        -3.97613       -0.443887
LJ           2.76324        -5.51672        -2.51956
LJ           5.08928          1.1637        0.272585
LJ           4.38255        -4.04036         -5.8071
LJ           2.37162         6.06463         3.41841
LJ            5.6621       -0.888834         2.34861
LJ            6.1255         3.85369        -1.70419
LJ          -1.39781         -1.7593        -5.20421
LJ          -1.38657         1.28711         2.46649
LJ         -0.849522        -2.34327        0.181276
LJ           2.54966         4.41287         2.29069
LJ          -1.65347         2.08184        0.638809
LJ           1.98175          5.2507          5.4098
LJ          -4.32058        -6.34066        0.563942
LJ           3.41807         2.15396         2.03272
LJ          -5.58812       -0.860753       -0.502715
LJ           2.35292        -2.11604        -4.30197
LJ          -5.83313        -5.49416          3.2166
LJ          -2.83007         6.29821        -4.08206
LJ           2.07462        -4.97129         4.48961
LJ           6.46094        -2.77011         2.26861
LJ         0.0996196        0.298446         2.64327
LJ            -4.687         2.08686           1.026
LJ           6.11376        -5.49117        -2.04709
LJ          -3.88289        -2.16693        -4.24673
LJ          -1.22227         3.83736          6.4291
