108
#Comment!
LJ            1.5499         1.27023         1.95225
LJ            4.9674       -0.236008          3.6974
LJ           5.98607         2.46939        0.764022
LJ           2.09954        -6.05198         2.52045
LJ           4.62128         2.81637         1.65274
LJ         0.0507957        -2.38479         1.91791
LJ          -6.23004         1.99303         -3.2523
LJ          -5.10811        0.328249       -0.143304
LJ           5.72645         4.64971         2.13772
LJ          -4.26417         4.03371        -3.98693
LJ          -3.87047        -2.05481        -5.31727
LJ          -1.01073         1.79413        -3.16618
LJ           3.03864         1.61634         1.08395
LJ          -3.73648        -6.06401       -0.707928
LJ          -1.02169        -5.74256        -5.37762
LJ          -3.10297        -0.92395         6.44182
LJ           3.92007         2.44272        -1.10177
LJ           5.42999       -0.564932        0.884387
LJ           4.80183         1.76421        -6.32319
LJ          -4.20351         1.31445         3.61436
LJ           4.37212         6.29018        -3.07127
LJ           5.06705       -0.931259        -1.15274
LJ          -4.97748        -2.10867          4.7072
LJ          -3.72526         3.95005        -2.96247
LJ           3.58289         1.29687         -1.8753
LJ           2.35657      -0.0744433         -5.8353
LJ          -5.88032         0.36922        -1.36002
LJ          -3.15988        0.341732        -3.37835
LJ         -0.691993       0.0754141         -4.0682
LJ           1.55994        -0.17327         4.07019
LJ          -4.17873         2.99559          4.1688
LJ          -1.86157          2.1143        -2.68571
LJ          -4.88878        -3.14967         5.35239
LJ           2.48019        -2.73085        -3.10683
LJ           1.62459        -3.26094         6.40758
LJ          -4.59309         1.66728         5.33757
LJ          0.960142        -2.98422         -3.0513
LJ          -1.23519        -6.01997         -2.8745
LJ         -0.475845         3.52441         3.39344
LJ          -4.83342        -4.36409        -1.95055
LJ           4.05259        -5.30522        -5.31071
LJ         -0.388583        -5.86044        -2.26226
LJ          0.421589         4.28741        -4.14963
LJ          -5.31171         3.54417         -4.1876
LJ          -3.85472        -1.72278        -6.40968
LJ          0.768975        -2.28016         5.28648
LJ          -4.69943        -5.45055       -0.695619
LJ           4.23922         -5.1815         2.06124
LJ          -4.30502        0.560582         2.34873
LJ           5.35603        -3.44273         -1.7666
LJ           -2.8572        -2.66332        -5.20466
LJ           -5.5357         2.48226        -4.24545
LJ          -2.15156        -6.11771        -3.50551
LJ           2.94707        -4.40393        -2.25215
LJ          0.755775        -4.62953          2.8457
LJ          -6.36289         5.99315         -2.6932
LJ           3.68761         5.17339         -3.2723
LJ           -3.6061        -4.04261        -5.01867
LJ           3.41948         4.54441          3.1317
LJ          -2.37499        0.555632        -4.01878
LJ          -3.89749         3.28582         5.90742
LJ           2.86048        -3.11593         3.81551
LJ           4.92723         3.44775         3.39142
LJ           -5.1891            3.02        -1.48374
LJ           4.43661         1.90671        0.549969
LJ             1.826         4.92724         4.06128
LJ               2.7         2.16556        0.316034
LJ          -3.24216        -4.98898        -4.48697
LJ           4.70677        -0.34012         2.68022
LJ          -3.12915         6.34309        -2.86737
LJ          -3.11403         2.61807         2.08024
LJ            4.6457       -0.756126         5.72641
LJ          -3.62686        -1.41183         4.47741
LJ           6.17249         5.10541         5.90629
LJ          -2.40761         0.98037         -1.8985
LJ           -5.9237          1.9758         3.93922
LJ           4.33132         3.83318        -1.62748
LJ           1.02883         3.85849        -5.00469
LJ            -2.512         1.03595        0.101175
LJ          -3.40332        -4.79528        -2.32491
LJ          -4.63497         5.06316         2.06729
LJ          -3.87252         -5.6509         5.50981
LJ          -4.91271        -3.98364        -0.39652
LJ            2.7959         -5.6103         -2.5273
LJ           5.03718         1.01895        0.248069
LJ           4.38365        -4.00153        -5.79898
LJ            2.3321         6.07692         3.36588
LJ            5.6862       -0.961261         2.26361
LJ           6.12866         3.84286        -1.66875
LJ          -1.50212         -1.8228        -5.13472
LJ          -1.36908         1.39509         2.41621
LJ         -0.817603        -2.31137        0.189236
LJ           2.54144         4.38703         2.31922
LJ          -1.61609         2.06774        0.718346
LJ           1.94742         5.21812         5.44325
LJ          -4.27856        -6.29883        0.474535
LJ             3.463         2.07461         1.90986
LJ          -5.61165         -0.9077       -0.486844
LJ           2.29812        -2.11287        -4.28506
LJ          -5.87697        -5.51137         3.14148
LJ          -2.82218         6.33584        -4.04395
LJ           2.05367        -5.04429         4.55288
LJ           -6.4065         -2.7417         2.30904
LJ         0.0203981        0.314787         2.62132
LJ          -4.71083         2.03689         1.01187
LJ           6.02119        -5.47317        -2.00943
LJ           -3.8809        -2.21141        -4.32437
LJ          -1.24887         3.91497         6.35557
