108
#Comment!
LJ         -0.150753        -1.44702        -1.61454
LJ          -2.52188       -0.666773       -0.873168
LJ          -4.80884        -3.75574         4.37435
LJ          -5.43895        -6.04595        -5.28745
LJ          -4.34418        -6.22693        -3.67275
LJ          -3.87074        -2.29253         5.41584
LJ          -4.97834         -4.2691        -3.82067
LJ           3.54964         4.96738       -0.282837
LJ           1.85901        -1.05316         1.91532
LJ           2.36965         2.98683          1.7823
LJ          -1.69681        -2.60763         4.10665
LJ           3.99661       -0.496632         2.89409
LJ           5.00598         5.27229         1.63663
LJ          -1.97202        -1.91135         6.40507
LJ          -5.61091          4.2582         3.59675
LJ           -5.2501        -1.62272         6.10363
LJ         -0.503037        -5.69046       -0.127444
LJ           2.52114         1.78003         1.51317
LJ           4.08958        -3.02213         3.13223
LJ           6.35541        -5.63932        -3.53338
LJ         -0.652592         1.80291         -5.7643
LJ           2.05011        0.714331        0.432527
LJ          -1.56866         1.15162        -1.67725
LJ          -4.78568        0.529428        -6.12766
LJ           1.35838       -0.328066        -2.90152
LJ           5.90544       -0.865183         1.53322
LJ           2.48817        0.430049       -0.438086
LJ          -4.50165       -0.177011        -1.96795
LJ          0.513507         3.08102        -2.07871
LJ           3.76426         2.21732        -5.69573
LJ           1.33199        -4.44534         1.35442
LJ          -1.81238         4.72699        -5.38986
LJ           5.39909         -5.9984        -5.61275
LJ           1.78504        -4.15292          4.3402
LJ          -2.36892         4.41353         5.19331
LJ           3.34011         2.99451         5.85087
LJ          0.286853      -0.0621845        -2.17556
LJ          -6.39407        0.286226          0.1081
LJ          -4.32233         4.76303        -4.13852
LJ           2.71402         2.90321         3.72989
LJ          -2.88031         2.97857         5.55062
LJ           1.24465         5.50659        -3.31878
LJ          -3.00466        -3.54916         5.39402
LJ            2.6025         2.20682         2.49876
LJ           3.06309        0.807016        -1.89586
LJ           2.86695         5.47533         5.12603
LJ           2.26916        -3.30649         1.08519
LJ         -0.939705         5.17833         -2.4033
LJ           1.45963         4.82098         0.51955
LJ          0.597577        -6.29064         6.00016
LJ           3.37008         2.54184        -4.38961
LJ          0.652667        -4.10295         4.60423
LJ          -4.54343         2.38627        -2.48651
LJ          -3.78289        -1.79357        -5.67095
LJ          -1.93222         1.80238        -5.18557
LJ         -0.476418         3.07969         5.99929
LJ          -1.58329         2.82345        -5.47407
LJ           6.37256         1.31156         5.35757
LJ          -4.21419         5.79008         4.60555
LJ          -4.84884        -6.33521         2.01058
LJ         -0.226098       -0.625594         1.08999
LJ           3.64728       -0.707555        -3.88431
LJ           5.83913        -4.93885         5.53619
LJ          -4.72916       -0.737984         5.44157
LJ          -4.49293         0.18489         3.26836
LJ          -3.06525       -0.281077        0.279279
LJ         -0.998767        -2.35728       -0.703784
LJ          -1.04174         1.02239       -0.297234
LJ          -3.84466        -1.23292        0.510279
LJ          0.648692         4.15115        0.644222
LJ          -4.52926         3.93867         5.02543
LJ           4.47913         2.21117        -4.39422
LJ           2.44733         6.00682         2.34787
LJ          0.873453        -4.88728        -5.55703
LJ          -5.36366         5.74499       -0.744967
LJ           1.42009         5.48061         4.88917
LJ          -4.39728         5.89418        -5.02211
LJ         -0.881152        -6.05514        -1.08415
LJ           1.15846       -0.298293         1.62388
LJ           2.10563        -5.03834          1.0244
LJ           0.10361        -4.81351        -2.57947
LJ          -6.02611        -4.75308         -3.5035
LJ          -3.00475         3.93973        -1.78682
LJ          0.798895        0.474428        -3.33201
LJ          0.568786        -2.23084          3.2719
LJ          -3.79771        0.705552        0.567467
LJ           -3.1916         1.69063        -5.76495
LJ           1.68619         3.63087         6.03566
LJ           3.67673        -1.44324        -2.16654
LJ           -6.1305        -4.79768        -4.85749
LJ           3.21931         1.02191         4.92404
LJ           1.71217        -3.29929         2.30124
LJ           4.33522        -5.53784        -2.17645
LJ          -4.49606           0.836        -4.01515
LJ           3.79374          2.2089        -2.95275
LJ           2.94824        0.313905          0.9248
LJ          -5.32596        -2.57305        -5.74163
LJ          -4.72331         4.15178        -3.12772
LJ          -2.37947        -5.79337        -1.56522
LJ          -3.95512          -1.511         4.52384
LJ          -1.79197         3.18127        -4.48014
LJ          -6.44399           3.204         5.08116
LJ          -4.96052       -0.534927        -6.07032
LJ           5.49625         1.61696         4.29955
LJ          -2.29595          3.4762         1.92896
LJ          0.310478        -5.49994        -1.32952
LJ           1.83437        -1.77938         1.01466
LJ           4.32259         5.27052        -3.11848
