108
#Comment!
LJ          -5.02582        -6.23827         1.83773
LJ          -1.66159         5.42723         -5.0375
LJ          -1.18911        -4.77585         1.28175
LJ          -5.37559        -6.02003         5.27194
LJ          -3.63905        -5.07068        0.168198
LJ          -1.61804         1.77644         5.75947
LJ           4.92233        -3.45714        -2.15134
LJ           -5.9065         1.86132        -5.46022
LJ           2.76082         4.27746         1.96274
LJ           6.25768         2.82464        -3.76839
LJ           -5.5248        -4.33198        0.137161
LJ          -3.44236         -4.7618         5.76766
LJ         -0.365417         1.80359         3.18906
LJ         -0.124098        -1.11629        -1.08264
LJ        -0.0161078        -2.60254       -0.292223
LJ           2.86259         4.41492        0.349472
LJ           3.67251        -3.73776         0.22264
LJ           6.09413        -6.05467         4.67264
LJ           -1.9288         4.68397          1.4151
LJ        0.00160144         1.45114         1.50149
LJ          -5.41434         1.96197       -0.522105
LJ          -2.68753         5.29936         4.94975
LJ          -3.91057         4.78773         -5.0807
LJ          -3.82863         4.22382         -1.5194
LJ           1.80121          5.2782         5.78238
LJ           3.07516       -0.712462        -4.68461
LJ           5.77741        0.379308        -3.57579
LJ          -5.11139         1.05141        -2.72492
LJ          -2.70377         -1.8433        0.256425
LJ          -6.01927        0.741315        -1.82393
LJ          -4.16585         6.43912         4.53354
LJ           5.61927         -3.9809        -1.60577
LJ          -4.10951         1.45173        -1.41033
LJ            3.8462        -3.84871        -3.22342
LJ          -4.73907         4.01378         4.46295
LJ          -1.69593          5.9575        -1.36975
LJ           2.72244        -6.11371         -6.2223
LJ          -2.85785         4.15048          1.4177
LJ           1.40563        -3.19503         4.12258
LJ          0.453887         3.98147       -0.435448
LJ           2.40764        -4.67411         4.52049
LJ           5.43797        -2.75361        0.714577
LJ          -2.47007         1.01163        -3.36365
LJ            4.0382         6.32265        -1.66224
LJ           3.00585         5.29924         5.71587
LJ         -0.974721        0.741907        0.834201
LJ          -1.54418         1.01517       -0.873677
LJ            3.1429        -4.25939        -1.60524
LJ           1.58319        -4.47263         5.56037
LJ           6.10814        -4.97624         5.37732
LJ           5.87634        -5.99189        -5.13972
LJ            4.7967         4.62243         1.00887
LJ          0.915652         6.39049        -1.00212
LJ         -0.561818         3.63554        -1.88971
LJ           -6.3099        -1.25572         -4.7717
LJ           1.63669         4.05279         4.12978
LJ          -0.99139         4.73667        -4.13999
LJ           4.66581        -6.07283        0.149059
LJ           -1.2194        -4.74757        -5.70563
LJ           6.28423         -3.5549        -0.37709
LJ         -0.844121         4.48373        -2.84769
LJ           3.76144         1.60033        -4.40707
LJ          -5.76815        -4.08653        -6.09222
LJ         -0.879325         -0.9504        -6.07909
LJ          -1.94235        0.276837      -0.0130089
LJ           2.34888        0.342694        -3.45608
LJ          -3.35683          6.2223         3.09448
LJ          -2.40935        -5.79507        0.988064
LJ           3.00059         3.68836        -6.44006
LJ          -3.94931         2.34547       -0.495018
LJ          -1.61764       -0.964894         -2.6442
LJ           4.88084       -0.939269         1.66673
LJ          -3.07369        -1.82967        -3.00715
LJ          -2.28567        -3.97046        -2.20572
LJ           4.74143         5.36201       -0.644988
LJ           2.87697         3.36103        0.866003
LJ         -0.613781        -4.73075         4.61497
LJ          -4.15272         5.58806        -6.17784
LJ           2.05577        -4.77406        -3.55672
LJ           3.14771         3.58054        -2.28535
LJ           2.33953         6.08761        -1.31462
LJ          -2.87239     -0.00293824         5.07416
LJ           -1.0825        -1.85743        -4.65303
LJ          -3.10714         4.32871         5.51339
LJ            4.8176         4.84674        -6.10993
LJ           3.81659       -0.406516       -0.211264
LJ          -5.68428         3.30114       -0.836851
LJ         -0.174988         2.92809        -5.51558
LJ           5.03531         1.80353         1.60005
LJ          -4.28339         -5.3829         3.24131
LJ           1.82195        -2.59905         5.01834
LJ           5.30839        -4.26225       0.0146474
LJ           2.92569         6.38855          3.1011
LJ          -1.63447         3.98382       -0.168938
LJ          -1.18773        -4.39283        -3.42214
LJ           5.37004         6.34315        -1.86856
LJ           3.06754        -3.81612        -4.42344
LJ          -2.57221        -4.61085        0.983378
LJ          -2.67825          3.9383        -1.32682
LJ         -0.990864         3.45699         4.47308
LJ            3.7722         5.59888        0.715477
LJ          -4.14618         3.09299         5.95631
LJ           3.82846        -6.42702         3.58816
LJ           4.99664        -3.81017         5.39848
LJ           5.54626         4.21954         4.88623
LJ         -0.799493         3.00666        -2.69813
LJ          -3.76109        -1.80092         1.27696
LJ            1.7583        -5.89586        -3.11108
