108
#Comment!
LJ           -5.3013         6.13235         1.59104
LJ          -1.38616         5.10508        -4.92646
LJ          -1.87867        -5.09497         1.54711
LJ          -5.53115        -5.87026         4.81495
LJ          -3.58792          -5.108        0.585716
LJ          -1.54604         1.43024         6.24029
LJ           4.47855        -3.51572        -2.04421
LJ          -6.09251         1.25806        -5.90649
LJ           2.30513         4.24279         1.82869
LJ           6.18317          3.2385        -4.21431
LJ          -5.44548        -4.94916       -0.462017
LJ          -3.81665         -4.6238         5.83768
LJ         -0.591955         1.58575         3.16902
LJ         -0.423681        -0.44099        -1.46639
LJ           1.04317        -2.44432       -0.476104
LJ              2.93         4.54461      -0.0818119
LJ           3.46043        -4.28637       -0.330806
LJ           5.55302         -5.7945         5.06633
LJ          -1.66768         5.44867         1.41135
LJ          0.684624         1.55136         1.44205
LJ          -4.71607         1.99097       0.0501341
LJ            -2.913         6.25858         4.66442
LJ          -3.69568         5.71841        -4.61693
LJ          -4.46011         3.86408        -1.79436
LJ           1.34629         5.58066         5.61057
LJ           3.04079       -0.456789        -5.00702
LJ            5.9501         0.12652        -3.25614
LJ           -5.4067        0.354972        -2.75812
LJ          -2.69995        -2.46694        0.368882
LJ          -6.25486        0.627697        -1.98724
LJ          -4.56593         6.45666         5.42665
LJ            5.9828        -3.99559          -1.475
LJ          -4.84939         1.78097        -1.10478
LJ           4.40407        -3.68787        -3.28115
LJ          -4.59892         3.48308         4.23105
LJ          -1.44197         5.46762        -1.99775
LJ           3.03367         6.37397        -6.21731
LJ          -2.86387          4.2998         1.97159
LJ           1.19309        -2.58382         3.96333
LJ        -0.0719909         4.46814       -0.315505
LJ           2.63233        -4.53558          4.6074
LJ           5.55076        -2.86312        0.594127
LJ          -1.69349         1.34736        -3.09072
LJ           4.42769         6.00529        -1.81076
LJ           3.02623         4.89005          6.1973
LJ         -0.478639        0.920067        0.663123
LJ          -1.62706        0.451386        -1.88318
LJ           3.28718         -4.1395        -2.33256
LJ            1.6396        -4.31762         5.21741
LJ           5.72015        -5.06971         5.91525
LJ           5.49303        -5.64864        -5.47715
LJ           4.61526         4.34888         1.16475
LJ           1.02648          6.0442        -0.64718
LJ         -0.819861          3.7889        -1.96054
LJ           6.32087       -0.992453        -4.34669
LJ           1.18858         3.96945         4.20893
LJ         -0.979875         5.04672        -3.88696
LJ           4.53403        -6.13271       -0.184272
LJ         -0.812954        -4.95751        -5.40909
LJ           5.71271        -3.44806       -0.376513
LJ          -1.59257         4.07907        -2.96521
LJ           3.86682         1.81525        -4.26432
LJ          -5.96391         -4.2225        -6.29806
LJ         -0.969957        -1.04344        -5.85539
LJ          -1.39035       -0.783582        0.367725
LJ            2.3597       -0.203323        -3.59519
LJ          -3.51475         6.34431         2.93891
LJ           -1.6426        -6.26639         1.87999
LJ           2.86837         4.03533        -6.24078
LJ          -3.77514          2.3881      -0.0779316
LJ          -1.65803        -1.09477        -3.22813
LJ           5.17061       -0.887041         1.43327
LJ          -3.85301        -1.14576        -2.70625
LJ          -2.49674        -4.09681        -2.52282
LJ           4.17343         5.83658       0.0189478
LJ           2.28815         3.63762         1.01307
LJ        -0.0513902        -4.99926         5.02616
LJ          -4.28142         5.64729        -6.06544
LJ           2.05647        -4.61568        -3.69823
LJ            2.9721         4.29683        -2.29567
LJ           2.64519         5.67871        -1.08428
LJ          -2.70345       -0.141705         5.08321
LJ         -0.355987        -1.84397        -5.14437
LJ          -3.22228         4.04355         5.13255
LJ           5.20699         5.14618        -5.44665
LJ           4.07504       -0.226443         0.71298
LJ          -5.14567         2.87727       -0.582133
LJ          0.306553         2.43469        -5.57534
LJ            5.9972         1.82448         1.29976
LJ          -4.56305         -5.3257         3.53895
LJ           2.28086         -2.3173         4.57161
LJ           4.86504        -3.97559      -0.0139917
LJ           2.03384         6.18105         3.20654
LJ          -1.79042          4.5881        -1.22295
LJ         -0.695142        -4.77022        -2.99062
LJ           5.61244         6.15854        -2.06437
LJ           3.24379        -3.42119        -3.92259
LJ          -2.60993        -4.48752        0.625448
LJ          -2.88347         3.51699       -0.702693
LJ          -0.77783         3.54014         4.52789
LJ            4.1564         5.30696        0.950919
LJ           -4.3319         3.43829         5.90637
LJ           3.91711         6.01755         3.48508
LJ           4.68362        -3.03972         5.71663
LJ           5.40755         4.78199         4.56174
LJ         -0.967427         3.12978        -3.46471
LJ          -3.54679        -1.75809        0.781297
LJ            2.3682        -5.76015        -3.40446
