108
#Comment!
LJ          0.388711        0.776112       -0.984782
LJ          -2.71257       -0.804124         2.78489
LJ           6.10769        -1.45426         4.40689
LJ          -4.67992         6.30182         6.32194
LJ           5.31061         5.50216        -1.11143
LJ           -1.0405         -6.1554         3.43101
LJ            6.1851        -4.86249         -3.5668
LJ           4.60929        -5.32584        -1.30008
LJ          -2.96743       -0.749138          3.7641
LJ         0.0332199          3.9028      -0.0452129
LJ        -0.0474301       -0.798317       -0.671555
LJ           4.86374         2.50795         4.41292
LJ           1.00979         5.47023        0.208499
LJ         -0.727162        -3.48657         6.01809
LJ           4.10772         2.23846         6.05943
LJ          -6.10393         -2.6632         -3.3703
LJ          -3.20922          4.7289        0.112671
LJ           3.90311        0.754397         3.67709
LJ           2.54547         6.43604         5.16005
LJ           6.45631        -5.31159        -2.62155
LJ         -0.934024       -0.849451         -5.2929
LJ           1.74209        0.293851       -0.641504
LJ           1.61363        0.935527        -2.40528
LJ          -5.15577         1.17662         4.53504
LJ          0.985914        -1.77479         -5.3859
LJ           5.21326         -3.8748       -0.137013
LJ         -0.088911        -2.70192         0.62007
LJ           5.66806         2.65281         3.89466
LJ           2.13398        -5.87324         1.42278
LJ          0.516684         1.15246         6.10618
LJ           2.75038        -5.99778         3.23253
LJ          -2.09378        -2.96665        -1.71868
LJ          -3.22625        -3.35427        -2.52719
LJ           3.96254       -0.310785         4.43226
LJ          -3.37834         5.54012        -5.96374
LJ           2.36688        -6.27641        -5.71664
LJ           2.83879        -1.35638        -1.51537
LJ           2.99403        0.491674        0.978796
LJ          -5.53278         1.90112        -2.65932
LJ           3.14915         1.46633         4.14497
LJ         -0.528211        0.676496         2.27434
LJ           1.11944         3.66173        -2.36688
LJ          -4.81271        -4.69626         4.43039
LJ           4.63988         3.66157         4.34196
LJ           1.80515         1.53304        -3.78949
LJ           4.24399         6.35133          2.8995
LJ          0.751802         3.16489         4.83843
LJ           1.09453         2.40669        -3.48463
LJ          0.601935         4.55342         3.56675
LJ           1.51938        -6.43489        -4.88917
LJ           2.79278         2.50156        -5.43452
LJ          -4.16672        -5.15099         2.85427
LJ          -2.26748        -4.06957        -5.21151
LJ          -3.29835         -2.7329         4.52396
LJ          -3.96173         1.41954        -5.29612
LJ           2.78781         5.10712         6.17502
LJ         -0.869702         1.44868         5.02128
LJ             3.539       -0.306003         6.25508
LJ          -4.61379        -4.39351          5.8245
LJ            4.3042        -3.40939         6.33288
LJ           2.72757         4.64608        -1.19058
LJ           5.94896        0.313915        -2.54917
LJ          -5.83254        -2.24118          4.6832
LJ          -5.64066        0.481047         3.94474
LJ          -5.77868         1.73665        -0.12605
LJ          -3.39622        0.154825         0.28776
LJ          -2.06479        -1.63974         5.77643
LJ           1.56539         2.22861           -2.39
LJ          -5.57987        -1.70883         -1.2744
LJ           2.64833        -5.95998         0.41533
LJ          -4.83313         2.44743         4.85185
LJ           6.36835        0.568074        -3.41714
LJ           5.78133          5.0716         4.13166
LJ          -1.83671        -4.01371         5.15435
LJ         -0.931824         1.62835        -3.80022
LJ           2.80399         5.33731         1.45566
LJ          -6.14388         5.51369          5.2511
LJ          0.444454        -6.04773        -1.46845
LJ           4.84829        -3.11933        -1.05813
LJ           1.63182         4.88965         1.37221
LJ          -2.38261        -5.02794        -6.08848
LJ           5.28767        -5.90586        -3.85206
LJ         -0.793084        0.902316        -3.02606
LJ          -0.14377       -0.432356         -5.8253
LJ           1.82756         -5.3157         5.92119
LJ          -2.06233         1.71824         4.53748
LJ          -4.42662         2.58441        -3.74355
LJ           1.53006         3.25277        -6.22152
LJ          0.819914        -2.02786        -2.26893
LJ          -4.87993        -1.98964        -5.79853
LJ         -0.106077        0.941962         4.40104
LJ           5.22115        -3.15958         2.39546
LJ         -0.509256        -0.87424        -2.98361
LJ           -2.3001       -0.451944        -3.70037
LJ          -3.09226        -1.27898       -0.866786
LJ           2.08827          2.2789         1.83197
LJ           -4.8504        -2.75888        -3.70649
LJ          -5.84897         1.12082        -3.88988
LJ           1.71641        -4.98207      0.00925081
LJ          -3.30719        -3.05522         -1.3945
LJ         -0.339395        0.688942         5.75012
LJ          -3.71042         2.54046         1.77022
LJ           3.54426        0.728946         -6.2865
LJ           4.37937         1.74385           3.304
LJ          -0.83779        -1.28473         2.82478
LJ         0.0193607        -6.04994        -2.57613
LJ           4.36653       -0.415106        0.476165
LJ           4.13665         4.25728        -2.75565
