108
#Comment!
LJ           5.22277        -2.06135         4.29828
LJ           5.03428        -6.03583          -3.275
LJ          -2.60969         0.68044         1.59736
LJ         -0.204655          1.8855         2.36181
LJ           3.94033         4.40094        -6.44258
LJ         -0.986665        0.338436         2.35133
LJ        -0.0237594         5.28941        -4.70311
LJ            3.5133         6.09654        -4.60456
LJ          -1.31826         3.74777         5.92879
LJ           3.58287        -5.75881        -6.02306
LJ          -4.89541         1.01864        -5.92261
LJ          0.592639         -2.3695        -4.92954
LJ           2.70688         5.01521        -4.14576
LJ         -0.841371        -6.08079         3.75986
LJ          -2.35658        -0.77406        0.965292
LJ          -5.05008         4.39875         5.34277
LJ         -0.901421         4.72456        -4.81684
LJ          0.812368        -3.35362        -5.35634
LJ         -0.378521        -3.03726         4.01218
LJ           5.61065         2.89402        -6.05177
LJ           4.84289          5.2635         2.25871
LJ          -2.19243         2.50648        -5.43823
LJ           1.69272        -4.95036        -6.36389
LJ         -0.937328        -5.58749        -6.13322
LJ         -0.108398         5.21998         5.66378
LJ         -0.416826         2.64264        -3.54789
LJ           6.23951        -2.92383         5.56286
LJ          -1.67882         3.63204       -0.417726
LJ           5.65835        -4.69948        -2.00676
LJ          -4.63135        -2.09659       -0.231456
LJ          -2.08639          3.0831        -3.11444
LJ          -4.56454         5.65005         5.06393
LJ           -3.0004        -5.77122        0.394336
LJ          -3.00559         6.18468        -4.91347
LJ            1.1507         1.42017        -0.80177
LJ           4.70437         4.64384          3.5842
LJ           2.25872         4.22697        -5.24699
LJ           2.04829        -5.56893        0.804229
LJ          -0.39168      -0.0178118         4.99397
LJ          -5.82706        -2.50793         4.35407
LJ           1.78832        -4.05768       -0.852068
LJ          0.933279        -5.08046        0.697428
LJ           5.85252         4.79877        -4.48487
LJ           1.37783         5.63526         4.36219
LJ           -3.1012         2.37687         6.15473
LJ          -2.01197       -0.400538         4.29115
LJ           2.78785         4.82819        -1.75036
LJ            5.7856        -6.42736         5.42208
LJ         -0.495785       -0.390483         -4.1158
LJ           4.09092         3.33408        0.228039
LJ          -5.82284        -2.24764         5.99276
LJ           3.79533         0.57306         3.88878
LJ          -2.69727        -2.52133          6.0689
LJ          -4.37258         2.57092        -1.10901
LJ           4.56469        -5.87631         5.03485
LJ          -5.87265      -0.0128907        -1.29763
LJ           4.65507       -0.196404         6.31786
LJ          -1.45503        -4.71226        -3.12734
LJ          -1.40741         3.83735         4.69682
LJ          -2.70182         4.40271        -5.75037
LJ           6.35238         3.52799         2.71527
LJ          0.164711         3.38846         6.10907
LJ          -2.41764         6.07394         6.23018
LJ           -2.6702       -0.430235        -4.11025
LJ           -6.3894        -4.83251         6.45639
LJ          -1.57309         4.57908         5.48492
LJ           5.53624         6.42931         3.78225
LJ          0.724848         3.65742         2.77503
LJ           5.33044        -3.85999        -6.38676
LJ           3.99211        -2.09131         5.14737
LJ          0.512085      -0.0875544         3.29898
LJ         -0.319184         2.50319         3.47794
LJ          -4.31843         3.93634        -5.18295
LJ          -4.04552         1.91515        -4.99503
LJ           5.94605        0.720131         3.53405
LJ          -6.28337         4.04264          5.6146
LJ          -5.35757         6.28279        -2.67727
LJ          -5.91733         4.30369        -4.00214
LJ            5.6071         2.44867       -0.878071
LJ           -1.5631        -5.73011        -2.67035
LJ           -2.7456       -0.977115         5.16206
LJ           2.92609       -0.774034        -5.23776
LJ          -1.91792        -4.29037         1.86785
LJ          -1.59868         4.60692         2.11637
LJ           3.81756         2.88088        -1.56677
LJ           2.42953         -1.7154         -5.5943
LJ           2.76621        -4.19499         3.62176
LJ           4.96871        -4.26075        -3.24807
LJ           4.99959         3.85682        -3.53617
LJ           2.72915        -5.96022        -4.28175
LJ           1.90272        -4.75243         2.24407
LJ          0.849693       -0.738841          1.3433
LJ           3.81752        -4.99365         5.03516
LJ           5.58604       -0.531655         4.04015
LJ         -0.755782        0.415165        -4.68688
LJ           -4.6348        -2.60645          4.5948
LJ          -5.65402        -3.68304       -0.556618
LJ          -3.60366        -0.56399         3.84939
LJ          -3.68374        -3.86882        -6.43531
LJ           4.19778         3.08386        -6.16925
LJ          -3.16296         2.90964       -0.565473
LJ           1.92855         3.69527         -3.6459
LJ          -1.30788       -0.650458         2.74352
LJ          -1.65698         2.64043         1.50701
LJ          -6.32947       -0.849072         4.04321
LJ        -0.0761925        -5.99485        0.756175
LJ          -4.38302          4.6669        0.352109
LJ          -5.15353        -3.61293        -1.56484
