108
#Comment!
LJ           0.81601        -3.26947         -1.1479
LJ          -2.86374        -0.30219        -1.35916
LJ           -3.9094        -5.01314         4.34969
LJ          -5.22682        -5.48477        -5.68592
LJ          -2.90188         -6.1851        -3.87054
LJ          -4.41511         -1.5905         4.26129
LJ          -5.68632        -3.25153        -4.04787
LJ           3.05902         3.92057         0.18427
LJ         0.0662828       -0.561214         1.37705
LJ           2.24384         3.00383         1.38472
LJ          -1.36516        -3.09789         5.17644
LJ           4.92091       -0.983729         2.96632
LJ           6.18985         5.53668         2.10734
LJ          -2.91231        -1.48141         6.46168
LJ          -4.01961         4.63482         2.97409
LJ          -5.96087        -1.42608         6.26288
LJ         0.0813127        -4.74519        0.237132
LJ           2.71869         1.85807         1.31332
LJ           4.15325        -4.03416         1.87426
LJ           6.25187        -5.02354         -3.5717
LJ         -0.974635         3.11262         -5.8276
LJ            1.1718       -0.515525        0.532387
LJ          -2.69631        0.364123       -0.447002
LJ          -4.96575       0.0102224        -5.28129
LJ          0.868898        0.134822        -1.23545
LJ           6.11914        0.350279          2.1498
LJ           2.67916        0.929925       -0.542495
LJ          -3.32202        -1.32811        -4.04563
LJ         -0.223673        0.981472        -3.42224
LJ           4.75443         3.35464        -5.59151
LJ           0.83987        -3.40137      -0.0594828
LJ           -2.0159         3.88825         5.58962
LJ           4.41181          5.6938        -6.23379
LJ           3.80793        -4.82136         5.00395
LJ          -1.08168         4.03988          4.6998
LJ           3.31149         1.47068         5.48888
LJ         -0.696388       -0.337406        -2.66655
LJ          -4.72612       -0.100546        0.443465
LJ          -3.56948         6.18277        -2.95474
LJ           2.83927         3.26417         2.84618
LJ          -3.71279         4.07398        -6.13212
LJ           1.23222         6.39847        -4.12096
LJ          -3.30034        -2.49788        -6.32436
LJ           1.88277         2.42679         2.23638
LJ            3.5909         1.20702        -1.90205
LJ           1.82885         5.38094         5.26645
LJ           2.95037        -3.33726      -0.0137233
LJ          -1.28574        -6.29498        -1.99125
LJ           1.56992         4.33756       -0.928639
LJ          0.400915        -6.02379         5.36125
LJ           2.74409         3.73527        -4.77788
LJ         -0.591754        -3.63612         6.16344
LJ          -5.65451        0.110307        -1.70688
LJ          -3.51128        -1.07455        -5.25251
LJ          -1.30791         1.10292        -5.71642
LJ          -1.27269         2.07749         5.72887
LJ           -1.6171          2.7268        -4.36092
LJ          -5.18894          1.8393         5.52677
LJ          -3.66634          4.3198          4.5136
LJ          -3.94698         5.81567      0.00949914
LJ          -1.84187        -2.40267         1.79339
LJ           3.51791        -2.34878        -3.37581
LJ           5.21597        -6.12932         6.30569
LJ          -3.99771       -0.509151         5.37293
LJ           -3.9315       -0.380715         4.17269
LJ          -2.12511        -1.10773        -0.81573
LJ         -0.215405        -2.00001         2.02301
LJ          -1.75803        0.943729        0.370922
LJ          -3.11559        -1.26206        0.929555
LJ         -0.642687          5.8577        0.939459
LJ          -4.83625         4.27641          4.5792
LJ           4.28464         2.53568        -4.22654
LJ           2.00756         4.75454         2.42182
LJ           2.08204        -5.46866        -4.77149
LJ           5.97825        -5.75519          0.2525
LJ           1.05219         5.32257         -6.3418
LJ          -5.01656         6.34626         -4.8144
LJ         -0.918143         5.97421       -0.561413
LJ          0.175532         2.00573         2.49803
LJ           1.90072        -6.11943        0.272241
LJ           1.45289        -4.13708         -1.9143
LJ          -4.73199        -4.45102        -2.93847
LJ          -4.30938         4.84596        -1.44839
LJ          0.571162        0.836109        -2.02734
LJ         -0.220828        -1.87265         2.96482
LJ          -4.01466         1.75983       -0.806263
LJ           -2.9717         2.06502        -5.78159
LJ           1.79299         4.07225         5.82821
LJ           4.47805       -0.993225        -2.37957
LJ          -6.14429        -6.35904        -4.94996
LJ           4.29022        0.934287          5.1855
LJ           1.50456        -2.28837         1.18067
LJ            6.3702         5.72133        -1.80663
LJ          -5.22626         1.39301        -4.26915
LJ           6.31538         3.17424        -4.46159
LJ           3.52422       -0.590163         1.18717
LJ          -6.16936        -3.18316        -5.79322
LJ          -3.77888         4.88977        -3.72222
LJ          -3.14456         -5.4239        -2.00186
LJ          -3.94027        -2.50361         2.29991
LJ          -2.11596         4.17944        -3.87443
LJ           5.27833         3.84419         6.19719
LJ          -3.61406       -0.686515        -6.45014
LJ           5.46571         1.92724         4.38823
LJ          -2.92173         5.32398         1.70157
LJ          -0.86553        -5.75817        -1.22388
LJ        -0.0193369         -2.9038        0.632271
LJ           4.09725         5.50231        -3.40294
