108
#Comment!
LJ          -4.04955        -4.13604         2.71016
LJ          -2.00742         5.67473         -4.6948
LJ         -0.248621        -4.63466        0.217324
LJ          -5.92957        -6.12459         5.53309
LJ          -5.51067        -2.99448        -2.08089
LJ          -2.28374         2.18815         4.45244
LJ           5.15398        -2.71793        -3.60802
LJ          -5.24999         4.12347        -3.65871
LJ           5.03057         3.80227         2.17476
LJ          -6.17102        0.706594         -3.8033
LJ          -5.59386        -2.14767         2.64426
LJ          -1.92311        -5.17391         5.69676
LJ          0.552822         2.60511         4.25581
LJ           1.21633         -3.1894        0.353348
LJ          -3.76833        -2.80983         0.12514
LJ            3.0366         3.80579         1.42773
LJ           4.88354        -1.77699         2.22308
LJ          -4.89421        -5.96116         5.03624
LJ          -2.42408         3.21427         2.12254
LJ          -2.84201         1.10929         1.57163
LJ           5.63463         2.52657        -1.58784
LJ          -1.65431         4.15406         5.56703
LJ          -5.35159         1.98035         5.60476
LJ          -6.02732         6.33078        -1.76193
LJ          0.469272         4.50462         6.15932
LJ           3.13423        -1.92332        -4.26822
LJ           5.27339         1.44577        -4.63554
LJ          -3.79743         3.17534        -2.05319
LJ          -2.46725        0.272947       -0.385568
LJ           -5.7376         2.28284        -1.47768
LJ          -4.15421        -5.67469         3.49781
LJ           5.59468        -5.03054       -0.760389
LJ          -2.93204       -0.547036        -4.30894
LJ           2.03412        -3.75116        -3.08903
LJ          -4.93087         6.05548         5.57429
LJ          -1.22168        -6.19078        0.698269
LJ           1.69338        -5.16126        -5.91165
LJ          -3.44648         3.18423      -0.0315962
LJ          0.981252         -3.4397         5.04551
LJ           2.02888          2.3045        -1.20584
LJ           1.70048         6.43731         5.31728
LJ           5.32409         -3.0828        0.511689
LJ          -5.35906       -0.192239        -3.97176
LJ            2.7205        -5.23047       -0.910854
LJ           5.89561         5.54143         4.91465
LJ          -3.33599        0.389758        0.912861
LJ          0.158521         4.48547         1.83725
LJ           2.89499        -4.78583        0.868335
LJ           1.99225        -4.69389         5.59047
LJ          -5.34021         -5.7419         3.30331
LJ          -5.61373         5.65947        -3.93901
LJ           4.90052         5.73841      -0.0500763
LJ         -0.347411        -4.99094        -1.03939
LJ           1.90553         5.44266       -0.735894
LJ          -5.22377        -2.24368        -6.29816
LJ           2.88331         4.66634         3.27288
LJ          -1.89026         4.77267        -3.92323
LJ           5.03995         6.45007        0.753459
LJ          -2.91666        -4.13242         5.91894
LJ          -5.41503        -3.56461       0.0173972
LJ            1.8568          4.6779        -1.90834
LJ           3.27289        0.714184         -4.7089
LJ           -5.1135        -3.62257        -5.43496
LJ          -0.54167       -0.801805         6.28766
LJ           -4.7766         3.18166        0.118991
LJ           2.75778         2.30561        -3.11331
LJ          -1.54178         5.76259         1.30821
LJ          -4.36368        -5.30307        -0.99556
LJ           3.79587         3.00743         5.53492
LJ          -4.36191         2.74397        -1.07921
LJ          -1.57095       -0.685001       -0.460948
LJ           3.64135        -1.11383         2.44344
LJ          0.248538        -3.88594        -3.89622
LJ          -1.34704        -3.46161        -1.26428
LJ          -6.39522         4.22974        -2.76463
LJ           4.62663         3.76646         1.10483
LJ          -2.70127        -3.80646         3.02679
LJ          -3.77603         5.24806        -6.14174
LJ           1.50662        -6.02893        -3.75057
LJ           3.63906        0.905734        -2.38609
LJ           1.61693        -5.42418        -2.24832
LJ          -3.45646        0.582932         5.06492
LJ          -3.84411        -1.87628        -2.90484
LJ          -3.55718         3.20902        -4.82312
LJ           3.45711         3.68575         4.59752
LJ           2.90957       -0.660932        -2.64893
LJ           5.62722         3.88166        -1.98306
LJ          -1.83106         4.24256        -6.38746
LJ           1.40942         1.82709         2.64625
LJ          -2.30065         6.32235         2.23697
LJ          0.329609        -4.26791         5.92862
LJ          -6.24451        -4.78679       -0.621592
LJ            4.0191        -6.01686         1.89805
LJ          0.654163         1.68224         2.01073
LJ          -3.39116        -3.15507        -5.07546
LJ           3.98256        -6.36296       -0.505511
LJ           2.62386         -5.6112        -4.92497
LJ          -2.30774        -4.68555         2.48397
LJ          0.679821         3.01637        -2.74813
LJ         -0.783164         2.88415         2.97581
LJ           3.03333         6.18484       -0.391121
LJ          -2.85886         2.29289         5.86271
LJ           5.89138        -4.47127         5.34762
LJ          -6.17502         6.30613         3.68985
LJ           5.94973         2.25189         6.19735
LJ         -0.695948         2.75246        -1.24333
LJ          -4.77243        -1.79375         3.06968
LJ          0.934494        -6.36718        -2.82604
