108
#Comment!
LJ           1.08946        -4.17182        -1.09647
LJ          -2.80559       -0.386718        -1.25455
LJ           -3.4816        -5.59665         4.34287
LJ          -5.41182        -5.17367        -5.75774
LJ          -2.40764        -6.30914        -3.53995
LJ          -4.38271        -1.20344         3.20715
LJ          -6.04621        -2.94495        -4.09437
LJ           2.76759         3.41904        0.374997
LJ           -1.2691       -0.142815          1.3583
LJ           2.31008         3.08284         1.27127
LJ         -0.769504        -3.32338         5.58914
LJ           5.43835        -0.44533         3.05336
LJ          -6.17658         5.66439         2.32327
LJ          -2.99451        -1.58664        -6.35695
LJ          -3.22102         4.81005         2.85321
LJ          -6.34933        -1.04499         6.29017
LJ          0.300452        -4.18649        0.479295
LJ           2.61524          2.0856          1.4968
LJ           4.12265        -5.24457         1.18486
LJ           6.34484        -4.70452        -3.67512
LJ          -1.33506         3.76011        -5.92478
LJ           1.29767       -0.778773       -0.086758
LJ          -3.04232      -0.0283592        0.401319
LJ          -4.94801       -0.285072         -4.8885
LJ          0.503924        0.429323       -0.446246
LJ           6.19591        0.895432          2.4554
LJ           2.68385         1.11238       -0.423756
LJ          -2.69875        -2.03445        -4.92581
LJ         -0.506459       -0.253203         -3.8352
LJ           5.14176         3.74203        -5.17072
LJ          0.417734        -2.75317      -0.0580851
LJ           -2.4141         3.63317         4.97964
LJ           4.12712          5.2775         6.33104
LJ           4.75704        -5.14431         5.32486
LJ          -0.28602         3.88789         4.07764
LJ            3.1712        0.890448         5.39421
LJ          -1.00066       -0.338815         -2.8731
LJ          -4.32052       -0.615053        0.707288
LJ          -3.02311        -6.22223        -2.58237
LJ           2.59439         3.30964         2.15076
LJ           -4.0335         4.59089        -5.56224
LJ           1.36384        -5.98968         -4.5676
LJ          -3.86196        -2.18699        -5.42758
LJ           1.78354          2.4697         2.03195
LJ           3.87305         1.40999        -2.01355
LJ           1.40544           5.905          5.1859
LJ           3.21366        -2.98197       -0.510706
LJ          -1.82314        -6.08577        -2.25251
LJ           1.64625         4.10338        -1.55669
LJ          0.372048        -5.98534         5.07571
LJ            2.5865         4.23832        -4.99423
LJ          -1.28794        -3.33352        -6.22201
LJ           -6.1579       -0.961836        -1.33255
LJ          -3.32765       -0.916738        -5.29382
LJ          -1.21081        0.465759        -5.27763
LJ           -1.4397         2.12465         5.24247
LJ          -1.54943         2.45069        -3.75757
LJ          -4.55916         2.09243         5.59523
LJ          -3.76644         3.52841         4.42474
LJ          -3.57526         5.40036        -1.00072
LJ          -2.44333        -3.24515           2.058
LJ           3.49282        -3.08443        -3.05043
LJ           4.78075         6.02606         -6.1698
LJ          -3.74272       -0.600203         5.30631
LJ          -3.73139       -0.802343         4.22324
LJ          -2.02185        -1.16088        -1.59367
LJ          0.110374        -1.87621         2.15496
LJ          -2.29421        0.776803        0.461597
LJ          -2.68293        -1.20229         1.03908
LJ          -1.23728        -6.26216        0.907216
LJ          -4.58735         4.53498         4.26115
LJ           4.28323         2.84554        -4.06807
LJ           1.86335         4.03377         2.44429
LJ            2.5111        -5.87283         -4.3431
LJ           5.21956        -5.08977        0.726439
LJ          0.954596         5.15202        -5.68754
LJ          -4.63724         6.22579        -4.74325
LJ         -0.975474         5.56821       -0.281508
LJ         -0.237783         3.13806         2.85988
LJ           1.65791         5.97398      -0.0731379
LJ           2.38926        -3.66117         -1.9803
LJ          -4.18369        -4.26209        -2.83004
LJ          -4.81283         5.36425        -1.23221
LJ          0.400016         1.02127         -1.5772
LJ         -0.882395        -1.79686         4.28366
LJ          -3.65559         2.53065        -1.58465
LJ          -2.87803         2.27514        -5.83319
LJ           1.65383          3.8953         6.02341
LJ            4.8094       -0.805309        -2.55537
LJ           6.29059         6.14232         -5.1217
LJ           4.99739        0.834484         5.19845
LJ           1.41028        -2.31869        0.502194
LJ          -5.63823         4.91336        -1.66872
LJ          -5.55973         1.59157        -4.45227
LJ          -5.57221         3.56814        -5.32815
LJ           3.79631        -1.00967         1.31861
LJ           6.33216        -3.71361         -5.5281
LJ          -3.18816         5.56124        -3.95649
LJ          -3.51771        -5.30443        -2.28198
LJ          -3.90705        -2.93426         1.28943
LJ          -2.24919         4.48587        -3.81345
LJ           4.68706         4.29357         6.42533
LJ          -3.49319         0.36078        -5.84897
LJ           5.40632         2.01625         4.50307
LJ          -3.24882         6.17794         1.61475
LJ          -1.00601        -5.44584       -0.488631
LJ         -0.542467        -3.57544        0.344049
LJ           3.99733         5.61378        -3.53924
