108
#Comment!
LJ           4.37649        0.607644         5.46381
LJ          0.106646         4.96984         2.66117
LJ           5.35571         2.11367         2.99157
LJ          0.252671         5.95659         3.31542
LJ           3.30761         6.11541        -4.97005
LJ           3.56407          3.7708        -3.74955
LJ          0.472336         2.48227         5.12732
LJ           3.01152        -5.81956         1.80815
LJ          0.358395        -2.71568         3.72997
LJ         -0.100465         1.70205         1.78406
LJ           4.31395         1.68515        -2.87082
LJ           -1.1342         2.25722        -6.02276
LJ          -3.40191        -2.50114           3.394
LJ          -5.21627         4.54791        -4.75245
LJ          0.117913         2.08402         6.15971
LJ          -1.90612       -0.022409        0.482611
LJ           1.56347        -2.27347        -1.75464
LJ          -1.02607         -2.2684       -0.256726
LJ           5.12464        -2.42552        -6.15578
LJ          0.972682         3.07579        -3.11142
LJ           2.87644         1.50986          4.6004
LJ           1.45494        0.410885         1.06521
LJ           3.65768        -2.32817         1.99475
LJ          -6.37578        -4.52154       -0.241826
LJ          -2.09117      -0.0515267         2.83304
LJ          -5.57579        -4.24089         5.50823
LJ           3.75572        -2.18969        -2.73484
LJ          -3.33438         6.05078        -2.63883
LJ          -5.72077        -3.22323        -0.32906
LJ           2.80579        -3.62361       -0.870712
LJ           2.72144         6.18719        -0.10636
LJ           3.43795         2.70231        0.191829
LJ        0.00188826        -2.42992         5.72351
LJ         -0.386755         1.53512        0.137662
LJ          -5.13626        0.456864        -4.00357
LJ             0.912         4.41639         1.74206
LJ          -3.34041       0.0214058         4.01389
LJ          -4.68154        -4.65022          2.0659
LJ          0.116858         -5.2957          3.7469
LJ           1.81103          2.5237         4.09964
LJ           5.50568         2.08385        0.113923
LJ         -0.355716         3.04787         4.86019
LJ          -4.60367        0.872083         3.15528
LJ           2.58094         4.89785        0.298079
LJ          -4.51204         3.36869        -5.26209
LJ           3.22493        -5.73978        -2.94972
LJ       -0.00842915       -0.163949         3.95972
LJ          -3.57813        -5.83249         -1.9739
LJ          -4.73354        0.769592      -0.0643451
LJ          -5.06386       0.0603244        -1.85189
LJ           6.15062       0.0285712       -0.992654
LJ          0.376748        -3.79265         4.57666
LJ           6.07167         4.77845        -4.98337
LJ           3.93775         6.37972       0.0151733
LJ          -3.12061         3.08219        -5.75503
LJ           4.07044        0.806248        0.463771
LJ          -1.53666       0.0724268         1.66296
LJ           3.63244         4.91977        -4.22664
LJ          -6.03562          1.4453         2.18578
LJ           1.74144        -1.52189         2.39016
LJ          0.408373        -5.41499        -2.27907
LJ          0.582682         2.81036        -1.22846
LJ         0.0434634         1.37108        -4.27106
LJ         -0.836395        -4.63588         1.12883
LJ          -1.25189        -3.51525         2.25057
LJ          -5.75036        0.377227         5.74158
LJ          -5.22989         2.14384         1.58181
LJ           5.74374        -3.45735        -5.48472
LJ          0.194563         5.41813         4.69907
LJ           1.35944          1.4747        0.137021
LJ          -3.79412         3.39128         3.40592
LJ           3.80035         1.24681         -3.9035
LJ           1.92966        -4.79219        -1.58814
LJ          0.861799        0.286312        -6.22497
LJ           4.91817         5.13045        -3.13412
LJ           4.75281         -1.4474        -2.09874
LJ          -0.73421         -4.7579       0.0283807
LJ         -0.292798        -3.84688         5.55798
LJ       -0.00644478         2.16922        -2.77578
LJ           4.34532         3.28053        -2.45082
LJ           5.08592         5.90935        -4.19957
LJ          0.861002         1.41632         5.86853
LJ           3.20045        -1.35829         2.27669
LJ           6.19775         -5.9428         3.73627
LJ          -2.53116        -5.02328        -2.38742
LJ           1.68291       -0.609575        0.706385
LJ          -2.25331        -2.25816         1.48733
LJ           1.47669         1.23839        -5.70871
LJ           5.40948        -5.47713        -4.43101
LJ           1.17933        -4.86875         2.83317
LJ          -1.36529        -1.03192          4.5029
LJ        0.00372328        0.499892        -4.96925
LJ          -3.77491        -1.69177         6.01987
LJ           4.57417        -6.27353        -5.94304
LJ          -4.04239       -0.673703          2.6706
LJ           -2.8774         6.33649         -0.1709
LJ           3.51646         2.53548         1.32486
LJ           4.64502         5.52323        -5.58551
LJ          -3.38956        -6.11811        -3.55863
LJ          -5.66683        -2.06207         0.82567
LJ           3.29539         2.09926        -3.50494
LJ          -4.23022         5.12569       -0.946186
LJ          -1.46661         3.95777        -1.31916
LJ          -3.03835        -2.95667        -5.24063
LJ          -4.08531        -4.29725         5.30801
LJ          -1.17798        0.277874         3.60226
LJ           2.29676       0.0486914         1.56673
LJ          -5.94638         1.66801        -3.08626
