108
#Comment!
LJ           1.23545        0.773212        0.125106
LJ          -3.02371         -1.0342         2.64271
LJ           5.97054        -1.48165         4.14704
LJ          -4.08727          5.8916         5.33526
LJ            4.9187         5.62619      -0.0509756
LJ         -0.401739          5.4019         2.65345
LJ           5.28923        -4.82968        -3.30845
LJ           5.12053        -4.42099        -1.45124
LJ          -1.55642        0.454572         4.64192
LJ         -0.976336         4.43334        0.507552
LJ          0.801651       -0.108677        -2.14398
LJ           3.87988         2.66225         5.00805
LJ         -0.514607         6.19452        0.244907
LJ          -1.02627        -4.10479         5.76251
LJ           3.15638          2.8748         6.41838
LJ          -5.97242        -3.15255        -2.36214
LJ           -4.0138         3.98895       0.0420465
LJ           5.22606         1.62485         4.05076
LJ           2.02993         5.41243         6.01314
LJ           6.08138         -4.9866        -2.58912
LJ          -1.18949        -1.62459        -4.89833
LJ           1.56388       -0.622255        -1.49391
LJ           2.48128      -0.0109953        -2.19497
LJ          -5.41464        0.903391         3.97246
LJ          0.680819        -2.36776        -5.96007
LJ           5.25476        -5.24535       -0.391176
LJ          -1.74877        -3.91457        0.881398
LJ          -6.36132         2.81823         4.57245
LJ           2.00399         -4.8586         1.94366
LJ          0.557999         1.10187         5.75374
LJ           3.86073        -6.08664         3.38178
LJ          -2.59835        -1.01493        -0.12794
LJ          -2.18605        -2.87437        -1.06054
LJ           4.57582        0.286946          5.4045
LJ          -3.37572         6.01601        -5.53806
LJ           1.76286        -5.04551        -5.40296
LJ           3.21428        -2.10349        -1.24724
LJ           3.16634         0.60272         1.56704
LJ          -5.16944         1.91472        -2.94156
LJ           3.28798         1.15652         4.24517
LJ         0.0543355       -0.211746         1.29096
LJ           1.44765         4.65122        -2.92703
LJ          -5.25068        -5.07278         4.40514
LJ            5.1092         3.63144         5.13855
LJ           2.60809        0.791724        -4.74705
LJ           4.57799        -6.36335         1.83731
LJ          0.377946         4.99375         6.35785
LJ          0.881062         2.53937        -3.81531
LJ           0.03799         3.61531         4.15788
LJ           2.02801        -6.08487        -4.20112
LJ           2.30266           2.959        -6.06299
LJ          -5.69525        -5.28262         2.84859
LJ          -1.40939        -2.37195         6.19387
LJ          -4.55531        -2.28689         2.71794
LJ          -4.89361         1.22177          6.3652
LJ           3.64973         5.42343         5.85802
LJ         -0.542452        0.599365         4.97412
LJ           2.81728       -0.972281         6.39388
LJ          -4.37588        -3.58224          5.9995
LJ           2.89734        -2.28903        -5.47034
LJ           3.56686         6.25533        -1.43064
LJ          -6.31725       0.0119345       -0.906532
LJ          -6.10849        -1.65719         5.19353
LJ          -6.28861        0.183415         2.99991
LJ          -6.20438         2.28447         -1.2109
LJ          -3.35689         0.12755        0.343199
LJ          -1.72246       -0.693735         4.53283
LJ            2.2171         2.29009        -4.09818
LJ          -6.07355        -1.90423        -1.88041
LJ           3.96844        -5.28878         1.34916
LJ           -4.9821         2.66968          4.7523
LJ           6.10473       -0.597482        -3.62458
LJ          -6.20305         4.48013         4.75152
LJ          -1.29251        -4.67517         4.76945
LJ          0.619846        0.156298        -4.66512
LJ           2.97714         4.54176        0.931572
LJ           6.19227         6.22872          5.1086
LJ          0.855688         6.09759          -1.921
LJ           5.77232        -3.60637        -2.16163
LJ           1.81153         4.16355        0.699186
LJ           -3.4234        -4.75756         6.32912
LJ           5.39779        -5.99921         -3.4329
LJ        -0.0412948         1.21222          -3.693
LJ           -0.6646       -0.800208         6.26486
LJ           2.49879         6.13186        -6.28487
LJ          -2.17707         2.40942         5.67784
LJ          -5.05992         3.06212        -2.52366
LJ           1.76875         3.92984        -6.11694
LJ         -0.397527        -1.82592        -2.37508
LJ          -4.54846         -1.1335        -5.77487
LJ         -0.494418         0.52819         3.65103
LJ           6.30574        -2.33153         2.32153
LJ          -1.50276       -0.526173        -2.28438
LJ          -1.83517       -0.852948        -4.26745
LJ           -5.1824        -2.18906       -0.299322
LJ           1.46026         2.70174         2.23685
LJ          -4.90041        -2.91918         -3.0143
LJ          -5.66794         0.42564        -3.82933
LJ           2.20948        -3.68873        0.290593
LJ          -2.56357        -3.86712       -0.254687
LJ          0.568213       -0.505551         4.77069
LJ          -2.91504         2.40458        0.772531
LJ           1.82299       0.0232699        -5.70576
LJ           3.78784         2.31027         3.44312
LJ         -0.192966         -2.4237         3.33808
LJ          0.125172        -5.88423        -2.22832
LJ           4.64618        0.270869       0.0650536
LJ           3.33156          3.5309        -2.97968
