108
#Comment!
LJ           1.71915         1.09185         2.00635
LJ           4.96306       -0.494239         3.42281
LJ           6.09569         2.57631        0.634569
LJ           2.13844        -5.58824         2.51694
LJ           4.77733         3.08197           1.423
LJ         -0.206674        -2.40104         2.03626
LJ          -6.30668         1.88049        -3.38119
LJ          -5.45232      -0.0855901       0.0196089
LJ           5.95791         4.61511         2.23682
LJ          -4.44275         3.94974        -4.06916
LJ          -4.11892        -1.82375        -5.41096
LJ         -0.779464         1.39861        -3.08777
LJ           3.10631          1.2147         0.98004
LJ          -3.92698        -6.25742       -0.668255
LJ          -1.10644        -5.49547        -5.57043
LJ          -3.07462        -0.55166        -6.43031
LJ           4.03829         2.69438        -1.11968
LJ           5.44829       -0.629483        0.718347
LJ           4.56863          2.0067         6.43162
LJ          -4.30368         1.42466         3.37248
LJ           4.02533         6.24599        -2.86823
LJ           5.57026        -1.00858        -1.14162
LJ          -4.65974        -2.16062          4.7556
LJ          -3.93476         4.16991         -2.9441
LJ            3.3436         1.38044         -1.6263
LJ           2.42107       -0.033315        -5.69607
LJ           -5.8763        0.477819        -1.55815
LJ           -3.0053        0.256323        -3.15614
LJ         -0.861972      -0.0670446        -3.83473
LJ           1.66561      -0.0733065         4.01801
LJ            -4.124         3.01961         4.39573
LJ          -1.89301          1.8883        -2.91189
LJ          -4.76071        -3.27481         5.03426
LJ           2.40367        -2.51404        -3.27594
LJ           1.63169        -3.25229         6.20641
LJ          -4.48215         1.86142         5.31342
LJ          0.954962        -2.61494        -3.21365
LJ             -1.26        -6.03354         -2.7344
LJ         -0.393266         3.53569         3.44473
LJ           -4.9502        -4.35543        -1.90132
LJ           4.00022        -5.34138        -5.13495
LJ         -0.242402        -5.88646        -2.09863
LJ          0.771428         4.40699        -3.86391
LJ           -5.4532         3.67549        -4.10578
LJ           -3.7038        -1.57376         6.43902
LJ          0.609504         -2.2841         5.37133
LJ          -4.39528         -5.2121        -0.84342
LJ           4.21579        -5.19835         2.13845
LJ          -4.17107        0.531613         2.06353
LJ           5.32988        -3.23407        -2.12906
LJ          -2.90613          -2.585        -5.09361
LJ          -5.87626         2.55424        -4.40088
LJ          -1.93369        -6.19728        -3.59458
LJ           2.98077        -3.98575        -2.39506
LJ          0.783092          -4.638         2.72787
LJ          -5.98717         5.77015        -2.21452
LJ           3.52366         4.83892        -3.28911
LJ          -3.54897        -4.14744        -4.94519
LJ            3.3842         4.62846         3.15601
LJ           -2.4503        0.346081        -4.23608
LJ          -3.97969         3.18535         5.94101
LJ           2.83097        -3.36412         3.89404
LJ            5.1592         3.73325         3.43381
LJ           -5.2081         2.75063        -1.58654
LJ           4.31164         2.04132        0.557454
LJ           1.68604         4.83718         4.14654
LJ           2.84424         2.36442         0.45124
LJ          -2.85972        -4.95033         -4.2904
LJ           4.62397       -0.364499         2.29498
LJ           -3.0996        -6.46032        -2.53394
LJ          -3.01182         2.59941         2.11427
LJ           4.83875       -0.743613         5.74372
LJ          -3.60818        -1.45387         4.47959
LJ           6.29652         4.98114         5.78087
LJ          -2.55988        0.847905        -1.82097
LJ          -5.96184         2.06603         4.14495
LJ           4.29766         3.63418        -1.62389
LJ           1.36078         3.81451        -4.89248
LJ          -2.54452         1.04997        0.307229
LJ          -3.37344        -4.84792        -2.42634
LJ          -4.64228         5.26655         2.23568
LJ          -4.00256        -5.43161         5.65212
LJ          -5.10629         -4.0252       -0.269318
LJ           2.90086        -5.87474        -2.54866
LJ           4.89169        0.574898        0.175949
LJ            4.3821         -3.9026        -5.76773
LJ           2.20444         6.11777         3.19655
LJ           5.72694        -1.15499          2.0046
LJ           6.13707         3.80786        -1.56253
LJ          -1.83246        -2.02107        -4.92761
LJ          -1.31483         1.71905         2.25795
LJ         -0.720405        -2.21579        0.216322
LJ           2.53976         4.31732         2.43044
LJ          -1.51455           2.012        0.959318
LJ           1.84247         5.11605          5.5196
LJ          -4.19929        -6.16661         0.33006
LJ            3.6996         1.93662         1.66091
LJ          -5.67695        -1.01497       -0.437183
LJ           2.13533        -2.11728        -4.20824
LJ          -6.00847        -5.56309         2.91592
LJ          -2.97477         6.34073        -4.03449
LJ           1.99076        -5.26356         4.73961
LJ          -6.23063        -2.65309         2.43017
LJ         -0.218575        0.368972         2.55427
LJ          -4.78098         1.88417        0.971427
LJ           5.74559        -5.42317        -1.89889
LJ          -3.84404          -2.416        -4.30131
LJ          -1.32866          4.1478         6.13509
