108
#Comment!
LJ          0.949427        -3.51708        -1.14749
LJ          -2.86684       -0.317993        -1.36304
LJ          -3.80247        -5.15893         4.34797
LJ          -5.26989        -5.39564        -5.71363
LJ          -2.75531        -6.20277        -3.82027
LJ          -4.41954        -1.51401          3.9883
LJ          -5.77451        -3.17023        -4.05428
LJ           2.98278          3.7927        0.243781
LJ         -0.269932       -0.450774         1.37341
LJ           2.27264         3.03657         1.30668
LJ          -1.22274        -3.14689         5.25468
LJ           5.04821       -0.853058         2.99045
LJ           6.32972         5.56843         2.16147
LJ          -2.95997        -1.42285         -6.4611
LJ          -3.82066         4.67807           2.939
LJ          -6.05983        -1.33078         6.26866
LJ          0.137125        -4.63111        0.304033
LJ           2.69626         1.90761         1.34853
LJ           4.14233        -4.33605         1.70456
LJ           6.27232        -4.94517        -3.59528
LJ          -1.06086         3.27786         -5.8513
LJ           1.20975       -0.583459         0.38134
LJ          -2.78984        0.280686       -0.223407
LJ          -4.97011      -0.0634546        -5.18069
LJ          0.765774        0.232947        -1.06697
LJ           6.14107        0.490145           2.224
LJ            2.6797        0.974785       -0.510443
LJ          -3.18604        -1.45763        -4.32143
LJ         -0.286049        0.686878        -3.54167
LJ           4.86291         3.49449        -5.59129
LJ          0.756845        -3.23648       -0.145207
LJ          -2.11895         3.82678         5.44348
LJ           4.31921         5.57782         -6.3228
LJ           4.04466        -4.90086         5.08311
LJ         -0.874768         4.00477          4.5386
LJ           3.25491         1.33183         5.46987
LJ         -0.781384       -0.354077        -2.70646
LJ          -4.63211       -0.228889        0.510719
LJ          -3.46047         6.31102        -2.83333
LJ           2.81414          3.2857         2.70208
LJ          -3.79374         4.20361        -5.99021
LJ           1.24058        -6.40838        -4.22527
LJ          -3.46211        -2.46196        -6.09781
LJ           1.82833          2.4046         2.20439
LJ           3.66445         1.25905        -1.93408
LJ           1.72895         5.51632         5.23768
LJ           3.01989        -3.24839       -0.137799
LJ          -1.41929        -6.24916        -2.07002
LJ           1.58749         4.27935        -1.08777
LJ          0.389702        -6.00968         5.28915
LJ           2.70307         3.86095        -4.83094
LJ         -0.758734        -3.56887         6.32434
LJ          -5.78067        -0.15779        -1.61365
LJ          -3.45044        -1.00916        -5.24297
LJ            -1.282        0.941194         -5.6074
LJ          -1.31238          2.0839         5.60387
LJ          -1.59879         2.65284        -4.20633
LJ          -5.03225         1.90235         5.54363
LJ          -3.67602         4.11049         4.49459
LJ           -3.8409         5.71976       -0.229194
LJ          -1.98975        -2.61683         1.86129
LJ           3.51152        -2.53337        -3.29576
LJ           5.12293        -6.30046         6.41558
LJ          -3.94238       -0.526483         5.36227
LJ          -3.86929       -0.467102         4.16599
LJ          -2.08194        -1.14254        -1.00713
LJ         -0.131199        -1.97014         2.07115
LJ          -1.88238        0.910697        0.402924
LJ          -3.00578        -1.25106        0.960128
LJ         -0.790182         6.06284        0.950295
LJ          -4.79802         4.35033         4.50151
LJ           4.28263         2.60873        -4.18144
LJ           1.95936         4.59534         2.42978
LJ           2.21364        -5.55339        -4.67072
LJ           5.79211        -5.58951         0.36869
LJ           1.02202         5.28299        -6.16984
LJ          -4.90548         6.30863        -4.79057
LJ         -0.932449         5.85393       -0.501423
LJ         0.0677606         2.28772         2.58854
LJ           1.84091        -6.32776        0.186084
LJ           1.61963        -3.99482        -1.86961
LJ          -4.59808        -4.39906        -2.91281
LJ          -4.46256         4.95896        -1.41394
LJ          0.537919        0.866887        -1.89077
LJ         -0.387605        -1.85452         3.28778
LJ          -3.92571           1.954        -1.00136
LJ          -2.95148         2.11703        -5.79421
LJ           1.76092         4.01592          5.8757
LJ           4.56161       -0.945773        -2.42329
LJ          -6.28666         6.45701        -4.99172
LJ           4.48146         0.89396          5.1905
LJ           1.49457        -2.29185          1.0233
LJ          -6.31502         5.52629        -1.76535
LJ          -5.31034         1.44559        -4.31187
LJ          -6.34934         3.27361        -4.67706
LJ           3.59258       -0.695253         1.21987
LJ          -6.27873        -3.31626        -5.73335
LJ          -3.64239         5.04845        -3.78574
LJ          -3.23082        -5.39322        -2.06286
LJ          -3.93786        -2.61389         2.04747
LJ           -2.1417         4.25456        -3.85753
LJ            5.1241         3.90661         6.35255
LJ          -3.51126        -0.54983        -6.22359
LJ           5.45737         1.95851         4.41075
LJ          -3.00127         5.54119         1.67649
LJ         -0.894703        -5.66126        -1.03306
LJ         -0.183589        -3.06124        0.577086
LJ           4.07254         5.53044        -3.43607
