108
#Comment!
LJ          -2.96716         5.62294         6.09071
LJ         -0.902773          4.8594       -0.606299
LJ          -4.38187           2.149          2.9987
LJ         -0.901907        0.209933         1.00631
LJ            -5.088       -0.079136       -0.469855
LJ          -4.82831         1.24784         5.00515
LJ           1.66491        -6.44185         -5.7755
LJ           6.38606        0.992555        -1.70053
LJ           5.62524        -5.82817         1.86515
LJ          -5.61061         3.73382         4.45909
LJ           6.45123       -0.634645        -1.62639
LJ           3.06301        -1.89871        -4.52999
LJ          -2.85819      -0.0444675         6.04028
LJ           1.66067         0.88177          4.2785
LJ           2.76126          3.7935        -5.71935
LJ          -5.80194         5.88671         1.34164
LJ          -4.83768         1.32092        -3.30519
LJ          -3.23039          5.8448        -1.09226
LJ          -1.73001         2.10227         2.07434
LJ          -3.25922         4.10352        -1.71422
LJ         -0.661386         4.55004        -6.06892
LJ         -0.462688         3.49488         3.12723
LJ           4.25866        -4.15048        0.499244
LJ          -2.40207        -3.87981         6.14489
LJ          -6.44086        -3.45457         2.26562
LJ           -1.6687        -1.37191        -3.68221
LJ           4.58889         6.30037        -2.02056
LJ          -2.18111         4.68277         5.31024
LJ           4.74993          5.1694       -0.405883
LJ         -0.683262        -2.41802        0.585115
LJ           4.66304        -2.74202        -3.15231
LJ           2.48599        0.494939       -0.921149
LJ          -5.08143        0.258363        -3.18027
LJ           2.66662        -6.16747        -4.82149
LJ           6.37332       -0.738206         1.88199
LJ          -2.37367         5.41618         -0.9161
LJ          -3.22096          4.1327         4.70575
LJ           3.87537         4.90751        -5.15825
LJ           2.33534         4.47019         3.25662
LJ          -1.65412        -5.86227        -5.05901
LJ           3.54607       -0.244315          2.7104
LJ          0.535216        -5.53938         3.45992
LJ           3.75192       -0.918591        -4.02709
LJ           5.14612       -0.817117        -4.85717
LJ          -3.13887        -3.71997         1.85037
LJ           4.83782         1.08217        0.358822
LJ          -4.33967         4.09484         1.42149
LJ          -5.34756        -5.80905        -1.68875
LJ           2.48043        -1.26926         2.16157
LJ           4.96469         4.06998        -3.55294
LJ           2.30947        -1.75591        -5.20969
LJ          -1.27786        -1.55811         4.02425
LJ          -3.48128         1.25192         1.26871
LJ          -5.46986         5.22258        0.445255
LJ          0.413134         4.38629         -3.2081
LJ           4.56605       -0.574699         2.75085
LJ           1.83492       -0.426434        0.324248
LJ           5.88852        -4.21735         1.83776
LJ           5.76462        -6.43005       0.0780316
LJ           2.62012         5.86751        -5.97048
LJ         -0.979338        -1.67145         -5.9161
LJ          -1.43685        -5.35287         5.58276
LJ          -3.58986         4.55694         1.00604
LJ         -0.706194        -5.06874        -3.09884
LJ          -1.60893         3.18771         1.50955
LJ           4.69355         -2.3419         -4.1814
LJ           6.18765         1.16678         5.88412
LJ           2.86417        -2.41536        -3.29752
LJ          -1.58738       -0.214072          3.2815
LJ         -0.403453       -0.500876         1.63047
LJ            2.8661         -5.6885        -2.61948
LJ            -5.915      -0.0318505        -2.37741
LJ            1.0494         4.73914        -4.06538
LJ         -0.325952         3.65828         4.19881
LJ           6.23184         5.03933        -1.42095
LJ           5.90247        0.550412        -2.53033
LJ          -1.59676        -3.95547        -2.68893
LJ          -6.43323         5.60358        -6.23063
LJ          -0.13995         3.08287          -4.212
LJ          -2.89178         -1.2057         1.07443
LJ             3.163       -0.863249        -5.74853
LJ          -2.03334        -2.05515        -5.41488
LJ           3.64341        -5.03094        -3.22512
LJ          -1.95167       -0.842694         2.18345
LJ         -0.488083        -4.18079        0.722793
LJ           -3.1193        -1.96035         1.78416
LJ            4.6009         0.62597         -6.3035
LJ           1.55607       0.0583732         6.33102
LJ          -5.39211        -1.83356        -4.87197
LJ          -5.94707        -6.06937         1.62465
LJ         -0.142098        -1.62719         1.05551
LJ         -0.707824        0.736962         1.90426
LJ          -3.43923         6.41893         6.45715
LJ          0.891416         6.43255         -3.4541
LJ           -3.5629        0.322016          0.7849
LJ          -4.43519         4.12715        -1.14822
LJ          -2.03496       -0.609125        -1.57912
LJ           2.86967        -6.40964         6.03086
LJ           -3.9277         6.30663        0.138505
LJ           4.76759         2.90299        -4.87259
LJ         -0.166396         1.74683         3.20912
LJ          -1.73941         6.08092         4.86594
LJ           1.20898        -3.16945        -4.74329
LJ         -0.843784        -5.76292        -6.32635
LJ           -1.7649        0.389437        -4.20303
LJ           2.42563         -3.4472         4.56379
LJ           2.16737         6.09929        -4.11104
LJ           2.69947        -2.81779         5.31213
