108
#Comment!
LJ            5.9682        -0.63278        -6.33284
LJ         -0.958921         3.25428        -6.18683
LJ          -5.43292         1.94729         3.81879
LJ          -1.26863          4.0014         2.34924
LJ            5.2164         3.19644        -1.96503
LJ             5.234         2.70591         -1.0799
LJ           1.38011         3.60762        -6.22534
LJ           3.03628         4.10352         5.65102
LJ           2.38093        -3.03848         2.07796
LJ          -2.34132         2.82988          1.7488
LJ           5.50575         1.65023        -3.08337
LJ         -0.280961         1.67516        -4.54615
LJ           -1.4577         2.41623        -6.45861
LJ           5.49288         2.95342        -6.30761
LJ           0.50761         3.54723         6.12392
LJ          -3.94565          3.1549       -0.986707
LJ         -0.274031       -0.457834        -2.49051
LJ          -2.28298        -4.34285        -1.04157
LJ          -5.30098       -0.925356         4.94787
LJ          -2.22858         4.44758        -1.82709
LJ           1.57117         4.27603         5.69038
LJ        -0.0634217         2.36048         2.51411
LJ           3.71488        -3.90118         2.49334
LJ          -5.00097        -4.26632        -1.01035
LJ          -5.38292       -0.333691         2.11221
LJ          -3.11819         5.87377         6.03634
LJ           3.65322        -3.77066        -3.29121
LJ          -3.57834         5.74905         0.91493
LJ          -5.71079        -5.83132       -0.505608
LJ          0.515209        -2.65466       -0.452022
LJ           2.99785         -5.1277        -1.22042
LJ           1.08484         1.20825        0.552113
LJ          -1.31759        -2.72379        -4.20574
LJ         -0.577819        -2.56899        -3.18747
LJ          -5.59567       -0.776991        -1.83216
LJ          -1.53361         4.18988        0.608632
LJ          -2.92254          1.7746         4.99922
LJ         -0.870624        -4.04878          5.0744
LJ             1.771          6.0561          3.0737
LJ          0.671282         5.13273         5.13053
LJ           4.80443        0.145343         1.50591
LJ          0.347394          6.1548         4.25095
LJ          -5.65836        0.655162       -0.430076
LJ           3.52439        -5.23549       -0.295027
LJ            -2.967          5.7264        -3.77602
LJ           4.38287        -3.29807        -1.16932
LJ           2.89873         1.94816         2.89756
LJ          -3.51346        -6.14165        -1.74938
LJ          -6.19292        0.207364         1.73006
LJ          -6.36912           0.967         -2.4799
LJ           3.17811         1.23417        -2.57387
LJ           4.81703        -2.78041         4.49106
LJ           -5.5803         1.67177        -1.65412
LJ          -4.99329         3.02405       -0.232264
LJ          -3.08525       -0.792389         3.03174
LJ           3.57045      -0.0623741         0.95033
LJ         -0.347058        0.734875         1.64383
LJ           5.12693         5.81654         5.79854
LJ          -3.51489         2.86246        0.688003
LJ           2.05025         1.12523         4.02323
LJ         -0.271186         5.35989        -3.67881
LJ          -3.29215         2.32469       -0.164591
LJ          -1.36356         1.61341        -1.81561
LJ         -0.168472        -3.93764        -1.55117
LJ          -1.09872        -4.87571         2.53341
LJ          -6.08549        -5.30956        -6.22832
LJ          -4.33269         1.65681         3.46032
LJ            1.7601        -4.62052        -3.21337
LJ         -0.145153        -5.43368         4.09641
LJ           1.86591         -1.7401        0.653626
LJ          -5.96719         4.79623         5.74982
LJ           5.52202         2.67769        -3.44137
LJ           1.79328        -6.37778        -2.10033
LJ           1.08187        0.836807        -6.31212
LJ          0.556966         -5.8871        -2.67352
LJ           5.91716        -2.35507        -2.43673
LJ         0.0797133        -5.05686        -1.27346
LJ           1.70917        -5.80746         1.78933
LJ        0.00570931         2.70693        -4.56785
LJ           5.83581        -4.85577        -2.44983
LJ           3.04348        -4.85356        -4.76721
LJ         -0.232326        0.387194        -6.23063
LJ           4.64896       -0.860058       -0.154298
LJ           3.03233         -4.3136         4.12222
LJ          -2.53745        -6.21805         -1.5194
LJ          0.566374        -0.19296         0.93143
LJ          -4.41737        -1.15911        -1.71751
LJ           2.31705        0.501649         6.29451
LJ            6.1659        -4.15945        -4.85406
LJ           2.29949        -2.60774        0.876356
LJ          -1.70499         -2.4869          3.3649
LJ          -0.63619       0.0502702          5.1566
LJ          -3.67555        -3.59062         5.83766
LJ           4.18199        -6.24945        -4.87262
LJ          -3.09635       -0.945308         1.24947
LJ          -1.65414         5.54205        -1.84999
LJ           1.89426        0.606057       0.0543267
LJ            3.2219          5.7395        -6.29648
LJ          -2.79929        -4.18517        -3.50872
LJ           6.33707        -6.37058        -1.99367
LJ          0.105481         1.67137        -6.32511
LJ          -2.53257         5.70401        0.708689
LJ          -1.19047         6.08329        -2.82982
LJ          -1.78258        -5.06841        -5.25784
LJ          -2.54435         4.25934          6.4217
LJ          0.159898         -2.6739         2.79576
LJ           2.75168          1.5454         4.86685
LJ          -3.52405        0.992699        -4.60102
