108
#Comment!
LJ           4.98938        -3.90344         5.35322
LJ          -5.56072         6.28107         -4.2338
LJ          -1.56747        0.974481         1.90043
LJ           2.87252        -1.31824         3.59434
LJ           3.36593        -2.45891        0.586604
LJ          -1.50681        0.268581         2.97091
LJ          -4.51175         -5.1745        -3.90692
LJ           5.41585         5.27612           6.064
LJ          -2.52028         3.20506          3.6894
LJ           1.55012         6.37844        -5.83024
LJ          -5.52216         1.81545         -5.3643
LJ           -2.0287         -3.2284        -5.19593
LJ           2.35112         4.90458        -4.20504
LJ          -2.25882         -3.3223         1.18141
LJ          0.963139        0.724423         1.44477
LJ           6.29876         3.41716         3.86992
LJ          0.743583         2.78055         -1.5173
LJ          -2.89796        -3.04193         6.44526
LJ          -1.37096         1.54678          3.6203
LJ           2.75145         2.04587         1.95068
LJ           2.30505         4.50515       -0.282582
LJ           0.61651         1.75413        -5.78082
LJ           6.17225        -4.58851          6.3142
LJ           1.90573         -3.1785         1.83339
LJ          -2.39014         5.87493         5.01759
LJ           2.37457         3.24387        0.624768
LJ          -6.28758       -0.742879         5.31247
LJ          -2.06607         6.25579       -0.792615
LJ          -2.70938         5.48111        -1.07085
LJ          0.157563        -6.07263        -2.16878
LJ           1.58245         2.18907         0.99487
LJ          -5.52898         6.33759         2.48282
LJ          -2.10405        -6.16132        0.284402
LJ          -3.10746        -4.87225        -5.29267
LJ          0.359376         5.52617        -3.59663
LJ           2.51619         5.87562         2.39194
LJ           2.90374         6.45236        -5.36207
LJ          -0.70672        -2.01895         1.52555
LJ          -3.63144        -4.00906        -6.12923
LJ           -5.0469        -1.13501         4.75317
LJ            0.4369       -0.839082        -1.41156
LJ           3.38389        -3.43218        0.654235
LJ          -6.34264         4.99652        -4.70331
LJ         -0.370987        -6.45236        0.855765
LJ          -1.59263         2.14299        -6.18478
LJ           1.60316       -0.183536        0.633745
LJ           3.33318        -2.95657         2.90672
LJ          -1.66422        -6.02777         4.44387
LJ           1.14132        -5.39278        -5.49528
LJ           1.64884           4.963        -2.20884
LJ          -2.44252        -4.49507        -3.84026
LJ           5.04988        -1.95686         0.38142
LJ          -2.98978        -2.29219          2.4601
LJ          -0.60619         4.53701        0.648474
LJ           5.97432        -3.90986          -5.406
LJ           1.47377        -3.47746         6.21301
LJ          -6.27639        -3.12502        -2.54012
LJ         -0.335935        -3.42391        -4.26068
LJ          -4.92894         5.99103         -3.4808
LJ          -3.99004        -1.89391        -4.63715
LJ          -4.46101        0.173479        0.281332
LJ           1.61905        0.133429         -4.3313
LJ          -5.56272        -4.85785         -5.7453
LJ          -1.09272       -0.963174        -6.36684
LJ           6.01327        0.722876        -4.43383
LJ          -4.16173         5.09435        -2.74663
LJ         -0.313604         5.15598       -0.267881
LJ            3.8332        -6.32056        -6.15516
LJ           5.78094       -0.128478        -5.58876
LJ           1.32501          1.7795        -4.63417
LJ         -0.265887        -1.13872         4.36933
LJ         -0.202948        0.352891         3.20957
LJ          -4.53284        -5.61016        -5.22688
LJ           2.86789          2.5303        0.229786
LJ         -0.169356        0.283372        -5.63715
LJ            5.4134         4.34502         3.49864
LJ           -2.9812        -4.43828        -1.16468
LJ          -4.90701         4.95076        -5.94088
LJ           2.74606         3.14768        -3.52248
LJ          0.279408        -3.72585        -3.15554
LJ          0.606799        -4.40087        -3.93128
LJ          -1.34663         1.79079         5.49237
LJ           1.65997        -4.26497         2.14594
LJ          -4.41064        -1.42173         2.28861
LJ           4.62979         1.45242         -1.2166
LJ         -0.746454         1.11056        -6.24596
LJ           4.31454        -4.27489         6.17222
LJ          -5.43265        -5.70336        -3.57461
LJ          -5.94157         1.20471        -6.13813
LJ           3.39569         -6.1926        -2.65843
LJ          0.666846        -3.98486         1.79551
LJ           2.15762        -3.02881        0.174488
LJ           5.29834        -4.90393         6.02094
LJ           1.15225          1.0258        -5.46784
LJ          -3.63641        0.273626        -2.76498
LJ          -3.65612        -4.54232         4.50246
LJ          -3.32891         5.60576        -2.08977
LJ          -4.53067         -3.4262         3.61083
LJ          -5.12128        -3.00045        -4.71855
LJ           3.73574         1.50373         1.43714
LJ          -5.56683        -1.39262        0.842833
LJ          -2.52185        0.868041         5.85182
LJ         -0.676119       -0.912316        -1.81427
LJ          -1.70616         2.14686         2.29798
LJ           5.65759      0.00509841         5.95402
LJ          0.584873         5.17397         1.66942
LJ          -4.55799         1.65357         2.70051
LJ           4.40063          -3.901        -5.68282
