108
#Comment!
LJ           5.20896        -3.55704         5.11671
LJ          -6.30729        -6.13246        -4.67694
LJ          -1.16249        0.383914         1.93485
LJ           2.40407       -0.871301         3.47846
LJ           3.20548        -1.50261         2.15753
LJ          -1.74258       0.0897853         3.06241
LJ          -3.88354        -5.49665        -3.93982
LJ           4.98118         5.40234         -5.6564
LJ          -2.19073         3.28151         4.08519
LJ           1.43343        -6.02812        -6.09813
LJ          -5.43133         2.20045        -5.24943
LJ          -1.19052        -3.28017         -5.3632
LJ           2.36231         4.87901        -4.42188
LJ          -1.10375        -3.35611         1.17859
LJ          0.257618         0.97419         1.37796
LJ          -6.32369          3.6084         4.14431
LJ          0.163851         3.11574        -2.46747
LJ          -2.14306        -3.23275        -6.16746
LJ          -1.05163        0.885064         3.66875
LJ           3.30692         2.49868          2.9422
LJ           2.72448         4.63203        0.429138
LJ          0.218203         2.27846        -5.64943
LJ          -6.23198        -4.41374        -5.63411
LJ          0.935186        -3.50528         2.47762
LJ          -1.77354         5.63871         5.16917
LJ            1.7702         3.52839       0.0136557
LJ          -5.81613        -1.89161         5.69737
LJ          -1.82176         5.82411       -0.883687
LJ          -3.54841         5.53595        -1.25656
LJ         -0.669423         -5.3295        -2.01185
LJ          0.876025         2.49607        0.160158
LJ          -5.34701         6.17184         2.92028
LJ          -2.32415        -5.99415        0.403667
LJ          -3.76017         -4.4459        -5.85209
LJ           1.01119         4.91688        -3.01302
LJ           2.83243         5.76931         2.48956
LJ           2.88638         6.09432        -4.87183
LJ         -0.161739        -3.26409         1.71905
LJ          -3.21035        -3.49222          6.3965
LJ          -4.97605        -1.62817          3.7795
LJ          0.153626        -2.05685       -0.544686
LJ           2.68194        -4.01165         1.08409
LJ          -6.33408         4.28935        -4.79347
LJ         -0.583681         5.86586         1.32201
LJ          -1.93422         2.42461        -6.29177
LJ          0.251541        0.124008        0.760211
LJ           3.34929        -3.27257         1.86971
LJ          -2.51325        -6.27078         4.87445
LJ           0.99184        -4.33753        -5.09845
LJ           2.23025          5.0918          -3.342
LJ          -2.18994        -4.00658        -3.96065
LJ            4.8375        -1.47072        0.985215
LJ          -3.19052        -1.88534         2.81556
LJ          -1.20441         4.75026        0.655851
LJ           5.31487        -4.73804        -5.42797
LJ          0.311748         -2.4381         5.10843
LJ           6.02102         -1.9625         -2.7718
LJ         -0.773431        -3.51731        -4.44546
LJ          -4.54037         5.26062        -4.44636
LJ          -3.82148       -0.724167        -4.82181
LJ          -4.30694       -0.273564         1.64901
LJ           1.00606         0.90083        -4.64134
LJ          -4.86054        -5.51573        -6.22493
LJ          -1.42302       -0.937107        -5.90403
LJ           6.11289       -0.577627        -4.64001
LJ          -3.43901          5.3283        -3.84935
LJ          0.985219         4.53587        0.164908
LJ           3.04714         5.66853         -6.2058
LJ           5.66266       -0.555739        -6.04421
LJ           2.10293         1.20226        -5.08657
LJ         -0.103076       -0.916566         4.81406
LJ         -0.532106        0.681751         2.65511
LJ          -4.41201        -5.30869        -4.98692
LJ            4.0547         2.44073       -0.728743
LJ           1.01065        0.301716        -6.18631
LJ           5.47721         4.21428         3.93818
LJ          -3.33899        -4.73451        -1.51954
LJ          -5.07931         4.95377        -5.69262
LJ           3.24894         3.02652        -3.03188
LJ          -1.38528        -4.04308        -3.47429
LJ          0.400079        -3.65815        -4.34165
LJ         -0.539931         1.46885         5.65717
LJ           1.43532         -4.5298         2.37266
LJ          -4.24574        -2.20104         2.89708
LJ           4.73075        0.990557        -1.80594
LJ         -0.289725       -0.066795         6.06379
LJ           3.80166        -4.36032         5.67783
LJ          -6.26659        -5.85827        -3.21988
LJ            6.0899         1.90362        -5.70291
LJ           3.73794        -6.11663        -3.26257
LJ           1.10674        -3.84743         1.10975
LJ           1.74966        -2.31626        0.439367
LJ           5.35348         -4.6879         5.71406
LJ           2.31814        0.495425        -6.40023
LJ          -3.05524        0.204926        -3.16845
LJ          -3.87954        -3.29674         4.49157
LJ          -4.10271        -6.39048        -1.75175
LJ          -4.55729        -3.40734         3.54426
LJ          -5.41964        -4.13619        -5.12592
LJ           4.06681         1.60573         2.21885
LJ          -4.73249       -0.747258        0.734573
LJ          -1.84798        0.982001         -6.1592
LJ         -0.575342        -0.67281        -1.04582
LJ          -1.59054         2.12472         2.30919
LJ           5.76791       -0.141445         5.94497
LJ          0.590809         5.46198         1.49282
LJ          -4.54484         2.23404         2.26919
LJ           4.88889        -3.64311        -5.10089
