108
#Comment!
LJ          -5.82382          5.0365         1.11604
LJ         -0.918591         3.61512        -5.64828
LJ          -3.09387        -6.25429         2.09301
LJ          -6.33276        -5.40796          3.9441
LJ          -3.52228        -4.70932         1.08323
LJ          -1.39713        0.724993        -5.72999
LJ            3.6191        -3.82624        -2.29778
LJ           6.45914       0.0541733         6.14048
LJ           1.42324         4.65979         2.07468
LJ           6.01933         4.09781        -5.11198
LJ          -5.33784        -6.14282        -1.67097
LJ          -4.62742        -4.42838         5.94611
LJ          -1.02805         1.16169         3.10253
LJ          -1.35043         1.07368        -2.53243
LJ           3.16631        -2.12785       -0.851234
LJ           3.22285         3.99791       -0.031092
LJ           3.50646        -5.31049        -1.38213
LJ           4.46472        -5.35673         5.65679
LJ          -1.27737        -5.80894         1.60752
LJ           1.70831         1.60898         1.12795
LJ          -4.11387         1.50435         1.17292
LJ          -3.57301        -4.78791         4.01342
LJ          -3.33005        -5.33271        -3.91389
LJ          -6.31253         3.15207        -2.38784
LJ        -0.0315335         6.26242         5.22727
LJ           2.86961       0.0623335        -5.41202
LJ           6.28178       -0.466887        -2.46649
LJ          -5.55029        -1.19011        -3.17364
LJ          -2.18328        -3.69711        0.298836
LJ           5.98292        0.610189        -1.88874
LJ          -5.17955        -6.25607        -6.03747
LJ           6.29718        -4.04907        -1.50489
LJ            6.3752            1.89       -0.855484
LJ           4.44487         -3.3211        -2.87097
LJ          -4.14915          2.4637         3.98231
LJ         -0.569346         5.30615        -2.27898
LJ           3.58168         6.16789        -5.96479
LJ          -2.76131         4.72808         3.04286
LJ            1.1288        -1.40005         3.74898
LJ          -1.17187         5.47758       -0.199656
LJ           3.01367        -4.22803           4.846
LJ           5.54671        -2.91985        0.994245
LJ          -0.19006         1.75014        -2.34497
LJ           5.03115         5.35218        -1.84299
LJ           3.88672         4.45715         6.27906
LJ          0.780849           1.368        0.501092
LJ          -1.39589       -0.506704        -3.73542
LJ           4.02549        -4.55494        -3.56258
LJ           1.70992        -4.04454         4.46402
LJ           5.34645        -4.76262          6.0519
LJ           4.36171        -5.35082        -5.00207
LJ           4.52678         3.48699         1.53969
LJ           1.37748         5.23611        0.038236
LJ          -1.74845         4.31229        -2.93076
LJ           5.55936       -0.469211         -3.7424
LJ          0.634912         3.91844         4.27506
LJ         -0.938004         5.79371        -4.15917
LJ           4.20546        -5.97318       -0.958615
LJ        0.00423609        -5.38261        -4.80758
LJ            5.1357        -3.36339        -1.06341
LJ          -2.14868         3.13563        -3.22112
LJ           4.07753         2.23332        -3.98082
LJ          -6.29338        -4.59309         6.15405
LJ         -0.746571        -1.57805        -5.14115
LJ         -0.248964        -2.84594         1.10711
LJ           2.49664        -1.29798        -4.11048
LJ          -3.91946        -6.21291         2.80168
LJ         -0.462719         6.03489         3.35369
LJ           2.36969         3.64827        -5.21004
LJ          -3.41176         2.30142         1.95893
LJ          -1.75795        -1.39237        -4.46683
LJ           5.32421       -0.525074         0.95356
LJ          -5.37917          0.3393        -2.02806
LJ          -2.87209        -4.37635        -3.17951
LJ           2.81469        -6.27785        0.775524
LJ           1.24027         3.97198        0.547712
LJ            1.1868        -5.52134         5.83014
LJ          -4.27305         5.47808        -5.44036
LJ           2.43943        -4.23949        -3.93717
LJ            2.5948         5.85352         -2.2018
LJ           3.19457         5.63537        -1.17239
LJ          -2.34811       -0.401964         5.11841
LJ          0.651384        -1.44547         -6.3318
LJ          -3.97702         3.44295         4.62804
LJ           5.98068         5.73849        -4.12796
LJ           5.02957       -0.158256          2.5573
LJ          -3.60864         2.37007       0.0588312
LJ           1.25356         1.44912        -5.69434
LJ          -5.05212         1.91757        0.594303
LJ          -4.83787        -5.35277         4.19745
LJ           2.85043        -1.80925         3.61306
LJ           3.51342        -3.56232      -0.0295159
LJ           0.59031         5.65871         3.49875
LJ          -1.70235         5.27368        -1.89512
LJ          0.243117        -5.51816        -2.12504
LJ           6.14667         5.84212        -2.45881
LJ           4.12185        -2.17883        -3.01379
LJ          -2.76972        -4.89182        0.294318
LJ          -2.94835         3.10311       -0.541301
LJ          -0.68848         3.62699         4.73619
LJ           4.53899         4.80088         1.58134
LJ          -4.32714         4.21482         5.32449
LJ           4.10492         5.04683         3.31503
LJ           4.06667        -1.53367         6.35319
LJ           5.00836          5.9383         3.84662
LJ           -1.6579         4.06309        -4.46212
LJ          -3.51501        -1.51152       0.0932037
LJ           3.48737         -5.3312        -3.92092
