108
#Comment!
LJ            5.3195        -3.33663         4.99453
LJ           5.81885         -5.5964        -4.88266
LJ          -1.23511       -0.380897         1.89603
LJ           1.71839       -0.432748         3.37174
LJ           3.15314        0.161185         3.42305
LJ          -1.58541        0.332455         2.86279
LJ          -3.04454        -5.91298         -4.1968
LJ           4.45349         5.57646        -4.29528
LJ          -1.80978         3.33813         4.50705
LJ           1.46913        -5.75725        -6.44919
LJ          -5.63114         2.60746        -5.21473
LJ         -0.296976        -3.23227        -5.74589
LJ           2.29687          4.6367        -5.05658
LJ         -0.617118        -3.77651         1.05745
LJ         -0.750271         1.34396         1.31059
LJ          -6.01247         3.75924         4.47481
LJ         -0.437542         3.52323        -3.51121
LJ          -1.68887        -3.50307          -6.044
LJ         -0.949459       -0.354798         3.93962
LJ           3.94836          2.8718         3.92753
LJ           3.30793         5.29906         1.15381
LJ          -0.16307         2.64057        -5.47428
LJ           5.52779        -4.45119        -5.27492
LJ          0.725754        -4.19628         3.89856
LJ          -1.25928         5.54111         5.29275
LJ           1.06975         3.08374       -0.844376
LJ          -5.29896        -3.13055         6.09284
LJ          -1.71879          5.3679       -0.853236
LJ          -4.42802         5.92671        -1.49167
LJ          -1.61639        -4.46634        -1.90615
LJ        -0.0414499         2.70065        -0.66146
LJ           -5.1477         5.98627         3.40569
LJ          -2.51036        -5.92159        0.403912
LJ          -4.45644        -4.23354        -6.17735
LJ           1.30873         4.23209        -2.48449
LJ           3.16636          5.6368         2.55553
LJ           2.74694          5.7396        -4.66665
LJ          0.734356        -4.43292         1.15636
LJ            -2.462        -2.56263          5.7941
LJ          -5.50002         -1.7685         4.00264
LJ         0.0610002         -3.1304        0.245053
LJ            1.9316        -4.51309         1.81105
LJ          -6.16883         3.57586        -4.98911
LJ         -0.372451         6.07684         2.19837
LJ          -2.20718          2.3913        -6.45166
LJ          -1.33239         0.31365        0.952635
LJ           3.19782        -4.36269         0.96769
LJ          -3.29699         6.22788         5.40114
LJ          0.986304        -3.13562         -4.7827
LJ           3.45093         5.27741        -3.50525
LJ          -3.42582        -3.39834        -5.17303
LJ           4.55574       -0.945553         1.67898
LJ          -3.41336        -1.42702          3.2723
LJ          -2.07209         4.10989        0.255113
LJ           4.94471         -5.4327         -5.5331
LJ          -1.14123        -1.42455         3.75582
LJ            5.3336       -0.671212        -3.05973
LJ          -1.00432        -3.94503        -3.97193
LJ           -3.8133         4.49892        -5.41304
LJ          -3.60587        0.569188        -4.99132
LJ           -4.2436       -0.815556         3.05269
LJ           0.58358         1.96407        -5.38418
LJ          -3.90415        -5.91976        -6.19179
LJ          -1.71875        -0.81214        -5.45393
LJ           6.23841        -1.86207        -4.71203
LJ           -3.1984         5.54269        -5.39159
LJ           2.33209         4.27813         1.02249
LJ           2.25894         4.82312         6.45431
LJ           5.48506        -1.38386        -6.13103
LJ           2.55204        0.337176        -5.70541
LJ          0.253368       -0.820478         4.55763
LJ         -0.146285         1.19006         2.61712
LJ            -4.436        -5.95067        -4.71183
LJ            5.3403         2.29186        -1.82067
LJ           2.37155        0.556676         6.20884
LJ           5.56915         4.12883         4.39019
LJ          -3.80803         -5.2127        -1.91311
LJ          -5.27773          4.9426        -5.14428
LJ           3.79774         2.90892         -2.4847
LJ          -1.43235        -4.47803        -2.90741
LJ         -0.544696        -2.52542         -4.7175
LJ          0.283426        0.915861          6.0723
LJ          0.948268        -4.35566         2.29308
LJ          -3.46856        -3.85827         2.53377
LJ           4.82705        0.528622        -2.42648
LJ           0.26296       -0.803946         6.37159
LJ           3.45307         -4.3249         5.13188
LJ            5.7895        -6.13599        -3.20902
LJ           5.37602          2.7217        -5.11335
LJ           4.08119        -6.10532        -3.99364
LJ           1.45121        -3.57598        0.861614
LJ           1.28171        -1.66969        0.811344
LJ           5.43389        -4.39804         5.50096
LJ           3.26006       -0.175517         5.68987
LJ          -2.43691        0.113998         -3.6598
LJ          -4.35777        -1.84645         4.15117
LJ          -4.66039        -5.43103        -1.25117
LJ          -4.30223         -3.0725         3.54435
LJ          -4.82696        -4.33775        -5.21048
LJ           4.39146         1.84977         3.16613
LJ          -3.75276       0.0173917        0.757824
LJ         -0.949976         1.38307        -5.24512
LJ         -0.438063       -0.489398      -0.0900595
LJ          -1.49717         2.13158         1.84907
LJ           5.97503       -0.107328          5.3707
LJ           0.46744         5.75355         1.09496
LJ           -4.5251         2.86591         1.79568
LJ           5.61267        -3.67974        -4.63178
