108
#Comment!
LJ         0.0914341          3.1316         1.50059
LJ           4.97803         1.74995        -6.21336
LJ           4.68545         1.00393         2.78318
LJ          0.697633         2.24797         2.46713
LJ             2.093      -0.0191103         2.74324
LJ           2.75565        -2.22644        0.613471
LJ          -3.25127         2.69561        -3.11881
LJ          -2.84898         3.00061        -1.91217
LJ           4.70041         4.86852         1.05327
LJ           -2.6686         4.44476        -2.38708
LJ           -3.0983         -2.5231        -5.25323
LJ          -2.22193         3.96197        -4.91522
LJ           2.10202         3.67824         3.80264
LJ            -1.119        -4.85168        -2.92367
LJ         -0.735764          5.2336        -2.74965
LJ          -3.52852        -4.68965         5.79582
LJ           2.13009        -0.81171        -1.39299
LJ           5.26607        0.373244         3.38098
LJ          -5.63438       -0.835752        -4.53079
LJ          -4.29421        0.021055         5.94726
LJ           6.04872        -5.55863        -6.03235
LJ         0.0174211        0.236398        -1.24055
LJ            5.2713        -2.27872         5.59312
LJ          -1.33073         2.48322        -3.15664
LJ           6.06643         1.12705        -3.59354
LJ           1.76054       -0.763124           5.575
LJ          -6.27734         2.26612        0.408641
LJ          -5.52668         1.87084        -4.14627
LJ          0.811334          1.6035         6.36974
LJ          0.574751        -1.00181          4.0493
LJ          -5.04029         1.60238         1.61123
LJ          -2.06368         5.41867        -1.20525
LJ           4.93739        -1.74631        -6.00588
LJ           2.45322        -4.27922        -1.44499
LJ           1.52055        -3.17244        -4.51956
LJ          -4.97771       -0.731301         5.63571
LJ           1.01051         6.18118        -1.20105
LJ          -1.78107        -6.36062         -4.8349
LJ          -1.33092          3.3705         2.81947
LJ          -4.85717        -4.97507        -2.63607
LJ            4.4932        -6.21539         5.96437
LJ         0.0964254        -5.23644         -2.6731
LJ          -3.66057         2.67664         6.37163
LJ          -3.82076         1.99476         -4.2571
LJ            -3.564        -1.91615         5.76788
LJ           2.64786        -2.16056         4.38776
LJ           4.37338        -6.05425         1.09969
LJ           4.72307        -4.94358         1.02132
LJ          -6.10234         2.30355         4.53936
LJ           5.39457        -6.13857         1.99939
LJ          -1.75788          -4.915        -5.66212
LJ          -3.72285         2.11108        -2.16578
LJ          -3.68498        -5.28167        -2.16927
LJ           3.60115        -3.91419         1.20799
LJ          0.897619        -4.48728         4.23146
LJ           5.03549        -5.15852         5.21855
LJ           2.44565        -6.19212        -2.26094
LJ          -3.53496        -3.94945        -5.88442
LJ           3.06503         4.02697         2.53291
LJ         -0.184391         3.40735        -2.84666
LJ          -2.99163         4.25748         5.48699
LJ           3.21876       -0.693148         2.90762
LJ           2.71568        0.794769         2.36833
LJ          -5.26734          5.8555       -0.503277
LJ           3.45441         3.48573         3.62209
LJ           3.50675          4.8048         4.26695
LJ           1.10457         1.58254         -3.0163
LJ          -4.03894        -3.13264         6.21251
LJ           4.60857        0.732594        -5.93657
LJ          -2.87646         5.84664        -5.54415
LJ           -3.5982         2.72254         2.68995
LJ           3.42274       -0.554597         4.97921
LJ          -4.29031        -1.02933         4.97732
LJ            4.6779         6.44547        -5.55907
LJ           -1.0917         4.12355        -2.98101
LJ          -4.29391         1.11132         2.36999
LJ           5.16723         5.51967         -1.7286
LJ          -2.53132         3.55997         6.14937
LJ          -2.32117         1.53043        -2.04804
LJ          -1.92003        -5.44376        -1.38754
LJ          -4.67584         4.68342        0.240453
LJ           -2.5225         4.91204         4.04999
LJ           -3.0886        -2.82109        -1.03944
LJ          0.829855         5.29402        -4.28451
LJ          -3.95367         2.34468       -0.322089
LJ            4.7046        -3.82411        -6.39698
LJ            4.3239        -6.13265         3.63484
LJ           5.92995        0.900085         4.13856
LJ           5.84499         4.25722        -2.59919
LJ           1.05619        0.488547         5.78532
LJ          -1.82347        -2.07321         4.01032
LJ          -1.80948        -3.33808      -0.0240441
LJ           2.11857         4.47674         1.65895
LJ          -3.19337         1.37449        -1.02382
LJ           2.85201         5.68366          4.1505
LJ          -5.67672         5.26692           3.004
LJ           2.22261         3.95152         5.16508
LJ          -3.70768        -1.49776        0.193584
LJ           4.00476        -2.48599        -4.52831
LJ          -4.64089        -5.02479         5.52158
LJ          -2.98366         5.02067         6.27308
LJ            2.4124        -2.68242         2.39609
LJ            4.6815         -3.7994        0.962922
LJ           2.37835      -0.0859646         3.87651
LJ          -4.77198         1.80249        0.480986
LJ          -3.93068        -5.97463        -3.39892
LJ          -3.69196       -0.994646        -2.58575
LJ         -0.134206         2.44524        -4.58103
