108
#Comment!
LJ           1.38126         6.27764       -0.342877
LJ          -1.85719        -1.20793        -1.33747
LJ          -2.14378         5.32053         4.14981
LJ           6.35885        -4.27254        -5.62078
LJ          -0.94818        -6.43668        -2.34542
LJ          -5.18093        0.318556         2.57279
LJ           5.64326        -2.69368        -4.38005
LJ           2.23271         2.84703       -0.512818
LJ          -2.77897        0.626623         3.40725
LJ          0.923617         2.26872        0.258137
LJ          0.259484        -3.97978        -5.18416
LJ          -5.65753         1.22821         3.40096
LJ          -4.24872         6.10566         3.03517
LJ          -5.53017        -1.02148         -6.0222
LJ          -3.19323        -6.29034         2.81479
LJ           5.35882         0.29068         6.33683
LJ           1.00423        -1.40793        0.397082
LJ           2.93484          2.0038        0.967469
LJ           4.26152         3.89791        -1.12296
LJ           6.27885        -3.39479        -4.89465
LJ           -2.7322           5.688        -6.37756
LJ           1.35914        -1.94852        -1.94225
LJ          -3.84095        -1.78102       -0.763329
LJ          -5.57693       -0.565103        -3.88903
LJ         -0.422877         1.29196         1.57082
LJ           6.26284         2.75453          3.6451
LJ           2.78411         1.16835       -0.158233
LJ          -2.17487        -3.13095        -6.08632
LJ          -1.79462        -2.76451        -4.74938
LJ           5.67266         4.54196        -2.97955
LJ         -0.270192        -1.90924        0.703759
LJ          -3.65978         2.86102         3.11649
LJ           1.89902         6.04885         5.01209
LJ          -5.04622        -6.17096        -6.40782
LJ            3.1833         3.96519         4.30096
LJ           3.01808        -1.02207         5.03298
LJ           -1.6973       -0.174526        -4.11243
LJ          -4.00861        -2.69941         1.82766
LJ           -4.3022         6.45838        -2.97582
LJ            2.4988         2.83246         2.64008
LJ          -5.35529         4.97125        -4.03778
LJ           2.99508        -4.35003        -5.67726
LJ          -3.13641        -0.55484        -3.95059
LJ           2.09765          2.6405        0.906367
LJ            4.7205         2.04675        -2.29963
LJ           1.06899         -6.3786         5.40246
LJ           4.46363       -0.419793        -0.39274
LJ         -0.532372        -5.62225        -2.87232
LJ           1.89822         3.41811        -3.52754
LJ         -0.663254         -4.9872         3.80689
LJ           1.66346         5.89024        -5.66877
LJ        -0.0702049        -4.56097         6.22411
LJ           5.09181        -4.43036       -0.138264
LJ          -3.64924        -1.01698        -4.81818
LJ         -0.932785        -2.88416        -3.63502
LJ          -2.48883         2.69307         3.64519
LJ           -1.3885         1.60342        -1.85162
LJ          -2.35845         3.28925          5.1675
LJ            -4.309         1.64038         4.83702
LJ          -3.76007         5.98911        -4.65617
LJ          -4.52159        -5.86587         3.05131
LJ           4.88243        -5.54073        -4.11525
LJ           3.44705         4.24628        -4.23805
LJ          -2.85854        -1.33813          4.8405
LJ          -3.41231        -2.17584         4.41813
LJ          -2.25168       -0.817193        -2.43795
LJ           1.11479        -1.50965         2.35197
LJ          -4.82151        0.402823       -0.431972
LJ          -1.11825      -0.0920244         1.47539
LJ          -3.08673        -4.34086          1.1638
LJ          -2.79834         4.23936         3.33499
LJ           4.80614         4.39737        -4.03661
LJ         0.0131571         3.68645         3.02818
LJ           2.41321         5.71307        -3.26084
LJ           2.50788        -3.04743         2.31107
LJ           1.39219         4.48898        -3.85123
LJ          -3.55969        -5.92893         -4.5351
LJ          -1.19091         4.68104        0.911124
LJ          0.105117         4.97594         2.07905
LJ          0.894681         3.12579        -1.17738
LJ           3.98277        -3.70298        -2.18988
LJ          -2.58554        -2.83319        -2.86568
LJ          -3.11726        -5.14682        0.511814
LJ        -0.0826181         1.30987        0.581666
LJ          -2.85433        -2.29248        -4.03255
LJ          -1.91409         3.82921        -4.25667
LJ            -2.496         3.14708         6.40907
LJ           1.20585         3.64844        -6.06247
LJ           5.90199       -0.199689        -3.10456
LJ           4.14494         4.47444        -5.65716
LJ          -5.97148         1.36957         4.72881
LJ        -0.0102921        -2.31599        -1.61506
LJ          -4.76194         1.61096        -2.20513
LJ           6.32802           2.193         -5.1155
LJ          -1.82896         5.07477         5.10121
LJ           4.65884        -2.39363         1.72559
LJ           5.85417        -5.14392        -3.94588
LJ          -1.30232        -6.26198        -3.55907
LJ          -4.76771        -4.92602        -2.51948
LJ           -3.5324        -4.29987        -1.87487
LJ          -2.49494        -6.20405        -3.12894
LJ           4.58825         3.50793         -6.1418
LJ          -3.69951         4.03524        -4.34603
LJ           5.36175         1.36105         5.23102
LJ          -5.11982        -4.19521         1.22805
LJ         -0.803912        -5.55808         1.44114
LJ          -1.62323        -3.52505        -1.40154
LJ            3.9879         5.69876        -4.36234
