108
#Comment!
LJ           -0.5474       -0.662275        -1.76738
LJ          -2.43641       -0.717343       -0.259132
LJ           -5.1508        -3.21097          4.4096
LJ          -5.62896        -6.14305        -4.94585
LJ          -4.85056        -6.13779        -3.35235
LJ           -3.2555        -2.76578         5.11448
LJ          -4.98238        -4.94756        -3.65148
LJ            3.7139         5.39652       -0.463073
LJ           3.10737        -1.25047         2.28731
LJ           2.40859         2.87671         1.88644
LJ          -1.43942        -2.33096         3.35874
LJ           3.69592         0.65712         2.95189
LJ           4.51348         5.16359         1.43679
LJ          -1.69843        -2.10481         6.35007
LJ          -6.22488         4.07087         3.98559
LJ          -5.53751        -1.83928        -6.21476
LJ         -0.946041        -6.14944        0.148727
LJ           2.34643         1.78864         1.55756
LJ           3.96274        -3.54699         3.53775
LJ           6.44344        -5.99452        -3.66317
LJ         -0.793602         1.42339        -5.74987
LJ           1.80967         1.60491        0.435363
LJ          -1.02998         1.37149        -1.93129
LJ          -4.65283          0.6641         6.42205
LJ           1.37497       -0.576799        -3.44006
LJ           5.81577        -1.35095         1.26513
LJ           2.47743       0.0755215       -0.376052
LJ           -4.9735        0.310031        -1.11201
LJ          0.847749         3.87115        -1.49816
LJ           3.28003          1.8713          -5.639
LJ           1.42182        -4.65046         1.91668
LJ          -1.87197         5.52556        -4.79475
LJ           5.87574        -5.43753        -5.36458
LJ           2.02047        -3.81125          3.7988
LJ          -2.91053         4.47449         5.38483
LJ           3.31576         3.56949         6.04765
LJ          0.854662       -0.130588        -2.04375
LJ           5.54403        0.179963       0.0846959
LJ          -4.64349         3.87303        -4.20514
LJ            2.6696         2.70474         3.96116
LJ          -2.47685         2.62015          5.0355
LJ           1.24345         5.14566        -2.98659
LJ          -3.35855        -3.86855         5.25262
LJ           2.96276          2.0436         2.70627
LJ           2.92587        0.699277        -2.07334
LJ           3.16384          5.6407         4.96225
LJ           1.90746        -2.42804         1.70364
LJ         -0.791674         4.61552        -2.50052
LJ           1.48947         5.06687         1.13162
LJ          0.737974        -6.45959         6.24774
LJ           3.44649         1.98498        -4.37097
LJ         0.0823282        -4.34356         4.18388
LJ          -4.09113          3.3751        -2.84239
LJ          -3.85128        -2.23846         -5.7884
LJ          -1.91681          1.7424        -4.53751
LJ        -0.0889398         3.63056         6.09785
LJ          -1.34017         2.41206        -5.96072
LJ           5.77149         1.10059         5.30791
LJ          -4.53301         6.26994         4.64666
LJ          -5.22377        -6.02161         2.83364
LJ          0.347534        0.141193        0.676535
LJ           3.71435      -0.0245306        -3.99683
LJ           6.08284        -4.48456         5.26499
LJ          -4.68598       -0.302661         5.41234
LJ          -4.71698        0.389381         2.78393
LJ          -3.30944       -0.243101        0.244229
LJ          -1.25485        -2.36898        -1.81544
LJ         -0.858985         1.02879        -0.80601
LJ          -4.06169        -1.18881        0.223438
LJ           1.15347         3.39929        0.512581
LJ          -4.32068          3.8986         5.12698
LJ           4.86258         2.08097        -4.18467
LJ           2.62209        -6.40376         2.29995
LJ          0.368903        -4.67463        -5.89566
LJ          -4.70803         5.15503        -1.15813
LJ           1.69219         5.55327         4.27212
LJ          -4.45127         5.71941        -5.50875
LJ         -0.681621        -5.57371        -1.33761
LJ           1.33769       -0.657091         1.05322
LJ           2.16796        -5.57337         1.28546
LJ         -0.231891        -4.80942         -3.2081
LJ          -6.35574        -4.63299        -3.77075
LJ          -2.48641         3.56898        -1.96321
LJ          0.839932        0.560163        -3.89277
LJ          0.680748        -2.64083         3.71163
LJ          -3.52101        0.792124         1.18127
LJ           -3.5838         1.58966         -5.8299
LJ           1.63844         3.36892         6.16601
LJ            3.3154        -1.60984        -2.16443
LJ          -5.92169        -4.29551        -4.91287
LJ           2.80746           1.125         4.82073
LJ           2.09804        -4.00963         2.65739
LJ           3.50822        -4.85947        -2.34853
LJ          -4.18975        0.593033        -3.93439
LJ           2.67017         1.73306        -2.62846
LJ             3.183        0.557958         1.02296
LJ          -4.90245        -2.46829        -5.57396
LJ          -4.94167         4.07333        -3.09727
LJ          -1.93237        -5.96787        -1.35942
LJ          -3.89798        -1.30108         5.64703
LJ          -1.64353         2.76858         -4.8238
LJ          -5.93552         2.92153         4.59159
LJ          -5.71227       -0.240417         -5.9888
LJ           5.54936         1.52064         4.26578
LJ           -2.0421         2.71659         2.02347
LJ          0.489101        -5.71459        -1.48488
LJ           2.49568        -1.56214        0.979621
LJ            4.4217         5.18709        -2.99389
