108
#Comment!
LJ          -5.58424       0.0716164         -6.0237
LJ          0.592548         2.54459        -3.38142
LJ          -5.01784         2.22482         3.17848
LJ          -1.76444         2.47544         1.31361
LJ           6.39085         1.96912       -0.847758
LJ          -6.44338         1.79287          1.5256
LJ           1.31013         4.40712        -5.54947
LJ           4.28648         2.67451        -5.06921
LJ           4.13215        -4.07932         1.58992
LJ          -3.59687         3.49199         2.83828
LJ           5.50841         1.59594        -3.23859
LJ           1.00136          1.0529        -4.19712
LJ          -1.20819         1.67374        -6.33416
LJ           4.01385         2.02585         5.54265
LJ          0.709408         4.17352         6.19227
LJ          -4.60806         4.31406       -0.366034
LJ          -1.93575        0.457947        -2.79332
LJ          -3.31846        -5.55538        -1.79675
LJ          -3.75845        0.225338         3.78055
LJ          -3.23784         4.87398        -1.53881
LJ          0.873416          5.5583        -5.68564
LJ         -0.644718         3.19772         3.48768
LJ           3.16773        -4.30482         2.41715
LJ           -3.7005        -4.94704        -3.00508
LJ          -5.79634        -1.67014         2.17554
LJ          -2.08519         3.21068          -6.184
LJ           3.40451        -5.14928        -3.64706
LJ          -2.43957          5.5169         2.99302
LJ           6.35755         6.32049       -0.546317
LJ          -1.00293        -2.11185       -0.149902
LJ           3.37796        -4.11938        -1.88127
LJ           1.62129         1.03542       0.0429826
LJ          -3.27149        -2.11456        -3.43946
LJ          0.758321        -5.24855        -4.87447
LJ          -6.19375        -0.84663       -0.298352
LJ          -2.18155         4.43154        0.108697
LJ           -2.3939         3.22447         5.33742
LJ           1.53896         -5.2536        -5.73724
LJ           2.06754         5.35723         3.10443
LJ         -0.722152         5.79063         5.84224
LJ           4.41223      -0.0870914         2.70276
LJ          0.420027        -6.18528          3.8831
LJ           5.16193       -0.354383        -2.08744
LJ           3.97953        -3.30072         -1.3402
LJ          -2.04208        -5.59114        -2.08442
LJ           4.97493         -1.6123       -0.278841
LJ           5.05789         2.32339         1.98862
LJ          -4.89239        -6.03258        -1.82284
LJ           4.49631        0.981408         1.72487
LJ           5.68487         2.61794        -2.12701
LJ           1.34759         1.78757        -3.44674
LJ          -5.30612        -2.34157          4.3798
LJ          -3.72299         1.31302       -0.220654
LJ          -4.87551         3.17096       0.0977419
LJ          -1.25994        -3.95846        0.250094
LJ           3.88907       -0.822609          1.3909
LJ          0.750491        0.322683         1.33725
LJ           5.61938        -5.91879         4.14918
LJ          -4.59057          4.9121        0.888205
LJ           2.39452         3.65179         5.44169
LJ          0.501057        -5.43187        -3.69814
LJ          -2.85672       -0.677823        -3.09976
LJ          -2.18328         2.06082       -0.218317
LJ         -0.559039         -4.0532        -2.72685
LJ          -1.47621          5.5516         2.53041
LJ            6.2654        -2.23757        -4.98486
LJ          -5.30164         1.30083         4.76764
LJ           1.70592        -3.53876        -3.29679
LJ          -1.11538        -3.11576         3.69323
LJ          0.144823       -0.300981        0.783701
LJ           5.36636         5.80052        -5.55822
LJ          -6.23905          1.9593        -3.45696
LJ           1.53155         5.74934        -2.79163
LJ      -0.000116374         2.42256         5.87628
LJ          -3.29596         6.16738         -1.5046
LJ           6.19675        -2.13971        -3.10318
LJ          0.418096        -4.95942        -2.60794
LJ           3.84203         6.37646        -1.43921
LJ          0.429841         3.63407        -5.42533
LJ           -5.0119        -2.86938         -1.2134
LJ            2.1589         -3.6261        -4.64169
LJ         -0.956456        -1.24755        -5.64702
LJ           4.89463        -1.56503        -2.26439
LJ          0.986643        -3.02244         4.01502
LJ          -1.68431        -5.65277       -0.154602
LJ         -0.791991       -0.630912         1.79001
LJ          -5.98219       -0.355404        -3.79039
LJ           2.06214         0.26204         6.30785
LJ          -6.18112        -3.19944         -4.9306
LJ           4.53127        -4.02901        0.600555
LJ          -1.61518        -1.97845          1.8712
LJ         -0.577438        0.337406         3.86031
LJ          -3.51802        -4.57856         6.27036
LJ           2.91092        -6.45827        -4.25786
LJ           -2.3151        -1.32381           1.137
LJ          -2.07046         4.29383        -2.02005
LJ           0.23235       -0.330075       -0.750962
LJ           2.89033         5.54802         6.21161
LJ          -2.92306        -4.07189        -2.22733
LJ           5.85682         3.79767        -3.17486
LJ          -0.51036         1.57905         4.78729
LJ          -2.35856         5.83898         1.80285
LJ         -0.924716        -5.61316        -3.87915
LJ         -0.632531        -6.19917        -5.85201
LJ          -2.48701         1.83525        -5.73234
LJ           1.41519        -2.95972         2.95541
LJ           2.04982         3.06044         6.39664
LJ          -0.99236       -0.110175         -6.1635
