108
#Comment!
LJ           2.08373         0.73632         2.09833
LJ           4.94159       -0.999767         2.75476
LJ           6.25524         2.80053        0.396843
LJ           2.17421        -4.71009         2.56378
LJ           5.06449          3.4951        0.897904
LJ         -0.723903        -2.43227         2.25836
LJ          -6.41348         1.75129        -3.75002
LJ          -6.11633        -0.57053        0.522649
LJ           6.38958         4.51653         2.47282
LJ          -4.44805         3.91909        -4.06254
LJ          -4.46933        -1.36321        -5.79007
LJ          -0.39202        0.569073         -2.9694
LJ           3.28264        0.385242        0.767645
LJ          -3.90992         6.16566        -1.36034
LJ          -1.28463        -5.00153        -5.94541
LJ           -3.0874       0.0573858         -6.3199
LJ            4.1169         2.63997       -0.797167
LJ           5.49963       -0.744874        0.473593
LJ           4.10275         2.49095         6.08771
LJ          -4.50441         1.64006         2.86404
LJ           3.68615         5.76687        -2.53025
LJ          -6.42376        -1.09548        -1.17279
LJ          -4.06894        -2.43481         4.91004
LJ           -4.4189         4.57157        -3.05469
LJ           2.89625         1.59822        -1.09849
LJ           2.55026       0.0465428        -5.41699
LJ          -5.86328        0.678816        -1.92016
LJ          -2.69651        0.114777        -2.64623
LJ          -1.22888       -0.281714        -3.34639
LJ           1.87552        0.128809         3.90691
LJ          -3.98747         3.15947         4.86757
LJ          -1.93387         1.36188        -3.33488
LJ          -4.48205        -3.41413         4.38734
LJ           2.29987        -2.26815        -3.19639
LJ           1.61593        -3.20831         5.78076
LJ          -4.29399         2.15834         5.28417
LJ           1.09327        -1.86189        -3.57388
LJ          -1.04309        -6.01612        -2.21259
LJ         -0.227898         3.55591         3.54556
LJ          -5.10511         -4.3946        -1.69965
LJ           3.90491        -5.37547        -4.79767
LJ        -0.0307918        -5.95053        -1.82394
LJ           1.52793          4.5895        -3.38937
LJ          -6.08749         3.69358        -4.00114
LJ          -3.40208        -1.19876         6.40884
LJ          0.324081         -2.3203         5.56146
LJ          -4.00794        -4.52305        -1.19937
LJ            4.1603        -5.23347         2.29598
LJ          -3.91461        0.525855         1.51256
LJ           5.27653        -2.82011        -2.85217
LJ          -3.31932         -2.4659        -5.09466
LJ           6.38901         2.75284        -4.54806
LJ          -1.84902        -6.37222        -3.96277
LJ           3.03166        -3.13465        -2.70489
LJ          0.896423        -4.68045         2.49084
LJ           -5.2334         5.32607        -1.25454
LJ           3.21228         4.21739        -3.30204
LJ          -3.34101        -4.39013        -4.71727
LJ           3.30226         4.81597         3.20632
LJ          -2.52661      -0.0645578        -4.66286
LJ          -4.16019         2.96668         5.94002
LJ           2.76629        -3.86815         4.05209
LJ           5.64285         4.32865         3.46963
LJ          -5.26206         2.21414        -1.79804
LJ           4.10348         2.44309         0.29632
LJ            1.4445         4.70129         4.39735
LJ           3.20867         2.75794          0.7059
LJ          -2.16506        -4.86023        -3.93689
LJ           4.58892       -0.496099         1.55119
LJ          -3.02134        -6.14979        -1.93941
LJ          -2.78722         2.53811          2.1754
LJ           5.22435       -0.717479         5.77507
LJ          -3.54075        -1.47297         4.47072
LJ          -6.38173         4.73084         5.52854
LJ          -2.86496        0.579058        -1.75429
LJ          -6.00586          2.2467         4.56149
LJ           4.37836         3.73681        -1.94542
LJ           1.97253         3.78516         -4.5697
LJ          -2.57076         1.11962        0.750429
LJ          -3.32736        -5.01542        -2.61717
LJ          -4.66146           5.675         2.57033
LJ          -4.26317        -4.98776         5.93716
LJ          -5.45219        -4.16885      -0.0820815
LJ           2.74463        -6.04301        -2.53697
LJ           4.59148        -0.32628       0.0797834
LJ           4.36728        -3.74324        -5.68758
LJ           1.94615         6.23244         2.83507
LJ           5.69592        -1.42985         1.43317
LJ           6.14586         3.72802        -1.35145
LJ          -2.19695        -2.30593         -4.4247
LJ          -1.14045         2.39575         2.32998
LJ         -0.522504        -2.02615        0.286375
LJ            2.5319         4.17915         2.67075
LJ          -1.43943         1.82375         1.03985
LJ           1.61891         4.89095          5.5526
LJ          -4.28694        -5.88897        0.770096
LJ           4.11874         1.62502          1.4592
LJ          -5.79503        -1.60358       -0.461802
LJ           1.63095        -1.98639        -4.41905
LJ          -6.27081        -5.66841         2.46349
LJ          -3.19605         6.40899        -3.94096
LJ           1.86609        -5.70184         5.10152
LJ          -5.88992        -2.45929         2.66722
LJ         -0.705416         0.50102         2.41315
LJ          -4.91067         1.55754        0.906663
LJ           5.19679        -5.32544        -1.68118
LJ          -3.83902        -2.89947        -4.08182
LJ          -1.48843         4.61306         5.69347
