108
#Comment!
LJ           1.40066         6.08857       -0.282997
LJ          -1.78996        -1.27264        -1.41002
LJ          -2.10169         5.19145         3.94213
LJ           6.25747        -4.34464        -5.70773
LJ         -0.882961         -6.4269        -2.31069
LJ          -5.33291        0.458976         2.67553
LJ           5.51694        -2.66779        -4.37271
LJ           2.19667         2.87587       -0.677138
LJ          -2.81812        0.671627         3.60741
LJ           0.86735          2.2008        0.270111
LJ          0.283454        -4.04059        -5.05178
LJ          -5.51768         1.33896         3.46087
LJ          -4.01971         6.00664          3.0842
LJ          -5.76069       -0.912093        -5.99897
LJ          -3.41294        -6.06694         2.85407
LJ           5.26776        0.412624         6.32295
LJ           1.00834        -1.17196        0.368781
LJ           2.98845          2.0183        0.966356
LJ           4.27197         3.60835        -1.30122
LJ           6.24565        -3.23416        -4.93155
LJ          -2.85669         5.81254        -6.45105
LJ           1.31563        -2.06129        -2.06458
LJ          -3.86178        -1.93845        -1.01809
LJ          -5.67256       -0.550215        -3.81819
LJ         -0.514744         1.34332         1.75599
LJ           6.28255         2.88802         3.74562
LJ           2.78867         1.05496        -0.22777
LJ           -2.1984        -3.19963        -6.23088
LJ          -1.86566        -2.79036        -4.62802
LJ           5.67254         4.60265        -2.85053
LJ         -0.254821        -1.85359        0.742759
LJ          -3.69274         2.82808          3.0341
LJ           1.76213         6.08406         4.89083
LJ          -4.80357        -6.24183        -6.30342
LJ           3.45379         3.97821         4.35341
LJ           3.00813         -1.1684         5.00498
LJ          -1.78206       -0.170025        -4.20201
LJ          -3.99021        -2.83242         1.91122
LJ          -4.38055         6.44091        -3.06227
LJ           2.43838         2.80749         2.64907
LJ          -5.43248         4.96525        -3.92861
LJ           3.12967        -4.23251        -5.75411
LJ          -3.11477       -0.465375        -4.08712
LJ           2.02804         2.64155         0.87686
LJ           4.78485          2.0972        -2.32125
LJ           1.02307        -6.31753          5.4594
LJ           4.57613       -0.177488       -0.322748
LJ         -0.448201        -5.61961        -2.99246
LJ           1.90197         3.40908        -3.69702
LJ         -0.758046        -4.89713         3.70895
LJ           1.57201         6.00505        -5.70694
LJ          0.124789        -4.68555         6.19397
LJ           4.95972        -4.69544      -0.0479858
LJ           -3.7486        -1.00109        -4.72603
LJ         -0.962132         -3.2251        -3.57095
LJ          -2.65258         2.77779         3.51596
LJ          -1.37747         1.53648        -1.70535
LJ          -2.19666         3.40161          5.0393
LJ           -4.3327         1.51394         4.88761
LJ          -3.81604         6.15903         -4.9567
LJ          -4.69881        -5.92139         3.15094
LJ           5.00646        -5.74395        -4.24468
LJ           3.35133         4.20602        -4.11504
LJ          -2.79742         -1.4141         4.78904
LJ          -3.38152        -2.26375         4.45216
LJ          -2.13321       -0.816031        -2.26762
LJ           1.18933        -1.48693         2.34784
LJ          -5.03595        0.360019        -0.52141
LJ         -0.991955        0.030369         1.51897
LJ          -3.12364        -4.06498         1.28587
LJ           -2.6374         4.16705         3.28191
LJ           4.90167         4.54057        -4.01563
LJ         -0.132757         3.70943         3.04212
LJ           2.36501         5.61365        -3.20052
LJ           2.30016        -2.88713         2.43002
LJ           1.48912         4.41563        -3.71001
LJ          -3.55358        -5.74204        -4.54972
LJ          -1.19845         4.61661           1.018
LJ          0.296229         4.99683         1.99598
LJ          0.859214          2.8807        -1.23645
LJ           4.07015        -3.75537        -2.23823
LJ          -2.46156         -2.7169        -2.87163
LJ          -2.99483        -5.08984        0.535973
LJ        -0.0750214         1.35662        0.713483
LJ           -2.9004        -2.45222          -3.677
LJ          -1.75131         3.82661        -4.48149
LJ          -2.46419         3.23568         6.36876
LJ           1.17592         3.64208        -5.98911
LJ           5.99499       -0.154918        -3.15142
LJ           3.90379         4.38887        -5.60725
LJ          -5.86554         1.43342         4.64492
LJ         -0.108031        -2.30381        -1.74352
LJ          -4.69088         1.35752        -2.24592
LJ           6.24745         2.23981        -5.16742
LJ          -1.48399         5.13972         5.10793
LJ           4.72055        -2.50452         1.75497
LJ            5.8884        -5.17755        -3.79958
LJ          -1.23634        -6.22917        -3.36374
LJ          -4.82554        -4.92556         -2.5313
LJ          -3.51054        -4.41417        -2.13071
LJ          -2.36335        -6.06111        -2.98448
LJ           4.60785         3.35645        -6.14023
LJ          -3.71342         4.31503        -4.22065
LJ           5.42421         1.27264         5.28971
LJ          -5.36493        -4.02594         1.19258
LJ         -0.786838        -5.61404         1.58485
LJ          -1.69796        -3.45241        -1.55439
LJ           4.02098         5.62116        -4.44679
