108
#Comment!
LJ          -4.85513         1.63776        -6.21046
LJ         0.0368005         3.25484        -2.57647
LJ          -4.73814         2.19265         3.09079
LJ          -1.69203         1.91257          1.0099
LJ          -6.10589         1.39462        -0.71418
LJ          -6.08806         1.49713         2.50096
LJ           1.71759         5.11922        -5.52278
LJ           4.79906         2.08009        -4.24212
LJ           4.52203        -4.79616         1.77993
LJ          -4.14909         3.68141         3.32628
LJ           5.73703          1.7846        -2.97207
LJ           1.72842      -0.0141846        -4.31232
LJ          -1.83268         1.12368         6.42917
LJ           3.36443         1.71535         5.17564
LJ          0.875669         4.45058        -6.34546
LJ          -4.78333         4.72197        0.174525
LJ          -2.73327        0.717683        -2.92196
LJ           -3.3014        -6.04457        -1.67253
LJ          -3.19684        0.751859         3.33241
LJ          -3.11718         4.97346         -1.4981
LJ          0.514012         5.71635        -5.25278
LJ         -0.911913         3.50657         3.87458
LJ           3.24814        -4.16594         1.90548
LJ          -3.43505        -4.82611         -4.2151
LJ          -5.97557        -2.17344         2.20175
LJ          -1.59441         2.10388        -5.25154
LJ           3.22123        -5.74529        -3.84535
LJ          -2.46688         5.34927         3.81921
LJ             6.052         6.01946        -0.58811
LJ          -1.63509        -1.86223        0.103058
LJ           3.48387        -3.83236        -2.21933
LJ            1.8879        0.921093       -0.286731
LJ          -3.86763        -1.48006        -3.32449
LJ           1.17651        -6.31013        -5.04178
LJ           6.33177       -0.805066        0.218423
LJ          -2.11286         4.65588       -0.187691
LJ          -2.23926         3.46228         4.92606
LJ           2.65592        -5.72688        -4.90773
LJ            2.1492         5.10353         3.14017
LJ          -1.16544         6.15705         6.28055
LJ           4.11307      -0.0932303         2.75445
LJ          0.452074        -5.99601         3.76173
LJ            4.6135       -0.365185        -2.62615
LJ           4.27711         -2.4593        -1.97234
LJ          -2.33632        -4.94582       -0.979489
LJ           5.25511       -0.866602      -0.0245928
LJ           5.96326         2.89915          1.7674
LJ           -5.1384        -5.84783        -1.84894
LJ           3.74313        0.529953         1.71391
LJ           5.42292          3.1667        -2.20696
LJ           1.45976         1.10399        -3.82332
LJ          -4.20873        -2.16234         4.32906
LJ           -2.9124         1.20138        0.268169
LJ          -5.02147         3.57969        0.252495
LJ         -0.620848        -5.18243       -0.829496
LJ           4.17299       -0.941443         1.77304
LJ           1.22165       0.0613478         1.24674
LJ           5.81573        -5.46213          3.5159
LJ          -5.50379         5.45591        0.667239
LJ           2.39905         4.50499         6.32643
LJ          0.828622        -3.86496        -4.40936
LJ          -2.41543        -2.01401        -4.29845
LJ           -2.6523         2.41053        0.307982
LJ         -0.995636        -4.34799        -2.96693
LJ          -1.31618         4.72184         2.12907
LJ           5.71411        -2.34363        -4.20498
LJ          -5.73048         1.25512          5.0878
LJ           2.17877        -3.23925        -3.39535
LJ          -1.45648        -2.20089         3.51492
LJ         -0.679999       -0.109609         0.80654
LJ           4.72103         6.20171        -4.93279
LJ          -6.00509          1.4382        -3.17273
LJ           1.41569         5.49311        -3.11297
LJ         -0.295187         2.97064         5.19876
LJ          -4.49733         5.68859        -1.40166
LJ           6.11138        -1.61541        -3.38625
LJ          0.206832        -4.61797        -2.49043
LJ           4.67673         6.11207        -2.71772
LJ          0.595875         3.88792        -5.45459
LJ          -4.06146        -2.39812       -0.579866
LJ           1.75636         -3.2322         -4.7126
LJ          -1.29035        -1.45812        -5.57672
LJ           4.84737        -2.53845        -3.05032
LJ          0.260943        -2.48023         3.59476
LJ          -1.36553        -5.35151        0.305269
LJ           -1.4834       -0.846168          2.1975
LJ           6.29025      -0.0674265        -4.54149
LJ           1.93005        0.221432         6.30797
LJ          -5.87199        -2.85317        -4.98033
LJ           5.35614        -4.44297        0.754655
LJ          -1.09334        -2.00491         1.55922
LJ         -0.542585        0.636751         3.49328
LJ          -3.45574        -4.96484         6.44281
LJ           2.33707         -6.4217        -4.00724
LJ          -2.26665        -1.17915         0.79182
LJ          -2.76295         3.98947        -1.89632
LJ         -0.385509       -0.406259        -1.05717
LJ           2.71125          5.4732         6.06449
LJ          -3.20914        -4.78761        -1.57303
LJ           5.64026         2.83372        -3.58793
LJ         -0.418223          1.3909         4.17598
LJ          -2.11614         5.70042         2.56637
LJ          -0.36893        -5.07281        -4.22601
LJ        -0.0767333         6.14965        -6.13028
LJ          -2.50266         1.32356        -5.50713
LJ           1.80467        -3.12511         3.36829
LJ           1.65646         3.92402        -6.07151
LJ          0.067031       -0.851712         6.28643
