108
#Comment!
LJ           5.49804        -2.76553         4.76226
LJ           5.29018        -6.02534        -3.95756
LJ          -1.82994       -0.105635         1.80298
LJ          0.407351          1.0136         2.80622
LJ           3.89065         3.24303         5.64506
LJ         -0.615244        0.604161         2.32475
LJ         -0.949551          5.9948         -4.4034
LJ           4.20066         5.36487         -4.1798
LJ          -1.11702         3.45528         5.42141
LJ           2.41038        -5.65208          6.4042
LJ          -5.10835         1.67664        -5.53739
LJ          0.667845        -2.50247        -5.43031
LJ           2.26199         4.38247        -4.19793
LJ         -0.518913        -5.85983         3.05619
LJ          -2.11347       0.0942516        0.619836
LJ          -5.60499         4.25827         5.03219
LJ          -1.45357         4.79964        -5.19461
LJ        -0.0982614        -3.49535        -5.61657
LJ         -0.562932        -2.05672         4.18501
LJ           4.85777         3.23462         5.83719
LJ           4.09875         5.43334         1.82755
LJ          -1.82112         2.80602        -5.50613
LJ           2.98877        -4.54389        -5.96289
LJ          0.033089        -5.31149         6.09435
LJ         -0.434195         5.37978         5.52427
LJ          0.066879         2.66519        -2.66552
LJ           6.19851        -3.26014         5.35643
LJ          -1.65692          4.2837       -0.570633
LJ          -6.27553        -5.51158        -1.84585
LJ           -3.5856        -2.88643       -0.786436
LJ          -1.57652         2.94685        -2.24531
LJ          -4.77645         5.60509         4.42905
LJ          -2.83925        -5.81936        0.374728
LJ          -3.60763        -5.83946        -5.55252
LJ           1.41767         2.49095        -1.34574
LJ           3.82684         5.05846         3.18905
LJ           2.45276         4.92025        -5.25985
LJ           1.98816        -5.18486        0.780058
LJ         -0.936991       -0.933066         5.08447
LJ          -5.85384        -2.28353         4.47415
LJ           1.27133        -3.70361       -0.483157
LJ            1.0232        -5.08476         1.39833
LJ           6.07941         4.28373        -4.88659
LJ           0.44241         6.22053         3.44826
LJ           -2.5938         2.29472         6.37073
LJ          -2.31203        0.105778         3.21042
LJ           2.70496         6.21535       -0.727606
LJ          -5.69127         6.30054          5.6616
LJ          0.176133        -1.15239        -4.45896
LJ           3.92017         4.08952        -1.08278
LJ          -5.13629        -2.64119         5.89491
LJ           3.99866       0.0677428         3.04919
LJ          -2.84561        -2.13419         5.11721
LJ          -3.58785         3.12324       -0.662346
LJ           4.61448        -5.95911         6.05317
LJ          -4.33962       -0.569231        0.442372
LJ           4.84599       -0.232335        -5.28512
LJ          -1.30583        -4.45306        -3.38973
LJ          -2.31924         3.98312         5.59007
LJ          -2.98117           3.033        -5.32776
LJ          -5.78227         1.90005          2.9517
LJ           0.16582         2.95861         6.43894
LJ          -2.22153         5.72685        -5.84535
LJ           -2.3719       -0.729563        -4.60137
LJ           6.23002        -3.75657        -5.76593
LJ          -2.37532         5.14517         5.92098
LJ           5.00524         5.45464          2.9151
LJ           1.00601         3.74038         4.05351
LJ           5.50169        -3.11863        -6.10015
LJ           3.46125        -1.30935          5.9388
LJ          0.493487       -0.416508         3.72705
LJ         -0.138518         1.91968         2.93778
LJ          -4.29825         5.05465        -5.03591
LJ          -5.32407         1.94169        -4.03281
LJ           5.00686        0.444736         4.55943
LJ           6.31007         3.97026         5.19194
LJ           -4.8109         -6.2332        -2.44165
LJ           -5.5567         4.52644        -4.17984
LJ            4.9716         2.54532        -1.45122
LJ          -1.50054        -5.29181        -2.76655
LJ          -2.14649        -1.37839         6.45001
LJ           1.84323       -0.503627        -5.75818
LJ         -0.948847        -4.12881         2.06438
LJ          -2.26417         6.12728         2.27912
LJ           4.24615         1.94189        -1.94077
LJ             1.423        -1.41214         -5.5991
LJ           2.98685        -4.23468         4.12625
LJ           5.00401        -5.02207        -3.19005
LJ           4.69056         4.24342        -3.99551
LJ           3.42766        -5.99453        -4.49144
LJ           1.94287        -4.20296         1.44555
LJ           0.53598        -0.77662         1.32789
LJ           5.10411        -4.24495         5.27046
LJ           4.70707       -0.594162         4.58812
LJ           -1.2605        0.324649         -4.4399
LJ          -4.75394        -2.22321         4.70291
LJ          -5.34657          -4.225        -0.65596
LJ          -3.75653        -1.38659         3.60408
LJ          -4.12189        -3.95961        -5.78406
LJ           4.44259         2.26207         5.24725
LJ          -3.01377         1.77578       0.0653457
LJ            1.1585         3.10302        -4.17499
LJ         -0.806536        -0.41012         1.97608
LJ          -1.60056          2.5364         1.60055
LJ           6.27515       -0.218413         4.44245
LJ         0.0563627         6.42615        0.806177
LJ          -4.45615          4.0647        0.875988
LJ          -5.86093         -3.5077        -2.71911
