108
#Comment!
LJ        -0.0558355         3.38231         1.57621
LJ           4.94936         1.96594        -5.80124
LJ           4.53361        0.886568         2.95058
LJ          0.310738          1.7055         2.16612
LJ           1.90932       -0.494127         3.14754
LJ           3.18573         -2.2228        0.440221
LJ          -2.92648         2.41907        -3.47806
LJ          -2.54264          3.0628        -1.68767
LJ           4.90699         4.91923        0.863708
LJ          -2.66929         4.39037        -2.25904
LJ          -3.01116         -2.6707        -5.24777
LJ          -2.24505         4.01698        -5.33125
LJ           1.97488          3.9902          4.3647
LJ          -1.04543        -4.64045        -3.25411
LJ         -0.531746         5.89873        -2.28708
LJ          -3.00211        -4.91903         5.99831
LJ            1.7416        -1.35506        -1.44828
LJ           5.33535        0.343753         3.93714
LJ          -5.24334         -1.2344        -4.25506
LJ          -4.41733       -0.245864          6.2609
LJ           6.29954        -5.25648         6.37659
LJ         -0.685072        0.475015        -1.26485
LJ           4.83994        -2.28807          5.9566
LJ         -0.953326         2.57174        -3.03755
LJ          -6.43319         1.14003        -3.85877
LJ           1.36701       -0.857966         5.43501
LJ          -6.20375         2.70929        0.695485
LJ          -5.82668         2.23368        -4.19112
LJ           1.04649         1.82835         5.96923
LJ          0.527182        -1.07552         3.99073
LJ           -5.1428         1.15335         1.43484
LJ          -1.86276         6.32115       -0.836222
LJ           4.37733        -1.62417        -5.98888
LJ            2.4126        -3.94525        -1.03907
LJ           1.51585        -3.15042        -4.20661
LJ          -5.18587        -1.12483         6.00836
LJ          0.684854         5.62054       -0.825694
LJ          -1.72867        -6.37113        -5.13368
LJ          -1.44876          3.3407         2.71616
LJ          -4.63978        -5.30044        -2.80589
LJ           4.61488        -6.24036         5.62276
LJ          0.370634        -5.19339        -2.73419
LJ          -4.20592         2.44809         5.99684
LJ          -3.58282         1.69245        -4.13968
LJ          -3.15547        -1.18142         5.34095
LJ           2.95245        -2.05659         4.21468
LJ           3.91225        -5.79839         1.61322
LJ           4.83627        -5.06503        0.816204
LJ          -6.42906         2.62012         4.62366
LJ           5.14093         6.27685         2.40448
LJ          -1.72068        -5.30876        -5.70437
LJ          -3.31204         2.40609        -1.92153
LJ          -3.85463        -5.12397        -1.94174
LJ           3.24236        -3.94939         1.79946
LJ          0.959336        -4.44816         4.45075
LJ            4.3576        -5.24549         4.60895
LJ           2.39855         6.29941        -2.31677
LJ          -3.50082        -4.03379        -6.22763
LJ           2.91926         3.92889         2.52802
LJ          0.186687          3.7061        -2.48988
LJ          -2.81096         4.36024         5.10095
LJ           3.40159       -0.440135         2.57988
LJ           2.19758        0.395064          2.2205
LJ          -5.25059         6.21244       -0.299278
LJ           3.05327         3.95047         4.09292
LJ           3.72755         4.71925         4.30392
LJ          0.880888         1.47026        -3.53417
LJ           -3.9019        -3.14899         6.16649
LJ            4.5756        0.942868        -5.21531
LJ          -2.90378         5.70999        -6.05514
LJ          -3.65923         2.69337         2.82874
LJ           3.78966       -0.493361         4.55591
LJ          -4.14035        -1.02211         4.98098
LJ           4.43888        -6.34206        -5.34257
LJ          -1.27472         3.80274        -3.28161
LJ          -4.01916         1.20898         2.08646
LJ           5.37544         5.71439         -1.7926
LJ          -3.18198         3.34878         6.04089
LJ          -2.56037         1.85489        -2.22538
LJ          -1.50461        -5.68283          -1.386
LJ          -4.74625         5.00348      -0.0897628
LJ          -2.33428         4.49933         3.89134
LJ          -2.89696        -2.43559       -0.948524
LJ          0.520824         4.94486        -4.54232
LJ          -3.37715         2.33679       -0.289075
LJ           4.79036        -3.78586         6.40217
LJ           4.65314        -6.02716         3.57927
LJ           6.00382         1.28921         4.42801
LJ           5.74497         4.38936        -2.68644
LJ           1.18937          0.8468          5.5284
LJ          -1.89271        -2.61285         4.26564
LJ          -1.99996        -3.49132      -0.0866843
LJ           1.83574         4.29232         1.80491
LJ          -3.43536         1.23215        -1.44094
LJ           3.01902         5.56464         3.96255
LJ          -5.89817          5.0413         3.38556
LJ           2.19892         4.20162         5.60519
LJ          -3.37427        -1.66201        0.316936
LJ           4.27132        -2.55111        -4.58745
LJ          -4.98041        -5.18347         5.72027
LJ          -2.99471         4.94119         6.18307
LJ           2.45013         -2.2923         2.05232
LJ           4.91104        -3.91079        0.721839
LJ           2.46169        0.096392         4.13765
LJ           -4.8012         1.49768     -0.00155736
LJ          -3.62994        -6.00041        -3.66573
LJ          -3.65763        -0.80939        -2.33299
LJ         0.0988401         2.31555        -4.63754
