108
#Comment!
LJ          -4.24831         3.79669        -4.52198
LJ         -0.495856         6.32949         1.65071
LJ          -3.66222         2.02563         3.00321
LJ          0.631142        -2.37492        0.900416
LJ           -4.1167        -1.79454       -0.329471
LJ          -2.85587        0.954542         -4.5191
LJ           2.90628        -5.93638        -4.63953
LJ          -5.00543        -1.46238         1.14399
LJ          -4.52057         -6.4512         1.35847
LJ           5.63933         4.08852         5.69838
LJ          -5.87637        -3.96347        0.403182
LJ           4.80036        -3.13155        -4.78323
LJ          -5.62675        -1.44596         4.70855
LJ        -0.0341638        0.651016         5.00041
LJ           1.59274        0.834115        -4.59881
LJ           5.87177          3.9155         0.77401
LJ           5.63478          4.4904        -4.12007
LJ           6.14156         6.15056        0.353555
LJ          -1.40655         1.02091        0.425524
LJ          -4.68106         2.13395        -1.61854
LJ          -1.39685         3.69368         5.38767
LJ           1.49837         2.00392         2.56546
LJ           5.64699        -4.24667        -2.29254
LJ          -0.44063        -2.27991         3.15571
LJ          -5.88627        -3.81069         2.85792
LJ           -1.8086        -5.07473        -1.90677
LJ          -6.35298         4.50128       -0.423315
LJ          -3.40655         5.39389         -6.0387
LJ           1.37668         4.60694        0.579454
LJ           1.88483        -1.49032        0.212382
LJ           6.46302        -2.18408        -2.61734
LJ           3.31864       -0.296405        -1.42298
LJ             5.648       0.0170892        -2.59019
LJ           3.16234        -5.00934        -3.47874
LJ           6.06798       -0.513092         4.26406
LJ          -1.74085         5.55914       -0.323294
LJ          -4.69067         5.83533         5.50082
LJ           5.57656         2.41586         6.31586
LJ           2.50572         3.55331         3.42002
LJ          -1.92982        -4.33044         -3.1566
LJ           2.98791        -1.98598         2.78763
LJ           2.12966        -4.77493         1.57033
LJ           2.14128         1.07171        -6.30244
LJ           4.80821        0.502156         3.95899
LJ          -4.33091         -1.1642         4.58854
LJ           4.33974         3.69148         0.93182
LJ          -3.25551         4.59022         2.96311
LJ          -5.54827        -5.66655        -2.01815
LJ           2.88492         -2.5597         3.64215
LJ           4.63894         5.15148        -4.75571
LJ           3.70167        -3.93285         6.38023
LJ           2.67548        0.356603         2.23269
LJ          -5.95193         3.13859         2.30056
LJ          -6.06306        -5.03221         1.56969
LJ           1.47723        0.937812        -2.74262
LJ           3.78898        0.127048         3.71841
LJ           1.62916       -0.834684        -1.91196
LJ           4.58521        -4.79626        0.330095
LJ           4.21051         -5.6976        -0.72148
LJ           2.32192        -5.97561        -5.78858
LJ          -3.84992        -0.12083        -5.68244
LJ           2.01825        -6.05274            5.09
LJ          -0.22565        -5.61854         1.99691
LJ         -0.825401        -4.56254        -2.73969
LJ          -2.30694         4.02415       -0.725939
LJ           3.99617        -3.34636        -5.79843
LJ           5.42725         1.45848        -6.40413
LJ           5.10578        -2.06268        -5.37284
LJ         -0.541659         1.24293         1.33563
LJ         -0.256469        0.494281         3.05747
LJ           1.35735        -4.34149      -0.0196397
LJ           6.09349        0.109835        -1.42076
LJ           2.20075         4.71794         5.61965
LJ         -0.118215         3.80552         1.81024
LJ           4.71571         5.01162         -1.6659
LJ          -5.30716         2.31616       -0.613704
LJ          -4.34186        -5.26686        -4.25981
LJ           -3.9694         4.79702         1.72081
LJ          -2.64837        -0.05349        -3.59464
LJ          -3.50448        -1.48169        0.452211
LJ           3.98987         2.09768        -4.87866
LJ          -1.76824        -1.82658        -6.08123
LJ           2.94748          4.5919       -0.881912
LJ          -3.86124         3.05763         2.71713
LJ          -0.88688         -5.3806        0.432961
LJ          -4.73409        -3.86167         2.20889
LJ           2.64846         1.24415         4.69829
LJ           1.29655       -0.260808         6.45467
LJ          -4.78134       -0.320985        -4.65741
LJ          -4.63685        -4.93913         3.23242
LJ           1.27448       -0.683196         0.90568
LJ         -0.916941       -0.762912        0.840991
LJ          -4.90563         5.98478        -5.77887
LJ          0.539122         6.25987        -3.39803
LJ          -5.98225         2.37844         1.03472
LJ          -5.41452         4.69116       -0.913598
LJ          -4.41302       -0.947477        -2.15884
LJ           4.06643        -6.21482         4.36235
LJ           5.57223         5.33386         1.25466
LJ          -6.11353         3.14048        -5.52005
LJ           1.62243        0.985541         2.81013
LJ          -1.44306         5.84946         3.90246
LJ           4.10372       -0.739794        -6.43641
LJ          -3.15104        -3.41435         5.81089
LJ        -0.0500202        -1.69327         -2.0693
LJ           5.65895        -4.33809         3.51315
LJ         -0.334979        -3.59926        -3.48842
LJ          -6.23719        -3.48824        -6.19684
