108
#Comment!
LJ           6.30561        -4.07698         4.50381
LJ          -3.57143         5.55223        -4.58967
LJ          -1.93373           2.939         1.77226
LJ            4.2795        -3.25383         3.97471
LJ           3.26769        -2.03911        -4.99777
LJ          -1.23375          1.6357          3.9819
LJ           -5.4771        -3.11804         -5.1535
LJ            -6.218          4.7952         2.28465
LJ          -3.97325         3.06051         2.79426
LJ           3.66506         2.83452        -5.41701
LJ          -5.62622      -0.0934059         -6.2561
LJ          -1.85113        -4.51797        -6.12219
LJ           2.04988         4.65895        -3.76977
LJ           -5.8897        -2.99689         1.30407
LJ           4.04241       -0.376592         1.09924
LJ            5.3029         3.21123         2.96531
LJ           2.83878         1.37837         1.35733
LJ          -5.48853        -4.51458         -6.0777
LJ          -2.50687        0.816734         4.40131
LJ           5.16427         1.05529         1.50682
LJ           2.77905         4.25585        -1.38333
LJ         0.0672916         2.93847         5.84841
LJ          -6.43535        -2.78768         5.45568
LJ           3.95896        -3.71366        0.351548
LJ           -2.1458          5.0805         5.26949
LJ           2.81659         6.25206          3.7636
LJ           5.47707         2.03866         5.77084
LJ          -2.24074         6.17952        -1.37846
LJ          -3.17758         4.68796        -1.17279
LJ           2.82554         4.31132        -2.39398
LJ          -1.00358       -0.890807         1.76326
LJ          -6.06824        -6.09936         1.18575
LJ          -1.94471         -4.6302         2.84533
LJ          -1.05173        -4.61491        -4.35407
LJ          -1.84124        -5.52138        -5.21959
LJ           1.24951         6.26471         1.89072
LJ           2.04589        -5.42407         6.34239
LJ          -2.02799         1.70073         1.19175
LJ          -2.82965        -4.19303        -5.60463
LJ           5.07761       -0.188722        -4.85356
LJ            1.1115         2.40689        -4.12563
LJ           4.95733        -4.08923      -0.0502496
LJ           5.86118          -5.944        -4.78204
LJ          0.635659        -3.97807       -0.210719
LJ          -3.45295         3.40323         6.07975
LJ            4.9433        0.213511        0.965456
LJ           3.13906        -2.72175         6.26054
LJ          0.387721        -5.74038         3.43601
LJ           1.26652         -5.8927        -5.54301
LJ          -1.11344         5.19053        0.221866
LJ          -3.63601        -5.76122        -3.76274
LJ            5.2109        -3.76985        -1.02331
LJ           -2.8923        -3.50122         1.17274
LJ            1.2567         4.14431       -0.274293
LJ          -5.03958        -2.89197         5.97382
LJ           2.84229        -6.21491        -2.83576
LJ          -4.27599         6.18131        -1.90913
LJ           2.68963        -4.77234        -2.59091
LJ          -4.32232        -5.60812        0.700655
LJ           -4.6478        -4.23775        -2.80033
LJ          -6.18527         2.04551        -1.35081
LJ            2.6778       -0.765742         -4.4185
LJ           5.74405         -3.3076        -4.17427
LJ         0.0777246       -0.582243         5.17615
LJ           6.14847         4.85794        -3.20378
LJ           5.01274         4.45589        -1.74591
LJ         -0.598037         6.20046       -0.342001
LJ            6.0877        -4.79687        -5.17189
LJ           5.85897        0.811868        -6.28481
LJ          -1.46844         3.52357        -2.56829
LJ         -0.602262        -1.16226          2.9283
LJ          0.636512       -0.385734         4.38969
LJ            6.1928        -6.43878        -3.57647
LJ          0.853955       -0.229344        0.208637
LJ          -2.83659         1.60696        -4.55886
LJ           5.28946         4.55088          2.4805
LJ          -1.88071         -3.6925      -0.0411725
LJ          -4.58463         5.15452        -6.23803
LJ           1.21158         4.15168        -4.97821
LJ           4.14927        -2.98722        -3.48446
LJ          0.528356        -4.96254        -3.07477
LJ          -4.17012         1.58538          5.4293
LJ           3.37362        -2.36517        0.381809
LJ          -4.05548        0.248544       -0.415266
LJ            3.9111         2.60014        0.865279
LJ          0.486901         0.96596        -3.24802
LJ            4.3614        -6.22583        -5.69369
LJ          -4.34947         6.25388        -4.25372
LJ          -2.98071         1.28427         6.35459
LJ           2.20813          6.3619       -0.937211
LJ          0.286838        -4.08833          3.7557
LJ            4.0762        -4.69773       -0.172696
LJ           4.69918        -5.20334         4.47952
LJ          0.439169        -1.35789        -2.25108
LJ          -4.32093        -0.35642        -4.00784
LJ          -4.94407        -5.92687          3.2112
LJ         -0.271319          4.6133        -3.02954
LJ          -4.04607        -3.63713         4.14666
LJ           6.24004        -0.45456        -3.76776
LJ           2.20988         1.23312       -0.578003
LJ           5.05338        -3.14132         1.16427
LJ          -2.60439         1.50806         3.40903
LJ          -1.99674        -1.81864        -4.05321
LJ           -2.8194         2.97416        0.805602
LJ          -6.18535        0.771954         5.76577
LJ          0.104254         4.15496         1.09175
LJ          -4.46022       -0.055878         4.04447
LJ           3.23192        -4.60408        -4.56749
