108
#Comment!
LJ          -6.32327        -3.99235         4.41285
LJ          -3.22943         5.51087        -4.60336
LJ          -1.81646         3.21879         1.53459
LJ           4.50046        -3.61986         4.09569
LJ            3.5108        -2.17457         -5.5332
LJ          -1.42682         1.80153         4.27245
LJ          -5.80084         -2.8018        -5.12039
LJ          -5.99744         4.69637         1.66305
LJ          -4.36227         3.13036         2.76124
LJ           4.00899         2.26992        -5.30388
LJ          -5.67633       -0.395146         6.31744
LJ          -1.65433        -4.80027        -6.33126
LJ           1.93805         4.50337        -3.87984
LJ           6.44743        -2.94487         1.32847
LJ           4.55138       -0.656898         1.03205
LJ           5.15567         3.31525         2.77991
LJ           3.29465         1.03233         1.73613
LJ          -5.66218         -4.7422        -5.87791
LJ          -2.82471         0.90951         4.20181
LJ           5.70766         1.15174         1.60949
LJ           2.87734         4.19491        -1.21814
LJ       -0.00423685         3.14139         5.64304
LJ           6.30713        -2.28837         5.15797
LJ           4.07927        -3.74579        0.144246
LJ           -1.9316         4.73239         5.41709
LJ           2.91132        -6.22869         4.28323
LJ           5.38146         2.24234         6.06911
LJ          -2.23343         5.98259        -1.41448
LJ          -3.37433         4.64915         -1.2394
LJ           3.30189          3.9038        -2.59808
LJ          -1.46628        -1.42972         1.92336
LJ          -6.13678        -6.01622        0.970753
LJ          -1.99804        -4.18712         3.42879
LJ         -0.756949        -4.49447        -4.17879
LJ          -2.25739        -5.22055        -5.54879
LJ          0.991733          6.3798         1.80912
LJ           1.79232        -5.26232         6.31995
LJ          -2.29513         2.32635         1.12559
LJ          -2.46815        -4.25783        -5.64582
LJ           4.58239       0.0239944         -4.3676
LJ           1.10355         2.85502        -4.63295
LJ           5.27137        -3.94097     -0.00680542
LJ           5.82097        -5.46042        -4.69699
LJ           0.78574        -3.58014       -0.390193
LJ          -3.83352         3.57646         5.92348
LJ           5.39282        0.180726        0.853744
LJ           3.02776        -2.85553         6.43845
LJ          0.729485        -5.64478         3.25875
LJ           1.45607        -5.93106        -5.68312
LJ          -1.58816         5.41022        0.585845
LJ          -3.90977        -5.99839        -3.77161
LJ           5.18323         -4.1445        -1.25978
LJ          -2.86823        -3.71853          0.9045
LJ           1.52021         4.21944       -0.408529
LJ          -4.83678        -3.07846         5.65005
LJ           2.70996          6.4493        -2.09715
LJ           -3.8994         5.54296        -1.80372
LJ           3.22591        -5.16072        -2.32179
LJ          -4.25505        -5.38713         1.34337
LJ          -4.91375        -4.59035        -2.42675
LJ            6.3266         2.45002        -1.32832
LJ           2.67441        -0.62601        -4.47593
LJ           5.51871        -3.11323        -3.98909
LJ        -0.0175485       -0.608342         5.33538
LJ           6.17472         5.55401        -2.95296
LJ           4.39445         4.37025        -1.63297
LJ          -0.44421         6.04635       -0.397385
LJ          -6.22265        -4.80306        -5.08609
LJ           5.75389        0.849863        -6.42067
LJ          -1.98151         3.53386         -2.2517
LJ         -0.634822        -1.05651         2.61357
LJ          0.981699       -0.453174          4.1531
LJ           5.80005         6.34699        -3.39891
LJ           0.55989       -0.575019        0.106252
LJ             -3.22         1.86266        -4.40417
LJ            5.2445         4.46896         2.33036
LJ           -1.7378        -3.57118         0.20426
LJ          -4.51283         5.20894        -6.23164
LJ           1.03414         4.41506        -5.12844
LJ           4.70011        -2.83377        -3.61529
LJ           0.59612        -4.95592        -2.94347
LJ          -4.53408         1.44096         5.49959
LJ           3.94526        -2.20939      -0.0200473
LJ          -3.99541        0.524746       -0.865611
LJ           3.71327         2.69305         1.27594
LJ          0.761405        0.952606         -2.6896
LJ           4.46635         6.37273        -5.36979
LJ           -4.1885         6.13959         -4.4726
LJ          -2.50921         1.60889         6.22754
LJ           1.99733         6.26968       -0.680357
LJ          0.251717         -4.1628         4.06781
LJ            4.4023         -4.9377       -0.163418
LJ           4.62097         -5.1776         4.21608
LJ          0.617797        -1.60317        -1.75662
LJ           -4.3156       -0.557514        -4.51433
LJ          -5.33425        -5.93189         2.88473
LJ          0.272889         4.73067        -3.25153
LJ          -3.97056        -3.67927         4.24338
LJ           5.88207       -0.040563         -3.6785
LJ           1.85801         1.23211       -0.707682
LJ           4.58937        -3.53311         1.06209
LJ          -2.30762         1.52495         3.28645
LJ          -2.48434        -2.09249          -4.382
LJ          -2.92013         3.00845        0.736181
LJ          -5.88078        0.990339         5.76603
LJ         0.0424525         3.97763        0.847255
LJ          -4.40679       -0.313844          4.2888
LJ            2.9887        -4.80202        -4.36091
