108
#Comment!
LJ             1.437         2.39497         3.39336
LJ           2.05079        -5.19197        -1.21527
LJ         -0.289332         2.48052          1.0028
LJ           2.80812        -5.30408          5.4505
LJ           2.66942        -4.66338         2.41534
LJ           4.46847         4.88856        -6.24326
LJ           3.76531        -1.22594        -5.93915
LJ          -4.58324       -0.568182        -1.01693
LJ          -3.26974         1.12225          6.3217
LJ          0.668415         1.76787        0.549263
LJ           4.21833        -3.86796         -4.3014
LJ          -2.04977          3.4767         3.46936
LJ          -2.34696        -5.34416        -4.36002
LJ          0.347811         2.96038        -4.80151
LJ           3.09334         -1.2889         5.42464
LJ           1.44992         -1.4898         4.37732
LJ           1.88336        -1.10046         -1.2749
LJ           1.07118         0.51384       -0.270137
LJ           2.46149        -3.45283        -3.03693
LJ           3.07247       -0.357961         -5.4991
LJ           5.44885        -2.84566         5.32973
LJ          -1.50302         5.35138        -3.59406
LJ           5.71047        -4.96923       -0.741341
LJ          -5.92371         -2.6283        -2.33454
LJ        -0.0794734        0.957851          2.8596
LJ         0.0921268         4.88846         5.50096
LJ           3.07799       -0.996923        -2.19899
LJ          -2.66104         -5.8541         2.61991
LJ          -6.07143        -2.14378        0.489547
LJ           4.60757        -5.42468        -1.46501
LJ           1.56279         2.06297         1.90701
LJ          -6.02204         2.17263          1.7198
LJ          0.382715        -6.16933         3.19972
LJ          -2.14549         6.25645         1.71103
LJ          -6.36086         5.05855        -5.66452
LJ           2.87386        -5.82324         4.17193
LJ          -1.74148       -0.351647         5.52826
LJ           5.07575        -6.16484        -4.13269
LJ          -5.17628        -6.17808        -5.57026
LJ            2.0399        0.960628          3.2428
LJ           6.08977         4.77391        -1.23787
LJ          -5.28325       -0.597468         5.35086
LJ          -5.51874         1.17909        -4.92714
LJ            1.8539         2.24587        0.674301
LJ          -5.17942         1.32377        -6.06332
LJ          0.647485         4.48448         6.34147
LJ          -4.97265        -5.79626         1.80547
LJ          -2.21043         6.35049        -1.98855
LJ          -1.43923         1.94223        -2.46175
LJ          -3.47843        -2.49753        0.344149
LJ          -1.92492        -2.80496         2.82279
LJ           5.36501        -4.40192        -4.94731
LJ           5.01335      -0.0405268         3.72171
LJ          -2.13007        -1.63745        -2.83717
LJ          -1.88793         6.33403         -3.1555
LJ           6.18072         3.05468         1.05467
LJ          -1.86827       0.0520509        0.719116
LJ           1.76883         5.01166        0.828027
LJ          -5.78712         0.84495         3.73994
LJ         -0.793164         -4.4685       0.0557586
LJ           3.02128        -3.63088        0.956108
LJ           6.08122         3.07699        -4.46327
LJ           1.93715         4.52066        -3.76062
LJ          -1.98925         -4.2572         3.75673
LJ          -2.58157        -2.92641          3.7072
LJ          0.819838         5.98834         2.58247
LJ           2.63344         1.01056        0.212954
LJ          0.369447       -0.997087         -3.4177
LJ          0.349728         3.59116         3.38032
LJ          -0.68912         1.64554         2.03659
LJ          -1.35607        0.819293         1.29036
LJ           5.12334        -2.86479        -4.55467
LJ           1.41531        -6.44565        0.490545
LJ           1.89913         2.51867        -4.35868
LJ          -3.34013        0.322553        -5.45643
LJ           2.94236         1.34818        -1.52882
LJ          -1.86398        -4.81866          1.7489
LJ         -0.107294         1.77303         5.37494
LJ           1.46929         3.40378        -1.01523
LJ           2.15044        -1.62416       -0.266508
LJ          -5.87621        -6.01872        -4.08023
LJ           1.33674        0.555136        -4.17621
LJ          0.595342        -2.16524         2.03914
LJ          -1.66111         4.49091         3.16859
LJ          -3.02523        -3.58459        -4.13664
LJ           3.30268         1.87127         3.00773
LJ         -0.527473        -5.85708         3.69032
LJ           1.04264         3.70483        -4.02366
LJ           5.20252         3.64386        -3.04936
LJ            1.4797         6.11597         5.01733
LJ          -2.30728         1.11742         4.00777
LJ          0.624814        -1.72299        -4.41143
LJ          -2.38349         5.36696        -3.96457
LJ           4.46852         3.80399        -5.83756
LJ            5.8093        -3.55108         3.50016
LJ          -5.50779        -4.92357         1.10932
LJ           5.85054         5.92102       -0.681486
LJ           2.18645         5.28811        -4.55473
LJ           -5.0101        -5.33974        -4.02618
LJ          -4.40173         3.30252         5.33394
LJ           2.13308         6.03354        -2.87518
LJ           5.66773         4.52629        -3.95928
LJ          -2.29674       -0.703261        -1.08076
LJ          -4.95737       -0.737984         -6.3473
LJ         -0.585392      -0.0446152         1.70856
LJ          -1.32973         5.01168         4.97564
LJ          -5.09392         -3.1527        0.483208
LJ           5.80988         1.79627        -3.80641
