108
#Comment!
LJ          0.394146         2.66041         1.52359
LJ           5.04891         1.46405         6.05284
LJ           4.64586         1.46355         2.31653
LJ           1.27002         3.20692         2.83952
LJ           2.58314        0.564715         2.39407
LJ           2.07315        -2.25742        0.926806
LJ          -4.14703          2.8733        -3.11901
LJ          -3.12816         2.79567        -1.74864
LJ           4.35778         4.81073         1.36858
LJ          -2.70866         4.38022        -2.83754
LJ          -3.29435        -2.38652        -5.35771
LJ          -2.19124         3.87516        -4.26338
LJ            2.6365         3.25374         3.00153
LJ           -1.4576        -5.17744        -2.33433
LJ         -0.721233         5.42362        -3.46984
LJ          -3.59461        -3.85783         5.85862
LJ           2.73579       0.0601832        -1.30109
LJ           5.25129      -0.0138838         2.62611
LJ          -6.25973       -0.190729         -4.9737
LJ          -3.98446        0.460592         5.40714
LJ           5.58409        -6.02872        -5.20824
LJ           1.15712        -0.14272        -1.20821
LJ           5.91444        -2.23047         5.17393
LJ          -1.83871         2.53809        -3.29451
LJ           5.45174         1.15065        -3.20274
LJ           1.88119       -0.469431         5.92642
LJ          -6.27846         1.53355      -0.0242856
LJ            -5.024         1.27086        -4.05079
LJ          0.438235         1.27182        -5.90687
LJ          0.709553       -0.864194          4.1598
LJ          -4.77334         2.21644         2.23084
LJ           -2.2611         3.98115        -1.59668
LJ           5.85498        -2.01911        -6.16166
LJ           2.52357        -4.59089        -2.05115
LJ           1.53235        -3.20733        -5.01933
LJ          -5.15197      -0.0718149         5.38969
LJ           1.56493        -5.81668        -1.84495
LJ          -1.88675         -6.2978        -4.42305
LJ          -1.12832         3.41553         2.97191
LJ          -4.90767        -4.60495        -2.34244
LJ           4.33312        -5.98947         6.43606
LJ         -0.154892        -5.34973        -2.58872
LJ          -2.61521         3.19611        -6.00172
LJ          -4.20408         2.54251        -4.27064
LJ          -3.93859        -2.18463         6.18392
LJ           2.16314        -2.25867         4.65338
LJ           5.32054        -6.21531        0.453894
LJ           4.47741        -5.03395         1.39883
LJ           -5.6125         1.73811         4.38645
LJ           5.55106        -5.27395         1.15522
LJ          -1.85489        -4.34677        -5.55953
LJ          -4.06504         1.80281        -2.51448
LJ          -3.45922        -5.39597        -2.51077
LJ           3.47638        -4.06576        0.290047
LJ          0.802169        -4.54678         3.87948
LJ           6.04312        -5.15923         6.31321
LJ           2.46511        -5.74504        -2.18298
LJ          -3.54531        -3.87476        -5.46778
LJ           3.16499         4.10761         2.69541
LJ         -0.829374         2.63956        -3.52512
LJ           -3.2827         3.99331         5.50866
LJ           3.00746        -1.17753         3.25339
LJ           3.63623         1.38544         2.65765
LJ          -5.24339         5.18171       -0.769027
LJ           3.72431         2.99274         2.74828
LJ           3.10113          4.8164         4.15868
LJ           1.44249         1.77178        -2.19339
LJ          -4.61998        -3.89435        -6.33666
LJ           4.63792        0.325458         5.83013
LJ          -2.80363         6.10865        -4.68964
LJ          -3.54302         2.71489         2.44166
LJ            3.1744       -0.667412         5.41584
LJ          -4.07591        -1.19419         4.72956
LJ           5.14551          6.1852        -5.97022
LJ          -1.36375         3.47915        -2.39262
LJ          -4.85687         1.10949         2.67107
LJ           4.86719         5.15409        -1.66072
LJ          -1.62182         3.65447        -6.36475
LJ          -2.18392         1.17327        -1.63635
LJ           -2.5921        -5.08121        -1.45139
LJ          -4.61399          4.2625        0.704638
LJ          -2.84845         5.52781         4.38581
LJ          -3.36357         -3.4386        -1.13716
LJ           1.30853         5.84981        -3.85797
LJ          -4.92519         2.17463       -0.308967
LJ            4.5925        -3.88023        -6.22114
LJ           3.78327        -6.32126         3.74103
LJ            5.9433        0.480125         3.76292
LJ            5.9747         4.10055        -2.42038
LJ          0.947791       -0.252719         6.14649
LJ          -1.71538        -1.20714         3.60752
LJ          -1.54933        -3.07781       0.0391663
LJ           2.73906         4.67505         1.61146
LJ          -2.78033         1.83179       -0.601218
LJ           2.60904         5.85667         4.42797
LJ          -5.32456         5.62791         2.39012
LJ           2.31526         3.54979         4.17337
LJ          -4.22891        -1.25499      -0.0269413
LJ           3.58888        -2.37403        -4.46386
LJ          -4.81349        -5.10071         4.95193
LJ           -2.9673         5.34372        -6.13007
LJ           2.37164         -3.2898         2.93049
LJ           5.07552        -3.42248         1.32613
LJ           1.96569       -0.131744         3.42412
LJ          -4.61632         2.41986        0.873409
LJ          -4.61083        -5.92271        -2.99487
LJ          -3.74612        -1.29058        -2.98668
LJ         -0.513556          2.6668        -4.48608
