108
#Comment!
LJ          -1.36549         4.36534         2.41691
LJ           4.76372         2.55081        -2.77667
LJ            3.8103         1.81854         3.54787
LJ          -1.70685        -1.59872        0.903205
LJ           1.45449        -2.01305         6.11333
LJ           5.53554        -2.31673       -0.344679
LJ          -1.60785       -0.158246        -4.19701
LJ           -1.3817         3.64434       -0.677819
LJ           6.18358         5.31446       -0.204865
LJ           -2.1555         2.67016       -0.924252
LJ          -2.72643        -3.83046        -5.68022
LJ          -2.62973         4.64485          4.5345
LJ          0.582939         5.19597        -5.66655
LJ         -0.218913        -3.62679        -5.03185
LJ           3.91556         -5.9421       -0.758134
LJ          -1.23046        -5.55563         5.70642
LJ         -0.735124        -4.65639        -1.80273
LJ           4.19436        0.119498         5.69456
LJ          -2.85939        -3.61141        -2.64082
LJ          -5.06403        -2.51074        -5.78321
LJ          -5.55615        -3.25591         3.13308
LJ           -5.0046         2.16548        -1.41265
LJ           2.70882         -2.9995        -4.44932
LJ           0.42672         4.11044        -2.87036
LJ          -3.78392         2.74851        -5.54452
LJ         -0.606433        -1.12346         4.24304
LJ          -5.65625         5.29652         2.40489
LJ           5.03472          2.7123        -4.31694
LJ           1.80121         4.15504         4.28207
LJ          0.721434        -1.50858         2.87336
LJ          -4.50632        -1.04298        0.270588
LJ          -1.54447        -2.09184         2.11342
LJ           1.19665        -1.33739        -5.83481
LJ           2.23122        -1.78832         1.46704
LJ           1.38569        -3.13385        -2.21332
LJ          -5.70438        -3.15204        -5.03336
LJ            -1.286         2.08382         1.08729
LJ          -2.43841         5.15582         6.01825
LJ          -1.61031         3.66947         1.55446
LJ          -2.00958         6.05167        -3.61874
LJ           4.79868        -6.32604         3.84686
LJ           1.48432        -4.88673        -3.04021
LJ           5.57105          2.0283         4.27959
LJ           -2.3617         1.10566        -2.74756
LJ        -0.0273955         2.15887          3.2607
LJ           4.12079        -1.15205         3.21256
LJ           1.91268        -2.68509         2.23966
LJ           5.23685        -5.79164       -0.117074
LJ           4.37298         3.84105          4.8422
LJ           4.25226         5.41756         3.76067
LJ         -0.706357         6.39343        -4.50788
LJ          -1.97137         3.87481        0.297654
LJ          -5.16115        -4.19993        -2.30623
LJ           1.53438        -3.86198         4.74175
LJ          0.910614        -4.38482        -6.32005
LJ           1.28569         4.56622         2.82929
LJ            1.7582          3.6915        -2.36624
LJ          -3.85219        -4.81825         5.22357
LJ           1.70168         3.77215         3.28268
LJ           2.03888         5.42723       -0.824551
LJ          -2.42547         3.85063         3.43438
LJ           4.01001         1.51211         1.42236
LJ         -0.427109        -2.73716         2.86948
LJ          -4.85376        -5.72121        0.202236
LJ            2.9907        -6.16455          4.9348
LJ           3.74738          4.4755        -6.22273
LJ        -0.0897195       -0.647568        -5.59883
LJ          -3.35246        -2.54006         5.43529
LJ           4.77581         3.00947         -1.4196
LJ          -1.42624         6.18704        -5.19151
LJ          -4.11761         2.32127          3.6337
LJ           6.40196        -1.84531         3.01845
LJ          -4.12962       -0.673355         5.99673
LJ           3.02074          -5.485        -4.18377
LJ          -1.22897         1.69651        -3.68302
LJ          -3.43362          1.8387       -0.142073
LJ          -6.29057         6.06879        -2.64999
LJ          -4.89476         2.34553         5.25088
LJ          -2.52237         2.15347        -4.12192
LJ          -1.11574        -2.94913        -1.50797
LJ          -5.79022        -5.45094        -1.01517
LJ          -1.52221         2.96662         3.51794
LJ           -2.0773      -0.0921466       -0.519869
LJ           -1.1699         2.61335        -5.99053
LJ         -0.920939         2.18457        -1.78409
LJ           5.06937        -2.69911         5.86495
LJ            6.2767        -5.45898          2.4185
LJ            4.6858         3.49052         5.74141
LJ           5.19699         6.00656        -2.65878
LJ           2.79989         1.30148         3.31546
LJ          -2.20691        -5.12809         5.05213
LJ          -3.14831        -4.05826       -0.460807
LJ          0.551418         3.13704         3.01728
LJ          -3.14929         1.83211        -4.96317
LJ           3.06541         3.41651         3.27728
LJ           6.04384         3.68788         5.72664
LJ            2.2865         5.72977        -4.86965
LJ          -1.21423         -3.0988         0.73303
LJ           5.53659        -2.78782        -5.76904
LJ           6.36639        -6.22364        -5.83731
LJ          -2.80421         2.54648         3.09741
LJ           2.84486        0.078352      -0.0621095
LJ           5.95771        -4.98248       -0.563111
LJ           2.37558        0.405388         4.80583
LJ          -4.13652       -0.321366        -2.30367
LJ          -2.44744        -5.97932        -4.26253
LJ          -3.83139        0.831263       -0.837141
LJ          0.655593         3.35819         -5.8533
