108
#Comment!
LJ          0.974602         2.48861         2.78736
LJ           1.52168        -4.82993        -1.49234
LJ         -0.409126         2.79616         1.14506
LJ           3.28423        -5.19607         5.60412
LJ           2.32812        -4.80309         1.50798
LJ           4.87389         4.57698         6.21783
LJ           4.01159        -1.74074        -5.64697
LJ          -3.28461       0.0544339        -1.11995
LJ          -3.87512         1.72209         -6.1846
LJ          0.154843         1.71251         1.34437
LJ           3.31772        -4.20419        -4.00183
LJ          -2.08613          3.5121         2.91581
LJ          -2.18213        -5.78738        -5.62072
LJ           1.25991         2.30845         -5.1071
LJ           3.86863        -1.91688         4.97147
LJ           2.03241       -0.940109         4.79865
LJ           1.61745       -0.471412        -1.22861
LJ           1.57309         1.17224       -0.154397
LJ           2.25073        -2.34609        -2.77897
LJ           3.55312       -0.441289        -5.40178
LJ           6.20819        -3.45547         5.56349
LJ         -0.841393         6.33104        -3.83592
LJ           6.28934        -5.25355        -1.00352
LJ          -5.86972        -2.28412        -2.61746
LJ          0.421891         1.53478          2.3291
LJ          -1.29894         4.59676         5.32223
LJ            2.8901        -0.77971        -1.97297
LJ          -2.30678        -5.35637         3.63275
LJ          -5.59018        -2.42421       -0.223351
LJ           4.63089        -5.86992        -1.70746
LJ           1.19189         1.19036          1.7324
LJ          -5.76474         2.13138          1.7896
LJ          0.256224         5.93264         3.22764
LJ          -2.71365         6.26521         2.20767
LJ           6.14844         6.01901        -5.68968
LJ           2.83728        -5.05382         4.37078
LJ          -1.46226       -0.186773         6.07491
LJ           5.53473         -6.1757        -5.58148
LJ          -6.02157         6.46243        -5.23874
LJ           2.02449         1.22064         3.03962
LJ           6.21936         4.95814        -1.52714
LJ          -6.02094        -1.22963         5.57333
LJ          -5.66648        0.605503        -4.89178
LJ           1.53086         1.68765        0.937326
LJ          -4.80111         1.25969        -5.41108
LJ           0.35842         4.04209         5.84019
LJ          -5.48482         6.06895         1.48121
LJ          -1.70951        -6.45754        -2.00344
LJ         -0.874664           2.103        -2.78465
LJ          -3.31259        -2.94455        0.740072
LJ          -1.19734        -3.42317         3.61173
LJ           4.81985          -4.749        -5.32536
LJ           4.63884         1.19506         3.07497
LJ          -2.93223       -0.775884        -3.44309
LJ          -2.04773         6.42278        -3.18139
LJ          -6.13281         3.18494         1.42619
LJ          -1.70451        0.037326        0.538122
LJ           1.46993         5.09909         1.63624
LJ          -5.69132        0.770413         3.98207
LJ         -0.711093        -4.49879       -0.783064
LJ           3.73605        -4.32829         1.66425
LJ          -6.00014         2.92018        -4.93073
LJ           1.89023         4.76569        -3.52169
LJ          -2.06404         -3.9153         3.94517
LJ           -2.6882        -3.09009         4.02769
LJ         -0.514253         4.75198         2.14996
LJ           2.28336        0.887448        0.571126
LJ           1.82148        -0.67706        -3.09728
LJ          0.286664         3.33235         3.23963
LJ         -0.660032        0.956767          1.6411
LJ          -1.96327         1.27804         1.51821
LJ           5.33347        -3.81336         -4.6118
LJ           1.15477         5.91024           1.004
LJ           2.14956           3.032        -3.77017
LJ          -2.77654       -0.284863         -6.2637
LJ            2.6476         1.73094        -2.01344
LJ          -2.52536        -4.69499         2.55596
LJ        -0.0970317         2.69767         5.18257
LJ            1.5847         4.34225        -1.18915
LJ           1.92716        -1.45411       -0.329655
LJ          -6.20995        -5.73978        -4.02389
LJ             1.167        0.326378        -3.81307
LJ           0.09823        -2.62207         1.82439
LJ         -0.613799         4.25111         3.09323
LJ           -3.0799        -3.54373        -4.32392
LJ           2.61067         2.66154          3.5375
LJ         -0.637304          6.3845         3.86908
LJ           1.35711         3.76102        -3.99104
LJ            5.2942         3.07296        -2.82612
LJ           1.74133         5.72974         5.50356
LJ          -2.82124         1.28955         4.12123
LJ          0.394836        -1.90974        -4.09719
LJ          -3.14266        -6.18975        -3.79904
LJ           4.74677         3.52528        -5.82932
LJ           5.39351        -4.33907         4.09382
LJ           -5.9288        -4.58597         1.26001
LJ           6.15282        -6.21978        -1.02974
LJ           1.61236         5.70781        -4.21189
LJ           -4.7973        -5.24046        -3.72774
LJ          -4.24795         4.10766         6.03168
LJ           1.74953         5.47767        -2.52799
LJ           5.21676         4.12955        -4.44933
LJ          -2.58228        -1.71296        -1.48392
LJ          -5.22118       -0.411398         6.30035
LJ          0.590051       -0.459382         1.63919
LJ          -1.53929         5.80926         4.96905
LJ          -4.15763        -3.32115        0.286046
LJ           5.69202         2.16317        -4.09574
