108
#Comment!
LJ           5.22112        -3.53214         5.10197
LJ           -6.3788        -6.07086        -4.70697
LJ          -1.15297        0.309258         1.93885
LJ           2.35847       -0.828526          3.4638
LJ           3.18374        -1.35363         2.27839
LJ          -1.76669        0.103853         3.05479
LJ          -3.83143        -5.52939         -3.9726
LJ           4.93642         5.41584        -5.53467
LJ          -2.15641         3.28703         4.12345
LJ           1.43517        -6.00251        -6.13111
LJ          -5.43955         2.23371        -5.24572
LJ          -1.08234        -3.28649        -5.36288
LJ           2.36335         4.88858        -4.43974
LJ          -1.06437        -3.37603         1.13832
LJ          0.182343         1.01555         1.38908
LJ          -6.27697         3.61389         4.17697
LJ          0.106804         3.15045        -2.56241
LJ          -2.12136        -3.26168         -6.1688
LJ          -1.03429        0.780485         3.72558
LJ           3.35625         2.54497         3.04166
LJ           2.78873         4.69702        0.494586
LJ          0.181867         2.32157        -5.63557
LJ          -6.24887        -4.41886        -5.56072
LJ          0.836915        -3.54949         2.52345
LJ          -1.71705         5.62154         5.18239
LJ           1.69074         3.53098      -0.0468089
LJ          -5.76958        -2.00397         5.73467
LJ          -1.81022         5.78289       -0.885537
LJ          -3.62258         5.55089        -1.27364
LJ         -0.753067        -5.25469        -1.99705
LJ          0.792075         2.50781       0.0841031
LJ          -5.32886         6.15515          2.9642
LJ          -2.34228        -5.98518        0.406219
LJ          -3.81165        -4.41493        -5.89067
LJ           1.03225         4.85549        -2.96119
LJ           2.86312         5.75837          2.4985
LJ           2.87375         6.04475        -4.82481
LJ        -0.0154945        -3.37752         1.78094
LJ          -3.13763        -3.39787         6.33523
LJ          -5.03666        -1.63076         3.80119
LJ          0.125612        -2.17035       -0.457815
LJ           2.60809        -4.05252         1.14132
LJ          -6.32679         4.22394        -4.80615
LJ         -0.554877         5.88462         1.40239
LJ          -1.96423         2.43307         -6.3094
LJ          0.111334        0.137798        0.761952
LJ           3.34433        -3.36992         1.78779
LJ          -2.59334        -6.30145         4.91954
LJ          0.960731        -4.19702        -5.03749
LJ           2.33899         5.10377        -3.45811
LJ          -2.30088         -3.9505        -4.06232
LJ           4.81311          -1.423         1.04736
LJ          -3.22635        -1.84165          2.8542
LJ           -1.2853         4.68661        0.620487
LJ           5.26185        -4.81495        -5.44355
LJ          0.194193        -2.33047         4.99732
LJ           5.95819        -1.84617        -2.79554
LJ         -0.795922        -3.54581        -4.43848
LJ           -4.4833         5.18536         -4.5347
LJ          -3.80419       -0.607156        -4.83975
LJ          -4.29333       -0.322145          1.7909
LJ          0.958348         0.99354        -4.69603
LJ          -4.77811        -5.56976        -6.24405
LJ          -1.45178       -0.927881        -5.86116
LJ           6.12938       -0.694933        -4.63767
LJ          -3.39826         5.35066        -3.98197
LJ           1.11638         4.46843        0.221034
LJ           2.97196         5.57907         -6.2025
LJ           5.63931       -0.636288        -6.05275
LJ           2.16192         1.13101        -5.12935
LJ        -0.0870737       -0.893249         4.86316
LJ         -0.499076        0.727374         2.60311
LJ          -4.44457        -5.29711        -4.94918
LJ           4.17234         2.42973       -0.825009
LJ           1.13302        0.315545        -6.24582
LJ           5.46735         4.21488         3.97688
LJ          -3.37487        -4.76679        -1.55556
LJ          -5.09858         4.95614        -5.65385
LJ           3.29818         3.01579        -2.98312
LJ          -1.39817        -4.07894        -3.43226
LJ          0.349787        -3.58386        -4.39351
LJ         -0.463915         1.42468          5.6893
LJ           1.40432        -4.53501         2.37693
LJ          -4.14959        -2.34226         2.84259
LJ           4.73978        0.945915        -1.86371
LJ         -0.235955       -0.176864         6.00663
LJ           3.76069        -4.35789         5.62813
LJ          -6.34551        -5.88379        -3.20787
LJ           6.01605         1.97575        -5.65123
LJ           3.77093        -6.11036        -3.32493
LJ           1.15747        -3.83217         1.06949
LJ           1.71152        -2.25104         0.47263
LJ           5.36646        -4.66523         5.69198
LJ           2.40799        0.434812         6.44321
LJ          -2.99746        0.197361        -3.20986
LJ          -3.91742        -3.16667          4.4717
LJ          -4.16923         -6.2939         -1.7096
LJ          -4.54246        -3.39579         3.55312
LJ          -5.38881        -4.24421          -5.139
LJ           4.10517         1.61553           2.295
LJ          -4.64654       -0.679746        0.720931
LJ          -1.76841         1.00808        -6.06991
LJ         -0.563661       -0.657205       -0.966305
LJ          -1.58893         2.13431         2.26696
LJ           5.78895       -0.131135          5.8823
LJ          0.569765         5.49437         1.46114
LJ          -4.54322         2.29167         2.22602
LJ           4.94606        -3.62669        -5.04975
