108
#Comment!
LJ          -6.15874        -1.15873        -5.87663
LJ           0.31807          2.9064        -4.00214
LJ          -5.22414         2.24657         3.26567
LJ          -1.72073         2.89252         1.64091
LJ           6.02058         2.44596        -1.05325
LJ           6.12263         2.06684        0.789592
LJ           1.28633         4.15571        -5.84739
LJ           3.90393         3.13677        -5.70048
LJ           3.56823        -3.56785         1.70231
LJ          -3.18171         3.32339         2.45515
LJ           5.33357         1.40865        -3.26257
LJ          0.508349         1.61494         -4.1518
LJ         -0.796176         2.17839        -6.24978
LJ            4.5046         2.27687         5.83952
LJ          0.759018         3.97789         6.22291
LJ           -4.4647         3.93609        -0.61639
LJ          -1.39384        0.185136        -2.70643
LJ          -2.97996        -5.34122        -1.62916
LJ          -4.21019       -0.167293         4.13405
LJ          -3.11324         4.69375        -1.61377
LJ           1.07465         5.27912        -6.14914
LJ         -0.444475          2.9432         3.20681
LJ           3.33292        -4.36217         2.62915
LJ          -4.05322        -4.78065        -2.25459
LJ          -5.65746        -1.27729         2.15721
LJ          -2.44891         4.00579         6.31268
LJ           3.53243        -4.71856         -3.5231
LJ          -2.87777         5.59001          2.4037
LJ          -6.31863        -6.37175       -0.521007
LJ         -0.544473        -2.28548        -0.26195
LJ           3.21049        -4.42686        -1.75421
LJ           1.35543         1.07039        0.354118
LJ          -2.73574        -2.53051        -3.52166
LJ          0.282448         -4.4003        -4.45251
LJ          -5.95389       -0.898364       -0.712033
LJ          -2.26493         4.26106        0.315471
LJ          -2.54314         2.86017         5.37098
LJ          0.824508        -4.87937         -6.3996
LJ           1.99632         5.55964         3.08333
LJ         -0.314293         5.57148         5.62832
LJ           4.62035      0.00893913         2.41061
LJ          0.395774        -6.34213         3.97854
LJ           5.76446      -0.0524314        -1.63919
LJ           3.86953        -3.84653        -0.74032
LJ          -2.13755        -6.06631        -2.87245
LJ           4.80904        -2.16752       -0.499695
LJ           4.38691         2.05069         2.21825
LJ           -4.5573        -6.16836        -1.79625
LJ           5.13835        0.922524         1.79219
LJ           5.96671         2.10575        -2.24101
LJ           1.88873         1.68417        -3.14155
LJ          -6.16038        -2.47768         4.41351
LJ          -4.36909         1.31116       -0.607641
LJ          -4.72487         3.01787      -0.0472459
LJ          -1.81772        -3.07872         1.10057
LJ           3.71819       -0.630698         1.19011
LJ          0.514258        0.688463         1.49245
LJ           5.46532        -6.27339         4.64108
LJ          -3.87819         4.38555        0.881221
LJ           2.26605         2.88508         4.89222
LJ          0.238169         6.20235         -3.9658
LJ          -3.19124        0.340901        -2.15388
LJ          -1.91565         1.92764       -0.706839
LJ        -0.0127289        -4.03021        -2.54531
LJ          -1.34034         6.33295         2.59507
LJ           -6.3425        -2.07472        -5.63061
LJ          -4.94972         1.34415         4.48512
LJ           1.34579        -3.81629          -3.044
LJ         -0.827803        -3.81789         3.81846
LJ          0.551136       -0.656195        0.600382
LJ           5.86165         5.48862        -6.04328
LJ          -6.45145         2.33524        -3.62326
LJ           1.62638         5.97414         -2.5697
LJ          0.222429         1.91521         6.28542
LJ          -2.28275        -6.25404        -1.66236
LJ           6.21885        -2.46044        -2.78448
LJ           0.29823        -4.96546        -2.13199
LJ           3.19072        -6.33589       -0.451608
LJ        -0.0700737         3.07404        -5.50854
LJ          -5.75311        -3.23305        -1.71322
LJ           2.41546        -3.97995        -4.74629
LJ         -0.698035       -0.844353        -5.81069
LJ           4.83869        -1.15714        -1.66285
LJ           1.62693        -3.44133         4.14347
LJ          -1.91117        -5.79539       -0.599224
LJ         -0.203911       -0.545218         1.29325
LJ          -5.48909       -0.593076        -3.19722
LJ           2.16092        0.301003         6.31006
LJ          -6.34547        -3.57633        -4.89051
LJ           3.90688        -3.69357         0.36716
LJ          -1.62379        -2.12965         2.39966
LJ         -0.599033        0.220284           4.228
LJ          -3.56595        -4.27791         6.13749
LJ           3.30525        -6.41826        -4.44753
LJ           -2.6015        -1.14144           1.105
LJ          -1.73322         4.66197        -2.00745
LJ           0.70573       -0.267617       -0.345871
LJ           3.01126         5.62081         6.32633
LJ          -2.75321        -3.80006        -2.76286
LJ           6.00027         4.64549        -2.82131
LJ         -0.543621         1.72089         5.33443
LJ          -2.35086         5.84098         1.38842
LJ          -1.18037        -5.97591        -3.54444
LJ          -1.00044        -5.85267        -5.68133
LJ          -2.37701          2.4003        -5.90759
LJ           1.01932        -2.83991         2.82429
LJ           2.30675         2.58682          6.0103
LJ          -1.81937        0.273484        -5.68648
