108
#Comment!
LJ             6.064        -4.12374         4.59627
LJ          -3.83121         5.57935        -4.58963
LJ          -2.06127         2.77269         1.92132
LJ           4.10811        -2.97093         3.88166
LJ           3.15532        -1.76396         -4.2862
LJ          -1.16092         1.47657         3.73543
LJ          -5.22634        -3.39638        -5.20491
LJ          -6.45453         4.86347         2.78832
LJ          -3.65427         3.00035         2.81824
LJ            3.3899         3.28597        -5.50771
LJ          -5.63823        0.210989        -6.02441
LJ          -2.02517        -4.30142        -5.90893
LJ           2.13128         4.76325        -3.67872
LJ          -5.42748        -3.04088         1.28306
LJ            3.4876       -0.265408         1.17389
LJ            5.4223         3.19808         3.08544
LJ           2.49217         1.66558          1.0383
LJ          -5.36117        -4.30258        -6.22514
LJ          -2.23475        0.822596         4.47427
LJ           4.80046         1.25717         1.60204
LJ           2.68704          4.2875        -1.25315
LJ          0.123621         2.77581         6.01286
LJ          -6.24242        -3.21415          5.6974
LJ            3.7643        -3.55178        0.588623
LJ          -2.31953         5.35646         5.15315
LJ           2.73997         5.89759         3.34685
LJ           5.57569         1.82855         5.55672
LJ          -2.25272         6.31943        -1.34161
LJ          -3.01625         4.74659        -1.12839
LJ            2.4366         4.66949        -2.51604
LJ          -0.61992       -0.475073         1.68654
LJ          -6.00218        -6.16438         1.35909
LJ          -1.90218        -4.98241         2.37704
LJ          -1.31475        -4.74266        -4.52942
LJ          -1.51794        -5.68493        -4.94511
LJ           1.45241         6.17569         1.96322
LJ           2.20723        -5.58346         6.42455
LJ          -1.87191         1.17704         1.21104
LJ          -3.06678        -4.18147        -5.58542
LJ           5.50341       -0.359163        -5.22885
LJ           1.11032         2.04533        -3.71627
LJ           4.92237        -4.12692       0.0868221
LJ            5.9196        -6.28289        -4.81489
LJ          0.514715        -4.29689      -0.0675949
LJ          -3.15013          3.2608         6.20366
LJ           4.64739       0.0816218        0.853412
LJ           3.14384        -2.76923         5.85544
LJ          0.116269        -5.79779         3.57545
LJ           1.15965        -5.83085        -5.49142
LJ         -0.690957         5.07776       -0.105835
LJ           -3.4288        -5.57743        -3.74534
LJ           5.24358        -3.44454        -0.95468
LJ          -2.88296        -3.33343         1.36028
LJ           1.04691         4.08796       -0.163815
LJ          -5.25417        -2.75797         6.22657
LJ           2.94207        -5.95238        -3.41328
LJ          -4.56099        -6.24481        -1.99123
LJ            2.2619        -4.51752        -2.81866
LJ           -4.3862        -5.78708        0.190093
LJ          -4.43283        -3.96178        -3.10387
LJ          -5.85369         1.72195        -1.36849
LJ           2.69083       -0.896452        -4.38642
LJ           5.92845        -3.47588        -4.33358
LJ        -0.0815853       -0.648934         5.38265
LJ           6.13275         4.29617        -3.38728
LJ            5.5026         4.52495        -1.84733
LJ         -0.763349          6.2512       -0.262912
LJ           5.58779        -4.85339        -5.20635
LJ            5.9865        0.801718        -6.21364
LJ          -1.04057         3.53627        -2.82701
LJ          -0.58497        -1.22672          3.1343
LJ          0.589599        -0.24574         4.23796
LJ          -6.44994         -6.2917        -3.80057
LJ           1.09183       0.0499508        0.289337
LJ          -2.53125         1.40068        -4.68902
LJ           5.38387         4.55807         2.61916
LJ          -2.02196        -3.78722       -0.207351
LJ          -4.63424         5.11086        -6.23432
LJ           1.37517         3.94353        -4.81934
LJ           3.70741        -3.10959        -3.38965
LJ          0.474255        -4.96736        -3.18368
LJ          -3.84923         1.68613         5.39841
LJ           2.95109        -2.54777        0.706399
LJ          -4.10344       0.0283838      -0.0547339
LJ              4.06         2.50349        0.545885
LJ          0.276599        0.992224        -3.70132
LJ           4.29139        -5.95463        -5.94168
LJ          -4.48849         6.36085        -4.08187
LJ          -3.38854         1.03887         6.42646
LJ           2.38046         6.43269        -1.15319
LJ          0.315113        -4.05264         3.50027
LJ           3.70084        -4.63533       -0.216937
LJ           4.76617        -5.21058         4.68888
LJ          0.296428        -1.16011        -2.64639
LJ          -4.32681       -0.195125        -3.60438
LJ          -4.63321        -5.92175         3.46826
LJ         -0.720625         4.49962        -2.84709
LJ          -4.11003        -3.60315         4.07316
LJ          -6.42439       -0.780893        -3.86408
LJ           2.49125         1.23256       -0.463662
LJ           5.38497        -2.87819         1.15831
LJ          -2.79082         1.44697         3.61077
LJ           -1.6072        -1.60007        -3.79046
LJ          -2.65089         2.91187        0.945701
LJ          -6.43794        0.556625         5.83837
LJ          0.153571         4.30563         1.26767
LJ          -4.49773        0.158004         3.85426
LJ           3.42757        -4.44659        -4.72648
