108
#Comment!
LJ          -4.13921         -3.8135         2.96848
LJ          -2.09552         5.79791        -4.72561
LJ         -0.461399        -5.26779        0.120137
LJ          -6.38789        -5.81221         5.34348
LJ          -6.06282        -2.43905        -2.59593
LJ          -2.54735         2.11053         4.35669
LJ           5.19611        -2.56191        -3.93066
LJ          -5.16629         4.53363        -3.10137
LJ            5.5854         3.67738         2.36719
LJ          -6.31742        0.497081        -4.25474
LJ          -6.00299        -1.83858         2.99071
LJ          -1.61722        -5.13404          5.7515
LJ          0.794414         2.78441         5.05442
LJ           1.90473        -3.10733        0.539399
LJ          -4.64568        -2.85798        0.197202
LJ           3.28513         3.61919         1.58848
LJ           5.24702        -1.49543         2.60462
LJ          -4.84154        -5.72281         5.26951
LJ          -2.56728         2.90896         2.33623
LJ          -3.38418         1.20539         1.68575
LJ           5.38926         2.60384        -1.42784
LJ          -1.43471         4.11063         5.33393
LJ          -5.79164         1.40546         5.17982
LJ           6.37549        -6.11358        -1.81092
LJ          0.156957         4.32509         6.23606
LJ           3.14973        -2.50536        -4.86177
LJ           5.19424         1.69998        -4.83199
LJ          -3.42843         3.65571        -1.99902
LJ          -2.58275        0.818361       -0.481358
LJ           6.43595          2.4441         -1.6457
LJ           -4.0395        -5.30515         3.22946
LJ           5.71495        -5.28948       -0.399739
LJ          -2.75978        -1.01316        -5.01412
LJ           1.69164         -3.6661        -3.06788
LJ          -4.63287         6.08976         5.88526
LJ         -0.843997        -6.02069         1.14438
LJ           1.39104        -5.05826        -5.99342
LJ           -3.4829         3.02359       -0.026934
LJ          0.551883        -3.26468         5.35077
LJ           2.35984         1.95216        -1.43333
LJ           1.60815         5.99287         5.60405
LJ           5.36284        -3.17567        0.457886
LJ           -5.7156       -0.851667        -4.07052
LJ           2.44734        -4.80423       -0.868819
LJ            6.3026         5.22794         5.03259
LJ          -3.98236        0.261715        0.806454
LJ          0.543088          5.2663         2.45376
LJ           2.86785        -4.99205         1.37665
LJ           2.16721        -4.97449         5.69199
LJ          -4.81682        -6.06117         3.00153
LJ          -5.30228         5.44419        -3.71149
LJ           4.75636         5.93564        -0.53161
LJ         -0.772235        -4.51736       -0.843474
LJ           2.07486         5.36578        -0.81925
LJ           -4.9574        -2.55576         6.32363
LJ           2.83568         4.94934         2.59965
LJ          -2.14662         4.80773        -3.58027
LJ            5.4231         6.41405        0.405815
LJ          -3.27011        -4.11992          5.5524
LJ          -5.19053        -3.65864       0.0210041
LJ            2.4275         4.75696        -1.52078
LJ           3.16218        0.516837        -4.71744
LJ            -4.918        -3.42325        -5.32324
LJ         -0.466118       -0.769764         6.15999
LJ          -5.27237         3.94091       -0.154469
LJ           2.97076         2.71316        -2.96369
LJ           -1.2647         5.67673        0.909287
LJ          -4.98749        -5.10506        -1.30802
LJ           4.12008          2.6553         5.61675
LJ          -4.14143         2.96569       -0.887787
LJ          -1.42858       -0.743168      -0.0267014
LJ           3.26108        -1.01741          2.6781
LJ           1.05698        -4.27915        -4.03459
LJ            -1.103        -3.37467        -1.03564
LJ          -6.01405         3.82135        -3.08701
LJ           4.80013         3.98302         1.10721
LJ           -2.8549        -3.61465         2.53438
LJ          -3.75458         5.25319         -6.1434
LJ           1.18493         6.44595        -4.13419
LJ            3.6178        0.268977         -2.5163
LJ           1.32496        -5.31673        -2.25838
LJ          -3.57606        0.760732         5.06919
LJ          -4.47377        -1.89436        -2.50836
LJ          -3.59849         2.80598        -4.29027
LJ            3.3691         3.53479         4.19626
LJ           2.74045       -0.354079        -2.51467
LJ           5.41041         4.24847         -2.4573
LJ          -2.33299         4.50607        -6.22097
LJ          0.907949         1.96828         3.26048
LJ          -1.62068         5.97924         1.83166
LJ         0.0838529        -4.53146         5.84394
LJ          -5.98148        -4.79879       -0.864811
LJ           3.83881        -5.75235         2.09636
LJ          0.748923         1.05918         1.52171
LJ          -3.98015        -2.92984        -5.50561
LJ           4.11853        -6.22703      -0.0415373
LJ           2.59426        -6.03991         -4.7369
LJ           -2.3102        -4.67877         2.92358
LJ           1.31986         2.62327        -3.03099
LJ          -0.44947         2.61873         2.32902
LJ           3.13218        -6.45787       -0.219183
LJ          -2.45301         2.09638         5.69194
LJ          -6.40615        -4.11566         5.76892
LJ          -5.56256         5.96386         3.03739
LJ           6.06218         1.80276           -6.43
LJ         -0.595073         2.90514       -0.973646
LJ          -4.60358        -1.64299         3.68028
LJ           1.22731        -6.19791        -2.86717
