108
#Comment!
LJ            1.2042        -5.04374        -0.85241
LJ          -2.54604       -0.618494        -1.10382
LJ          -3.00057        -6.25822          4.3317
LJ           -5.6727        -4.83973         -5.7787
LJ          -1.86262         6.36428        -2.99091
LJ          -4.19009       -0.664646          2.1999
LJ           6.44564        -2.69287         -4.2059
LJ           2.70778          3.0957       0.0221662
LJ          -2.46434        0.212993         1.65818
LJ           1.58581         2.84867        0.605192
LJ         -0.215096        -3.56739         6.31254
LJ            6.0769        0.302505         3.10174
LJ          -5.54083         5.80785         2.56752
LJ          -3.41177        -1.87679        -6.05768
LJ          -2.34057         5.01954         2.74154
LJ           6.15192       -0.609969         6.32646
LJ          0.678437        -3.44876        0.627084
LJ           2.79309         2.19086         1.61271
LJ           4.16283         6.34197        0.378608
LJ          -6.45905        -4.28727        -3.86048
LJ          -1.76837          4.4658        -6.03718
LJ           1.34933        -1.08877       -0.782281
LJ          -3.45343       -0.483234         1.14894
LJ          -4.80488       -0.652861        -4.49718
LJ          0.167162        0.763828        0.218841
LJ           6.21732         1.37347         2.86198
LJ           2.68457         1.33855       -0.289131
LJ          -2.50196        -2.55822        -5.71361
LJ         -0.902444        -1.56065         -4.3012
LJ           5.44374         4.04226        -4.41181
LJ        -0.0759267        -2.28135         0.25133
LJ          -2.96679         3.29597         4.22558
LJ           3.39114         5.46713          5.7876
LJ           5.82829        -5.52033         5.70033
LJ          0.836415         3.83939         3.85964
LJ           3.10956        0.225166         5.27053
LJ          -1.37033       -0.389252        -3.10051
LJ          -4.11571        -1.44392         1.02459
LJ          -3.44576        -6.11359        -2.56695
LJ           2.85062         2.96314         2.25343
LJ          -4.46174         5.12212        -4.91263
LJ           1.85363        -5.36809        -5.01062
LJ          -3.99455        -1.36263        -4.52851
LJ           1.76105         2.68848         1.85232
LJ           4.17082         1.63019        -2.11468
LJ           1.09453         6.30175          5.2188
LJ           3.49594        -2.50514       -0.999091
LJ          -1.41769         -5.7153        -2.41269
LJ           1.74034          3.8419        -2.24265
LJ          0.169838        -5.78868         4.67103
LJ           2.38113         4.82632        -5.26757
LJ          -1.54771        -3.33597        -6.10101
LJ           6.19782        -2.16624       -0.914877
LJ          -3.24984       -0.958028        -5.24863
LJ          -1.08718       -0.317199        -4.69572
LJ          -1.67247         2.24707         4.70134
LJ          -1.48536         2.15951        -3.09681
LJ          -3.81265         2.42011         5.64442
LJ          -3.94548         2.85318         4.38878
LJ          -3.46813         4.94952        -2.21324
LJ          -3.17868        -4.16316          2.3093
LJ           3.76737        -3.94703        -3.16273
LJ           4.31077         5.08524        -5.64723
LJ           -3.4232       -0.770977         5.22453
LJ          -3.63307        -1.34592           4.201
LJ           -2.0404       -0.966167        -2.41128
LJ          0.465307        -1.73587         2.26474
LJ          -2.98029        0.659247        0.352672
LJ           -2.1288       -0.952796         1.11329
LJ          -2.05229        -5.48793        0.890288
LJ          -4.05768         4.59004         3.92015
LJ           4.34887         3.27414        -3.97173
LJ           1.25545         3.66195         2.71133
LJ            2.6763        -6.38729        -3.92504
LJ           4.28865        -4.36188         1.28745
LJ          0.924598         4.92662        -4.99127
LJ          -4.19421         6.09399        -4.67587
LJ          -1.05452         5.24498        0.112299
LJ          -0.91326         4.27908         2.78397
LJ           1.37882         5.02786       -0.466313
LJ           3.26671        -3.24852        -1.77215
LJ          -3.57254        -3.81282        -2.80998
LJ          -4.27813         6.20949       -0.606397
LJ          0.213644         1.08822       -0.800175
LJ           -1.6237        -1.73251          5.7753
LJ          -3.24848         3.40345        -2.46009
LJ          -2.79567         2.45647        -5.89756
LJ           1.48537         3.76768         6.28129
LJ           5.18403       -0.594684        -2.74702
LJ           5.74616         5.66837         -5.3483
LJ           5.76566        0.966351          5.0903
LJ           1.09535        -2.34934       -0.399384
LJ          -5.36111         3.75469        -1.85511
LJ          -5.92335         1.79962        -4.67899
LJ          -4.35516          4.0656        -6.28048
LJ            4.1007         -1.4801         1.46595
LJ           5.93255         -4.3273        -5.12852
LJ          -2.37274         6.27305        -4.14387
LJ          -3.97278        -5.18056        -2.41277
LJ          -3.79039        -3.40221         0.18614
LJ          -2.54287         5.06647        -3.78269
LJ           4.53599         4.30515         -6.2722
LJ          -3.45221         1.72517        -5.41856
LJ           5.28209         1.87501          4.7593
LJ          -3.60592        -5.82028         1.54255
LJ          -1.01691        -5.05849        0.206156
LJ          -1.00425         -4.1311       -0.118072
LJ           3.86055         5.75022        -3.72029
