108
#Comment!
LJ           1.56328         4.06979        0.543142
LJ         -0.385184        -2.95465        -1.67509
LJ          -1.58312         4.29391         2.59365
LJ           5.15654        -4.75136        -6.34699
LJ          0.275927        -5.99565        -1.12461
LJ           6.29694         2.24894         4.14969
LJ           4.66255        -2.38559        -4.64386
LJ          0.960954         2.32644        -1.63103
LJ            -3.485         1.21401          5.7383
LJ          0.329932         1.74198         1.17484
LJ          0.445201        -4.75808        -3.54151
LJ          -3.68095         2.45609         3.28115
LJ          -1.88979         5.20839         3.94586
LJ           4.69697        0.323533        -5.77345
LJ          -6.29927        -4.15122         3.57179
LJ           4.12331         1.00492         6.32294
LJ          0.882605        0.955224       0.0366503
LJ           2.50171         2.35576        0.652695
LJ           3.25131         1.27911        -2.33828
LJ           5.41502        -1.92096        -5.19819
LJ          -4.37634        -5.65867         6.14689
LJ          0.479996        -3.39811        -3.33377
LJ          -4.61492        -3.25778         -1.8842
LJ          -5.59761        -1.12092        -3.55296
LJ          -1.03287         1.60209         2.90553
LJ          -5.65994         3.94928         4.67571
LJ            2.8136        0.115321       -0.758209
LJ          -2.41863          -3.915         5.23419
LJ          -3.09022        -3.16006        -2.78095
LJ           5.49833         5.30868        -2.22853
LJ          0.230569       -0.995962         1.08295
LJ          -4.72168         2.40378         2.17847
LJ          0.527508         6.16155         3.81367
LJ          -4.57633        -6.31491         4.21239
LJ           5.60887         4.27061         5.07144
LJ           2.89994        -2.71057         4.70462
LJ          -1.65467       -0.121032        -5.19866
LJ          -5.02694        -3.96324         3.64585
LJ          -5.47311        -6.43781        -4.05998
LJ           1.77258         2.50349         2.50468
LJ          -6.21931         5.07798         -2.7453
LJ           4.59256         -3.0126         6.39083
LJ           -4.1051        0.194901        -4.94732
LJ           1.49517         1.98506        0.333407
LJ          -6.35473         1.83838         -3.4123
LJ          0.330015          5.8576           5.845
LJ           5.71369         2.38558        0.390716
LJ         -0.322674        -5.72652        -3.44087
LJ           1.35916         2.79458        -4.04288
LJ          -1.73354        -4.05817         2.57968
LJ          0.507035        -5.46534         6.20274
LJ            2.2083        -4.94817         -6.3478
LJ           3.56541         5.45266        0.895845
LJ          -4.46796       -0.626316        -4.11922
LJ          -1.83504        -5.80769        -3.08763
LJ          -4.14769         3.32389         2.59226
LJ          -1.24511        0.759419        -0.22505
LJ         -0.909351         4.57924         3.95567
LJ          -5.10586        0.534558         4.87624
LJ          -1.72379         -5.3293        -4.16027
LJ          -5.81286        -5.95266         3.55881
LJ           6.13204         4.90806        -5.00025
LJ           2.52608         4.00559        -3.68654
LJ          -2.24553        -2.32966         4.28815
LJ          -2.99014         -3.0521         4.78311
LJ          -1.86998        0.810007        -1.26153
LJ           1.86614       -0.691111         1.86244
LJ           5.65287      -0.0550597        -1.55433
LJ          0.161814         1.08408         2.25459
LJ          -2.36899        -1.96261         1.54381
LJ          -2.11826         2.66818         2.44266
LJ           5.48884         6.32695        -4.12593
LJ         -0.155178         4.70774         2.69196
LJ           2.35856         4.98607         -2.6737
LJ          0.158226        -1.73082          4.0161
LJ           1.79046          3.3078        -2.96084
LJ          -3.41848        -4.27383        -5.35867
LJ         -0.869243         3.50531         2.10362
LJ            2.2275         5.12696        0.952573
LJ           1.10234        0.534403        -1.34529
LJ           5.03099        -4.33341        -2.77342
LJ         -0.553889        -0.79613        -2.61378
LJ          -1.76827        -4.16036         1.03102
LJ          0.499528         2.77285         1.87268
LJ          -3.47719        -3.66211        -4.46683
LJ        -0.0893466         3.80501         6.00093
LJ          -1.88563         4.27366         5.46586
LJ           1.17359         3.53343         -4.9149
LJ           5.83667         1.07283        -3.06342
LJ           2.50975         4.34488        -5.77714
LJ          -4.64682           1.856         4.50511
LJ         -0.183963        -2.30945        -2.72686
LJ          -4.03563        -1.38302        -2.73013
LJ           5.58607         2.82278        -5.64754
LJ            1.9742         6.10716         4.96205
LJ           5.54239         -3.5794         1.83664
LJ           6.09644        -5.73882        -2.53731
LJ         -0.122234         6.24333        -2.83897
LJ          -4.75608        -5.03995        -2.86226
LJ           -3.7285         -6.0703        -4.48832
LJ         -0.733221        -5.15664        -2.01968
LJ            4.4953         2.40655        -5.82687
LJ          -3.69247        -5.52137        -2.90208
LJ           6.40761        0.541426         5.54836
LJ           4.87127        -2.32591         1.06889
LJ         -0.650578         -6.1339         3.19357
LJ          -2.36737        -3.98805        -1.16138
LJ           5.08625         4.40122        -4.77884
