108
#Comment!
LJ         -0.238607         3.65808           1.702
LJ           4.86462         2.07551        -5.21805
LJ           4.40302        0.655069         3.25704
LJ         -0.157803         1.08133         1.79363
LJ            1.8246       -0.921356         3.67815
LJ           3.68819        -2.22988        0.263032
LJ          -2.46945         2.07897        -3.70952
LJ          -2.05535         3.23153        -1.48183
LJ           5.15498         4.99007        0.645154
LJ          -2.63102          4.1896        -2.06695
LJ          -2.93142        -2.88301        -5.28614
LJ          -2.29512         4.10229         -5.8646
LJ            1.5509         4.40079         5.16068
LJ         -0.902029        -4.41814        -3.62462
LJ          -0.16039        -6.34871        -1.76254
LJ          -2.40494        -5.12469         6.34636
LJ           1.27693         -2.0102        -1.51221
LJ           5.26048        0.318485         4.45521
LJ          -4.77152        -1.71016        -3.92639
LJ          -4.60649       -0.703268        -6.39486
LJ          -6.29847        -4.89565         5.73694
LJ          -1.53345        0.766901        -1.29813
LJ           4.30895        -2.34727        -6.45036
LJ         -0.538917         2.83308         -2.9174
LJ          -5.85978         1.30387        -4.21966
LJ          0.881845       -0.929328           5.197
LJ          -6.09116         3.22322         1.04079
LJ          -6.24387         2.51846        -4.20772
LJ           1.28357         2.36842         5.61759
LJ          0.551246        -1.13571         3.94986
LJ          -5.10705         0.65271         1.21323
LJ          -1.75868         -5.7198       -0.183177
LJ            3.7184         -1.5251        -6.00446
LJ           2.36539        -3.54046        -0.54913
LJ           1.51039        -3.12529        -3.82958
LJ          -5.30076        -1.51314         6.42549
LJ          0.284814         4.95226       -0.394415
LJ          -1.71285         6.22165        -5.37547
LJ          -1.58236         3.32053         2.59359
LJ          -4.20164        -5.70571        -2.94213
LJ           4.75383        -6.19461         5.14627
LJ          0.632896        -5.13262        -2.82006
LJ          -4.74371         2.28181         5.55545
LJ          -3.32833          1.3111         -3.9706
LJ          -2.57259        -0.34473         4.90623
LJ           3.32019        -1.88446         4.00116
LJ           3.46312        -5.42552         2.21199
LJ           4.90445        -5.32019        0.634152
LJ           6.07249          2.9046         4.71117
LJ           4.76443         5.74756         2.95411
LJ          -1.71778        -5.47649        -5.93026
LJ          -3.40981         2.81629        -1.45048
LJ          -4.15937        -4.97745        -1.81296
LJ           2.84694        -3.99273         2.48896
LJ           1.03457        -4.40014         4.71351
LJ           3.61458        -5.50479         3.84822
LJ           2.33486         5.77796        -2.38058
LJ          -3.31002         -4.3964         6.39438
LJ           2.61917         3.85933         2.53524
LJ          0.542142           4.054        -2.10383
LJ          -2.63849         4.44502         4.60567
LJ           3.50584      -0.0664915         2.23513
LJ           1.60582        -0.22768         2.18335
LJ          -5.17168        -6.43015      -0.0394948
LJ           2.72811         4.41344         4.42832
LJ           4.03383         4.82101         4.38186
LJ          0.589915         1.33093        -4.16267
LJ          -3.82463         -2.9599         5.96078
LJ           4.59491          1.3424        -4.43663
LJ          -2.83155         6.02936        -6.17851
LJ          -3.73632         2.62569         2.97693
LJ           4.17257       -0.385932         3.99143
LJ          -4.14368       -0.939053         5.05253
LJ           4.15659        -6.16968        -5.10723
LJ          -1.42467         3.27333        -3.56642
LJ          -3.82542         1.35841         1.67275
LJ           5.63768         5.90243        -1.89779
LJ          -4.02625         3.07501         5.90706
LJ          -2.50754         2.01483        -2.59182
LJ         -0.983519         -5.6607        -1.58087
LJ          -4.88952          5.5304       -0.504897
LJ          -2.10811         3.95555         3.72779
LJ          -2.66822        -1.96649       -0.738002
LJ          0.143265         4.52134        -4.84489
LJ          -2.71762         2.27617        -0.37481
LJ           4.89418        -3.67377         6.23416
LJ           5.00877        -5.89697         3.52907
LJ           6.16104         1.87261         4.83803
LJ            5.6143          4.5932        -2.76033
LJ           1.41573        0.955513         5.07227
LJ          -1.98107        -3.25648           4.578
LJ          -2.25993        -3.63932       -0.190161
LJ            1.6227         4.02365         2.07234
LJ          -3.61862          1.3344        -2.04811
LJ            3.2482         5.29456         3.77005
LJ          -6.16804         4.77054         3.84281
LJ           2.22255         4.49295         6.06387
LJ          -2.94401         -1.8995        0.383196
LJ           4.59326        -2.60868        -4.70227
LJ           -5.4026        -5.35838         5.98335
LJ          -3.04071         4.35964         5.63982
LJ           2.52077        -1.82331         1.62292
LJ           5.14433        -4.00608        0.448726
LJ           2.54825         0.19161         4.32561
LJ          -4.81114         1.14892       -0.510439
LJ          -3.33215        -5.97789        -3.90974
LJ          -3.61427       -0.581655        -2.02427
LJ          0.379984         2.18002        -4.67723
