108
#Comment!
LJ          -6.45479         1.43992        -1.91086
LJ         -0.208635        -4.03475          4.3298
LJ          -2.99607         2.79807         2.62734
LJ           3.51346        -3.86416         1.81958
LJ          -3.38459        -2.98584        0.258384
LJ          -1.24717       -0.653004        -2.19517
LJ           3.94662         -4.9002        -4.06416
LJ           6.24543        -2.66623         2.73327
LJ          -1.88266         5.70147         1.48837
LJ           5.20043         5.76939         5.87529
LJ          -5.31019         5.94274         4.61922
LJ          -5.55558        -2.88398         -6.3659
LJ           2.30219        -1.27743         3.37781
LJ          -0.87319         1.33847        -5.81147
LJ           -1.5535        -1.88098        -2.03604
LJ           5.35846         3.65606        0.308506
LJ           4.82338        -6.35157        -3.76404
LJ           3.28773        -5.78346         4.77877
LJ         -0.945507       -0.735134        0.505676
LJ           5.63061        0.752579        0.323157
LJ          -1.85582         2.71904         3.92245
LJ           4.66251       0.0112625         2.52397
LJ          -5.83013          -4.635        -5.73719
LJ           1.77897       -0.543432       -0.360392
LJ          -4.17059        -4.47517          3.8588
LJ          0.358632         4.30339        -2.90362
LJ           5.77385         1.63835         1.67281
LJ           -5.4169         -6.2533        -4.62063
LJ         -0.476224         6.43656        0.570873
LJ           3.37687        0.653954         0.35516
LJ          -5.93302        -3.50095        -2.51932
LJ           3.98552        -1.86326        -1.85006
LJ           3.72307       0.0791967       -0.773758
LJ           3.33393        -4.80645        -2.65634
LJ          -5.66343        -1.72995         6.06372
LJ          -1.33061         5.46596       -0.124949
LJ          -6.36988        -5.71174        -4.48615
LJ          -4.82169         3.65337         5.49768
LJ            1.9912         1.99313         3.54155
LJ           -3.2334         -4.3064        -1.55789
LJ           2.47677        -3.49359         3.87697
LJ           4.55319        -3.53477         1.81874
LJ           1.54259         2.31818         1.67389
LJ           5.43569         2.29757       0.0830316
LJ          -5.79022         1.38364         6.16519
LJ           4.12785         3.37708        0.774764
LJ        -0.0519622         -4.8548         4.93996
LJ          -6.13072        -4.88901        -3.49479
LJ           3.53365        -3.50892         4.60756
LJ             2.469        -5.38629         5.93444
LJ           3.89203        -3.91219         5.51989
LJ           4.86074         2.09126         1.95503
LJ           4.29066         3.89934         1.92359
LJ          -4.62919        -4.47845         5.67162
LJ           3.14084       -0.132474        -2.71637
LJ          0.567679         1.21778         4.33718
LJ          0.873077        -3.15352        -3.72966
LJ           5.20741         -5.2487        -1.85034
LJ           2.53185        -6.31053        -2.49011
LJ           3.03826        -4.26291        -4.15442
LJ          -4.39147         2.03602        -5.47209
LJ           2.98712         4.69797        -5.89033
LJ           3.49409        -4.96922         3.74268
LJ         -0.873954        -2.37053        -3.00056
LJ          -1.38147         5.84735         -5.0459
LJ           3.44655        -3.89771        -5.05628
LJ           6.25768        -3.07636         6.24546
LJ          -4.97633        -3.34741         5.52465
LJ          0.887416         2.13109        -1.52837
LJ         -0.616874         1.39052         3.84511
LJ         -0.315558        -3.25659         2.88096
LJ           4.96465          0.6426        -1.04659
LJ           3.57411         5.01577         1.90628
LJ          -1.02554        0.996263       -0.264128
LJ            3.1044         5.79621        -1.06642
LJ          -2.86858         3.41068         0.07531
LJ           5.39573         6.38233        -5.72859
LJ          -3.40481         4.75401        -2.14179
LJ          -6.15466         -2.5215        -3.95394
LJ          -1.02049        -3.07471       -0.837269
LJ            2.9428         5.14136         -2.5934
LJ          -1.62441         -1.2203         5.86734
LJ           2.82686         1.22533         2.27603
LJ          -5.71486           3.021         3.78473
LJ          -3.55735        -6.20297        -1.04189
LJ          -4.79959          -2.605        -3.19401
LJ          0.992347         1.53134         2.82578
LJ           1.49756        0.138227         -6.1918
LJ          -4.62464        0.776171        -2.43914
LJ          -5.11758        -5.57416         5.46769
LJ           3.28115       -0.463381      -0.0538954
LJ         -0.779284        -1.86892        -1.21027
LJ           5.86179         4.88978         5.83786
LJ          0.317705         6.33155        -3.27217
LJ           4.43801         5.21813        0.329106
LJ          -5.84052         5.04239        -1.64272
LJ          -6.22575         0.52603        -2.13756
LJ          -6.24765         5.64535         1.93253
LJ           1.42428          4.1138         1.05401
LJ          -3.81839         3.48334         6.27238
LJ            4.6925          1.0913         1.45492
LJ          -2.10881         5.48493          2.6882
LJ           5.64282         2.04236         4.64619
LJ          -6.09625       -0.978015         5.21606
LJ           2.04521        -3.79777        0.268439
LJ          -4.39576         -5.2409         4.54622
LJ          -2.97856        -1.50851         -2.4189
LJ           -2.3708        -4.14834        -4.37721
