108
#Comment!
LJ             4.761        -1.05635          4.0809
LJ           4.58668        -5.77266        -2.18091
LJ          -3.48014          1.5425         1.16606
LJ         -0.551188         1.98568         2.92763
LJ           4.18603         5.59057        -4.97365
LJ          -1.79819        -0.45546         2.71954
LJ           1.58977         4.26029        -5.11078
LJ           3.61256        -5.72438        -6.04141
LJ          -2.12985         3.18262         -6.1434
LJ           4.97301        -6.09176        -5.09237
LJ          -4.55675      -0.0978688         5.98786
LJ          0.363856        -2.58133        -4.18321
LJ           3.67213         6.06484        -3.87588
LJ          -1.32756         6.41791         4.89391
LJ          -2.69606        -1.74625         1.88529
LJ           -4.4402         3.83375         6.07772
LJ          0.116778         3.89955        -4.04693
LJ           2.10186        -2.98144        -4.86891
LJ        -0.0981472        -4.53493         3.74765
LJ           6.28252         2.54477        -4.54458
LJ            4.9153        -5.93635         2.07391
LJ          -2.16036         2.65856          -5.273
LJ          -0.18851        -5.67681         5.96985
LJ          -2.50674        -6.17048        -5.13045
LJ         -0.133472          4.5115         5.57671
LJ          -0.66701           2.764        -4.54163
LJ           5.69716        -2.75054         6.21183
LJ          -2.00726         2.55267        -0.13649
LJ           4.02815        -3.54081        -2.13935
LJ          -6.31868        -1.02287        0.568851
LJ          -2.78338         3.35118        -4.43805
LJ          -3.75927         6.43747         5.81284
LJ          -3.23133         -5.6495         0.47647
LJ          -1.96061         4.61171        -4.25645
LJ          0.738274       -0.244327         0.06415
LJ           6.22605         4.02251         4.41807
LJ           2.04414         3.35963         -4.9197
LJ           1.50107        -5.99631        0.797029
LJ          0.343097         1.34917         4.66541
LJ          -5.47837        -3.33501         3.44977
LJ           2.54974        -4.68481        -1.31898
LJ           1.12799         -5.5165       -0.203729
LJ           5.65874         5.24238        -3.40082
LJ           2.72273         4.74881         5.81285
LJ          -4.04714         2.43839         5.82615
LJ          -1.28895        -1.09581         5.51029
LJ           3.69771         2.54034        -2.45327
LJ           3.82374        -6.01803         4.72803
LJ          -1.29429       0.0460939        -3.18182
LJ           4.39297          2.1117         2.12803
LJ           6.15235        -1.77277        -6.11019
LJ            3.6956         1.17046         5.27989
LJ          -2.86932        -3.62257        -5.75401
LJ          -5.59598         1.87959        -1.82178
LJ            4.3736        -5.29558          3.3182
LJ            4.6936        0.848049        -3.98193
LJ           4.29784       -0.131419         4.13445
LJ          -1.70136        -5.22828        -2.67091
LJ        -0.0429726         3.93601         3.97371
LJ          -2.30599         -6.3005        -6.28227
LJ           6.23713         4.25571         3.14585
LJ          0.869057         4.11039         5.88849
LJ          -3.20935        -6.14617         4.61639
LJ          -2.99304       0.0818121        -3.37345
LJ           6.44968        -6.14195         5.24194
LJ         -0.163955         4.96297         4.39093
LJ           5.45652        -5.63351         5.04376
LJ           1.26074         4.78772        0.757529
LJ           5.58549        -4.73364        -6.42999
LJ           5.37702        -2.88772          3.6228
LJ          0.252947        0.447557         2.53333
LJ          -1.77809         1.64061         3.83159
LJ          -4.11526         2.05165        -5.51188
LJ          -3.06318         1.81915         6.42399
LJ          -6.23788        0.739524         2.18302
LJ          -5.86267          4.2018         6.33128
LJ          -6.30585         5.59672        -3.10104
LJ           6.11142         4.06047        -4.12541
LJ           6.37221         2.32283      -0.0609057
LJ          -1.64566        -6.30918        -2.59857
LJ          -3.14697        -1.16193         4.27125
LJ           4.56173        -1.29137        -4.54119
LJ          -3.41891        -4.60569         1.51003
LJ          -1.02317         4.24411         1.23659
LJ           3.20735         4.46833        -1.05416
LJ           4.27336        -1.83592        -5.57563
LJ           2.25567        -4.38615         2.67462
LJ            5.0516         -3.3177        -3.55447
LJ           5.67845         3.56281        -3.00714
LJ           1.20823        -5.28562        -3.96548
LJ           1.88562        -5.41401         3.51926
LJ           1.24033       -0.597231         1.46712
LJ           2.46608         6.26666         4.64774
LJ          -5.92325       -0.168548         3.07738
LJ         -0.351687         1.29119        -5.48408
LJ          -4.60348        -3.12264         4.25378
LJ          -6.24219        -2.72173       -0.216689
LJ          -3.78425         1.54896         3.35579
LJ          -2.72707        -3.32335         5.67554
LJ           4.12512          5.1056        -3.73968
LJ          -3.12156         4.59256        -1.38694
LJ           1.95844         3.97123        -3.60097
LJ          -2.06789       -0.439481          3.8242
LJ          -1.75182         2.39509         1.30444
LJ          -5.63443        -1.25269         3.35145
LJ          0.228944        -4.84487        0.677441
LJ          -4.21998         5.54789       -0.497333
LJ          -3.91199        -3.78657        0.077806
