108
#Comment!
LJ         -0.954438         4.21249         2.17174
LJ           4.78411         2.40389        -3.50825
LJ           4.06737         1.38694           3.501
LJ          -1.39693       -0.591929        0.798671
LJ           1.60859        -1.71431         5.29209
LJ           4.93027        -2.28119       -0.146958
LJ          -1.74339        0.572416        -4.13005
LJ          -1.31956         3.55481       -0.937085
LJ           5.83571         5.19298       0.0768248
LJ          -2.56703          3.1746        -1.44046
LJ          -2.78453        -3.50631        -5.52089
LJ          -2.54146         4.43566         5.40165
LJ          0.375749          5.4229        -5.99546
LJ         -0.450142        -3.88242        -4.56684
LJ           2.56257        -6.07514        -1.07834
LJ          -1.78009        -5.46909         5.99918
LJ         0.0622007          -3.804        -1.70159
LJ             4.585         0.19155         5.34126
LJ          -3.49941         -2.9741        -3.06773
LJ          -4.91162         -1.8814         -5.9473
LJ          -5.80279        -3.78946         3.98611
LJ          -3.87552         1.75546        -1.38913
LJ           3.21106        -2.82371        -5.12731
LJ          0.125278         3.69394        -2.87634
LJ          -4.51271         2.28711         -5.1637
LJ         -0.232055        -1.03698         4.62003
LJ          -5.79522         4.60034         1.95507
LJ           5.58838         2.67558        -4.31939
LJ            1.9661         3.56532         4.54648
LJ            0.8064        -1.27666         3.34575
LJ          -4.72812       -0.498909        0.601274
LJ          -1.59264        -3.40041         1.49687
LJ           2.00541        -1.32866        -5.84711
LJ           2.26829        -2.38287        0.769281
LJ           1.45779         -3.0926        -2.77354
LJ          -5.59197        -2.63901        -5.50094
LJ         -0.817313         3.15651         0.72295
LJ          -2.15743          5.3195        -6.28478
LJ          -1.56818         3.40724         1.80027
LJ          -2.72159         6.29365        -3.22452
LJ           4.80843        -6.30401         4.14148
LJ           1.20766        -4.99792        -2.98416
LJ          -6.45352          1.9451         4.50478
LJ          -2.63115        0.859098        -3.12932
LJ          -1.21502         1.85839         3.74607
LJ           3.96894        -1.32815         3.45401
LJ           2.40349        -3.64288          2.3953
LJ           5.06858        -5.67466        0.170331
LJ           4.77349         3.91152         4.91279
LJ           4.36313          5.4765         3.66369
LJ         -0.449982         6.30261        -5.34818
LJ          -2.66012         3.63495       -0.163478
LJ          -5.01124        -4.89742        -1.82903
LJ           1.69441        -4.08539         4.55114
LJ           1.25821        -4.26727         5.39071
LJ           2.02148         5.66933         3.00662
LJ           2.04358         4.36909        -2.46324
LJ          -3.39753        -4.72231         5.51663
LJ           2.11498         3.75334         2.86075
LJ           1.47808         4.97989        -1.15338
LJ          -2.34288         4.20933         3.73371
LJ           3.83689        0.988688         1.63941
LJ          0.169088        -2.00677         2.45173
LJ          -4.92953        -5.93231        0.293286
LJ           2.80252         6.02404         4.86524
LJ           4.16823         4.47403         5.59495
LJ          0.138032     -0.00913158        -5.11542
LJ          -3.50636        -2.66546         5.57944
LJ           4.70271         2.42758        -2.46103
LJ          -1.94006        -6.20857        -6.01514
LJ          -3.87826         2.42385         3.34683
LJ           5.55691        -1.37841         3.29446
LJ          -4.11885       -0.719467         5.63238
LJ           3.40469        -5.70957        -4.49046
LJ          -1.39183         2.20257        -3.71162
LJ          -3.55597         1.69459         0.50816
LJ             6.273         6.01564        -2.40717
LJ           -5.2545         2.58484         5.52139
LJ          -2.43106         2.30465        -3.51673
LJ          -1.21642        -3.82195        -1.52177
LJ          -5.31047        -5.67503        -1.31423
LJ          -1.67191         2.70606         3.62084
LJ          -2.05138       -0.762282         -0.2172
LJ         -0.826187         3.29229        -5.62775
LJ          -1.34024         2.17892        -1.30947
LJ           5.01498        -3.04997         5.91304
LJ           5.82108        -5.62678         2.92987
LJ           5.81227         2.88479         5.71193
LJ           5.35333         5.52375        -2.70366
LJ           2.25705         1.26269         3.81788
LJ           -2.3114        -4.81571         5.28531
LJ          -2.90283         -3.9389       -0.401912
LJ          0.743345         3.36899         2.66914
LJ          -3.49634         1.74832        -4.00232
LJ           2.98144         4.07436         3.71175
LJ           6.24014         4.08343         5.07615
LJ           2.32085         5.31407        -5.49044
LJ          -1.79248        -2.66432        0.555843
LJ            5.2733        -2.71947        -5.31824
LJ          -6.16943        -5.94941        -6.19094
LJ          -2.88312         2.95062         4.06866
LJ           2.73698       -0.537851        0.488062
LJ           5.72855        -4.60049       -0.253768
LJ           2.45298        0.265531         4.74022
LJ           -4.6103        0.157721        -1.81234
LJ          -2.78173        -5.83349        -4.28393
LJ          -3.56526        0.228465        -1.15551
LJ          0.671714         2.93191        -5.46107
