108
#Comment!
LJ           3.26548       -0.354105         2.59037
LJ           4.12741        -2.38564         1.10629
LJ          -6.00711         3.24816        0.215466
LJ           1.51573        -2.35921         2.73102
LJ           5.25601         4.60905       -0.817171
LJ          -2.38303        -2.52951          2.9206
LJ           5.72694         2.48307         -5.2806
LJ           5.90822         -2.0043         2.42239
LJ          -5.18735         4.20635         3.28085
LJ          -4.89562         4.54914        -3.37443
LJ          -4.50382        0.174363         5.66381
LJ         0.0310737        -2.30923        -2.85425
LJ            3.7427        -1.77824        0.225222
LJ          -3.66434         4.98787         -3.7783
LJ          -1.90068         -3.4244         5.82759
LJ          -3.30088         1.39094        -5.81876
LJ           3.99193         2.50246        -2.40617
LJ           4.76502        -1.11186        -1.54665
LJ           2.60832         4.04027         4.98005
LJ           -5.0891         2.09317        0.917924
LJ           3.74485         2.76671        -1.17612
LJ          -5.08593       -0.396199        -2.54431
LJ            -2.847        -4.07317         4.98647
LJ           -5.7123         5.16408         -3.9754
LJ           1.74796         2.47594        0.678779
LJ           2.93177        0.247895        -4.48812
LJ           6.43165        0.150653        -3.34459
LJ          -2.85992      -0.0628841        -1.42973
LJ         -0.363664       -0.767012        -2.59733
LJ           2.64291        0.722418         3.22344
LJ          -3.42395         4.63214          6.0405
LJ          -1.94333        -1.03526        -4.28234
LJ          -3.26274        -3.17397         2.93375
LJ          0.911941       -0.958575        -3.32975
LJ           1.30561        -2.92604         4.38471
LJ          -4.41287         1.15458          5.5036
LJ           1.52179        0.215984        -3.53383
LJ         -0.501162        -5.97247       -0.726523
LJ          0.483406         3.47971         3.87156
LJ          -4.92521        -4.46016       -0.373348
LJ           3.61671        -5.40169         -3.7544
LJ          0.659638        -6.13027       -0.988616
LJ           3.93835         4.54091        -3.00953
LJ           5.01752         3.37769        -3.78499
LJ          -3.24392         0.33845        -6.43726
LJ         -0.277569        -2.62153         6.18245
LJ          -3.98141        -2.61477         -2.4668
LJ           3.92837         -5.3388         2.81822
LJ          -3.01576         1.12147       -0.198361
LJ           5.04979        -1.52529        -5.13585
LJ          -4.63011        -2.13351        -5.77635
LJ           4.87711         2.60919        -4.44275
LJ          -2.52927         6.33379        -4.87123
LJ           3.40574       -0.546706        -3.66673
LJ           2.16219          -4.561         1.95346
LJ          -2.67992         4.02377         1.68554
LJ           2.78213         2.76518        -1.68424
LJ          -2.47084        -5.29839        -3.35196
LJ           2.80684         5.19934          3.2923
LJ          -2.71254        -1.43658        -5.78884
LJ          -4.40107         3.13486         5.87521
LJ           2.44705        -5.48949         4.40889
LJ          -5.64913         6.24265         3.57541
LJ          -4.77788         1.54682        -2.12042
LJ           4.81189         3.57673         1.55075
LJ          0.661154           4.287         4.81091
LJ           3.83693         4.07099         1.84191
LJ         -0.484506        -4.82721        -2.98316
LJ           5.32155        -1.28243        0.127334
LJ          -3.36243        -4.98934       -0.526865
LJ          -1.64817         2.24107         2.29453
LJ           6.45779       -0.632394         5.87424
LJ          -3.01907        -1.37355         4.43437
LJ          -5.58409         3.82334         4.66468
LJ          -3.94271        0.185515       -0.750113
LJ          -5.87703         2.92904         5.91555
LJ           4.93411         4.30103        -3.22782
LJ            3.3154         4.26956        -4.30534
LJ          -3.24494         1.63916         1.75039
LJ          -3.02522         -5.7887        -2.57038
LJ          -4.83728        -5.97308         3.57775
LJ          -5.05216        -3.50887        -6.09772
LJ           -6.1259         -4.5869       0.0831023
LJ           1.13845        -5.64385        -2.28337
LJ           3.80146        -3.14208       -0.456213
LJ           4.29851        -3.30238        -5.36653
LJ           1.18686        -6.25779         1.72424
LJ           5.45535        -2.33922       -0.755986
LJ           6.11331         3.40741        -1.32581
LJ           -2.6695        -3.07513        -3.11709
LJ         -0.768234         4.56718         3.42983
LJ         0.0963525        -1.43261        0.566474
LJ           2.63633         4.02648         3.54858
LJ          -2.21186        0.870645        0.859316
LJ          0.984163         4.29093         5.96439
LJ          -4.61545        -5.01177         2.08824
LJ           4.97315        0.462633         1.06956
LJ          -4.84854        -4.39944        0.823558
LJ          0.727708        -1.64675         -5.9004
LJ           5.86153        -6.01513           1.023
LJ          -2.96539        -6.09688        -3.86527
LJ           1.46817         5.77787           6.202
LJ          -4.80834          -1.837         3.39677
LJ          -1.75997        0.821988         1.84848
LJ          -4.79622        0.456968         1.02144
LJ           3.45157        -5.01755        -1.00346
LJ          -3.99133        -4.63109        -2.91822
LJ          -1.99603         6.06686         4.28587
