108
#Comment!
LJ          -3.07378         5.05579        -6.07953
LJ         -0.579253         5.40156        0.370882
LJ          -4.21133         2.05404         2.99209
LJ         -0.552827        -0.96154        0.665918
LJ          -4.61262       -0.927353       -0.434377
LJ           -3.9832          1.2011         -6.4246
LJ           2.18853        -6.24812        -5.18381
LJ          -5.69633     -0.00266333       -0.332664
LJ          -6.14851        -6.22539         1.82034
LJ          -6.44953         3.70744          5.1194
LJ          -6.22034        -2.14284       -0.756637
LJ           3.90118        -3.03125        -4.45023
LJ          -3.53439       -0.748172         5.85708
LJ          0.562048        0.318364         3.71731
LJ           3.04176         2.55348        -5.18116
LJ           6.43052         4.83336         1.29819
LJ          -5.87163         2.75739         -3.6284
LJ            -4.994         6.39542       -0.527236
LJ          -1.03297         1.70748         1.53762
LJ          -3.78862         3.20627        -1.74303
LJ          -1.22335         4.23951         6.11359
LJ          0.525131         2.75199         2.72169
LJ           4.98977        -4.19068        -0.41307
LJ          -1.54268        -3.16667         4.82024
LJ          -6.24633        -3.53978         2.57302
LJ          -2.05114        -3.28983        -3.01787
LJ           5.41414         5.69144        -1.10613
LJ          -2.29574         4.84183         6.08494
LJ           3.24698         4.90335       0.0469091
LJ          0.462193         -2.3746        0.584593
LJ            5.4816        -2.52222        -2.87564
LJ           2.74369       0.0592173        -1.06173
LJ          -6.00142        0.131287        -3.05675
LJ           3.01432        -5.53676        -4.30074
LJ           6.30026       -0.657707         2.90556
LJ          -2.11869         5.50641       -0.737364
LJ           -3.8796         4.83088         5.00132
LJ           4.60387         3.88903        -5.60051
LJ           2.43199         4.08393         3.33538
LJ          -1.96729        -5.23377        -4.22631
LJ           3.25636       -0.832393         2.51181
LJ          0.599316        -5.21855         2.93459
LJ           3.21583       -0.760133        -4.81106
LJ           5.18396     -0.00532129          6.3254
LJ          -3.64353        -2.70648         3.30559
LJ           4.60161         2.21427        0.612014
LJ          -3.88146          4.0477         2.04024
LJ          -5.39691        -5.92896        -1.46265
LJ           2.51026        -2.12021         2.91859
LJ           4.67045         4.52292        -4.46535
LJ           3.01124        -3.53323        -6.37233
LJ          0.554838       -0.750851         3.45575
LJ          -4.59689         2.15989         1.92751
LJ          -5.52367        -6.38684        0.363074
LJ          0.679801         2.65963        -3.15379
LJ           4.43333       -0.163418         3.28333
LJ           1.87493        -0.49846       -0.763401
LJ           5.11353        -4.43636        0.772033
LJ             5.061        -6.02803       -0.126961
LJ           2.47994          6.2435        -6.12752
LJ          -2.72877       -0.778509        -6.35388
LJ           1.06149        -5.32125         4.28865
LJ          -2.38892         6.08639         1.27136
LJ         -0.618421        -4.92435        -2.84259
LJ          -1.92159         3.42338        0.578608
LJ           4.45402        -2.28021        -5.15813
LJ           5.49825         1.04051         6.36336
LJ             3.398         -1.7169        -4.20344
LJ          -1.44768        0.388646         2.71509
LJ          0.124291       0.0367714         2.79786
LJ           2.15686        -5.04161         -1.3545
LJ           -6.3513         -0.1878          -1.979
LJ           1.52818         4.66489        -5.49415
LJ         -0.348863         3.91607         3.28432
LJ           5.58665         4.77661        -1.73692
LJ            -6.415         1.52499        -1.69584
LJ          -2.53162        -4.13746          -3.261
LJ          -5.40748         5.29582         4.52082
LJ          -1.04518         1.92173        -3.76247
LJ          -3.20383         -1.1353          1.0408
LJ           3.85094        0.512848        -5.60884
LJ          -1.89822        -2.12141        -5.59364
LJ           2.99842         6.35797        -2.47377
LJ          -2.85672         1.06791         2.11544
LJ         -0.102885        -4.40625         1.13202
LJ          -3.87905        -2.93151         1.83475
LJ           3.66117        0.975687         5.65243
LJ           1.38614      -0.0963231         6.36061
LJ          -5.13485         -1.1874        -4.77616
LJ          -5.23876        -5.36486         2.32776
LJ          0.757336        -1.43188        0.974287
LJ         -0.621379         0.43357         1.76664
LJ          -4.20223         6.33163        -6.12447
LJ          0.624346         6.24813         -3.4023
LJ          -4.64573         1.17204        0.856417
LJ          -4.95604         4.57303       -0.691125
LJ          -3.05243        -0.74621        -1.86762
LJ           3.34746        -5.55633          5.7553
LJ          -5.01316         5.35035        0.151194
LJ           5.13039         3.00978        -5.26305
LJ          0.104065         1.57771         2.63775
LJ          -1.65549         6.20111         4.73106
LJ           2.46635        -1.83293        -5.17389
LJ          -1.83793        -4.72921         6.28793
LJ          -1.00874       -0.519082        -3.27311
LJ           2.51709        -4.51331         4.25536
LJ           1.51587        -5.23346        -3.52425
LJ           4.56207        -3.10403          5.8559
