108
#Comment!
LJ           4.93258        -1.30412         4.09066
LJ            4.7185        -5.86411        -2.49915
LJ          -3.23918         1.28792         1.28712
LJ         -0.738817         2.32995         2.74802
LJ           4.13027         5.18157        -5.42575
LJ          -1.52851       -0.157825         2.50819
LJ           1.15534         4.60124        -5.00701
LJ           3.42971        -6.13134        -5.57868
LJ          -1.88744         3.32621        -6.35356
LJ           4.68866        -5.93454        -5.37105
LJ          -4.66327         0.22307         6.28655
LJ          0.381141        -2.47728        -4.37157
LJ           3.39485         5.85062        -3.95316
LJ          -1.17702        -6.36141         4.54702
LJ          -2.60528        -1.47664         1.59983
LJ          -4.62587         3.99307         5.85734
LJ           -0.2283         4.14878        -4.24161
LJ           1.76882        -3.13243        -5.04228
LJ         -0.182741        -4.09102         3.82543
LJ           6.08993          2.6188        -5.00431
LJ           5.13258         6.14191         2.21306
LJ          -1.95067         2.64775        -4.98532
LJ          0.366555        -5.46058         6.14568
LJ          -2.02575        -5.94439        -5.38345
LJ        -0.0434242         4.78322         5.72113
LJ          -1.09707         2.68158        -4.52021
LJ           5.89079        -2.73765         6.05841
LJ          -1.88507         2.86741       -0.245036
LJ           4.48649        -3.85295         -2.1382
LJ           -5.8181        -1.31665        0.340726
LJ           -2.4984         3.17708        -4.16337
LJ           -4.0777         6.19122         5.62025
LJ          -3.16436        -5.70523        0.434136
LJ            -2.274         5.09215        -4.40568
LJ            0.8575        0.251814        -0.20516
LJ            5.7521         4.18786         4.25871
LJ           2.11949         3.59425        -5.05974
LJ           1.71212        -5.91021        0.845896
LJ          0.137904        0.948794         4.77946
LJ          -5.56929        -2.90922         3.69826
LJ           2.33308        -4.49164        -1.19213
LJ           1.06415        -5.38347      -0.0121579
LJ           5.71858         5.17346        -3.73432
LJ           2.33503         5.00205         5.38322
LJ          -3.79758          2.4274         5.82828
LJ          -1.48016       -0.906354         5.21672
LJ           3.23532         3.21218         -2.4948
LJ           4.31491        -6.20323         5.00769
LJ          -1.04447      -0.0999977        -3.43298
LJ           4.30115         2.47084         1.57264
LJ            6.4119         -1.9578        -6.37438
LJ            3.6854         1.05573         4.86329
LJ          -2.76613        -3.23574        -5.97286
LJ          -5.23545         2.07773        -1.61852
LJ           4.42719        -5.44027         3.76261
LJ           5.38764        0.593547        -3.19193
LJ           4.41779       -0.162157         4.81491
LJ          -1.62803        -5.02624        -2.81573
LJ          -0.42897         3.87014           4.131
LJ          -2.43323         5.91581         -6.1797
LJ           6.05944         4.39159         2.83413
LJ          0.684743          3.8315         5.96484
LJ          -2.92115        -6.31276         5.03829
LJ          -2.91672      -0.0709488        -3.58951
LJ          -6.36285        -5.79472         5.62273
LJ         -0.684091         4.88694         4.62511
LJ           5.60038         -5.5216         5.08074
LJ           1.11159         4.45793         1.34929
LJ             5.487        -4.78314         6.05164
LJ           4.91622        -2.76058          4.0931
LJ            0.3505        0.295289         2.76888
LJ          -1.22766         1.98137          3.5473
LJ          -4.23667         2.64052        -5.37027
LJ          -3.08335         1.86487        -5.97457
LJ          -6.44747        0.694844         2.62003
LJ          -5.99478         4.17387         6.12145
LJ          -5.98441         5.82426        -2.95073
LJ           6.29806         4.05803        -3.97201
LJ           6.14429         2.35994       -0.297356
LJ          -1.62154         -6.1863        -2.60503
LJ          -3.14928        -1.02831         4.42585
LJ           4.07907        -1.13893        -4.77649
LJ          -2.97353        -4.49363         1.63783
LJ          -1.05833         3.78148         1.65968
LJ           3.41288         4.00406        -1.14203
LJ           3.73187        -1.79705        -5.54902
LJ            2.4248        -4.29968         2.96262
LJ           5.05127        -3.60252        -3.42328
LJ           5.54837         3.65546        -3.25569
LJ           1.63686        -5.46652        -4.04782
LJ           1.86781        -5.23832          3.1337
LJ           1.13885       -0.657449         1.42634
LJ           2.77494        -6.15808         4.77378
LJ          -6.38873       -0.129369         3.29157
LJ         -0.458844         1.03332        -5.27607
LJ          -4.65569        -2.96708         4.33413
LJ          -6.09987        -3.01323       -0.326694
LJ          -3.67025        0.847989         3.60788
LJ          -3.05758        -3.54803         5.81583
LJ           4.14347         4.49119        -4.48504
LJ          -3.14827         4.09932         -1.1637
LJ           2.11295         3.88052        -3.37617
LJ          -1.85143       -0.556951          3.5546
LJ          -1.69079         2.57531         1.41175
LJ          -5.73787        -1.41007         3.59242
LJ          0.085246        -5.15969        0.726651
LJ          -4.27981         5.29681       -0.239954
LJ          -4.25299        -3.74543       -0.406634
