108
#Comment!
LJ           1.77758          1.0327         2.02313
LJ            4.9619       -0.580481         3.32758
LJ           6.12768           2.612        0.592873
LJ           2.15076        -5.44014         2.52182
LJ           4.82655         3.16132         1.34115
LJ         -0.292798        -2.40641         2.07463
LJ          -6.32747         1.84913        -3.43257
LJ          -5.56612       -0.208852       0.0788989
LJ            6.0337         4.60174         2.27127
LJ          -4.43828         3.94171        -4.08173
LJ          -4.19144        -1.74477        -5.46792
LJ         -0.702904         1.26407        -3.06452
LJ           3.12778         1.06225        0.940276
LJ          -3.92312        -6.35102       -0.784609
LJ          -1.13533        -5.41315        -5.63394
LJ           -3.0703       -0.435905        -6.41168
LJ            4.0743         2.76749        -1.12106
LJ           5.45363       -0.648339        0.667755
LJ           4.49093         2.08745         6.37432
LJ          -4.33765         1.46109         3.28977
LJ            3.9033         6.22939        -2.80058
LJ           5.73953        -1.03352        -1.13607
LJ           -4.5458        -2.18014         4.77312
LJ          -4.01056         4.24155        -2.94892
LJ           3.26612          1.4129        -1.54061
LJ           2.44261      -0.0197746        -5.64963
LJ            -5.874        0.511848        -1.61998
LJ          -2.96078         0.22767        -3.06997
LJ         -0.921642       -0.111521        -3.75607
LJ           1.70065      -0.0398855         4.00023
LJ          -4.10703         3.02316         4.47685
LJ          -1.90597         1.80912        -2.98375
LJ          -4.71724        -3.30859         4.92578
LJ           2.37851        -2.45152        -3.31192
LJ           1.63229        -3.24762         6.13753
LJ          -4.44365         1.93263          5.3024
LJ          0.961685        -2.49047        -3.26974
LJ          -1.22122        -6.02967        -2.64209
LJ         -0.365729         3.53928         3.46173
LJ          -4.98505        -4.35632        -1.87867
LJ           3.98372         -5.3496        -5.07779
LJ         -0.202591        -5.89647        -2.04991
LJ          0.893124         4.44216        -3.77709
LJ          -5.56291         3.69041        -4.08408
LJ          -3.65142        -1.52058         6.42235
LJ           0.55838        -2.28726         5.40126
LJ          -4.32279        -5.09708       -0.897028
LJ           4.20747        -5.20413         2.16439
LJ          -4.12692        0.525744         1.97119
LJ           5.32117        -3.16485        -2.24979
LJ          -2.93144        -2.55007        -5.05061
LJ          -5.98989         2.58298        -4.44141
LJ          -1.90729         -6.2293        -3.66098
LJ            2.9914        -3.84774        -2.44398
LJ          0.794422        -4.64225         2.68854
LJ          -5.86232         5.69623        -2.05462
LJ           3.47131         4.73263        -3.29288
LJ          -3.52311         -4.1858        -4.91477
LJ           3.36555         4.65517          3.1593
LJ          -2.46332        0.278433        -4.31578
LJ          -4.00881         3.14806         5.94688
LJ           2.82079        -3.44731         3.92039
LJ           5.23667         3.82982         3.44542
LJ           -5.2157         2.66137        -1.62136
LJ           4.26197         2.08515        0.570819
LJ           1.64266          4.8113         4.17923
LJ           2.89463         2.43832        0.487278
LJ          -2.73655        -4.93455        -4.22802
LJ           4.60534       -0.378526         2.16449
LJ          -3.08425        -6.41508        -2.43273
LJ          -2.97706         2.59168         2.12525
LJ           4.90306       -0.739314         5.74915
LJ          -3.61013        -1.47316         4.48372
LJ           6.33789         4.93963         5.73901
LJ          -2.61012        0.804766         -1.8012
LJ          -5.97203         2.09597         4.21389
LJ           4.28932         3.57355        -1.62671
LJ           1.46637         3.80463        -4.84667
LJ          -2.55243         1.05793         0.37783
LJ          -3.36562        -4.86841        -2.45992
LJ          -4.64494         5.33444         2.29168
LJ          -4.04596        -5.35822         5.69965
LJ          -5.16812        -4.04479       -0.231968
LJ           2.94066        -5.96343        -2.55684
LJ           4.84253        0.427577        0.155983
LJ           4.38045        -3.87349        -5.75564
LJ           2.16071         6.13506         3.13684
LJ           5.73126        -1.21183         1.91555
LJ           6.13942         3.79539        -1.52725
LJ          -1.95184        -2.09133        -4.85968
LJ          -1.29737         1.82782          2.1984
LJ         -0.687615        -2.18402        0.226543
LJ           2.54502          4.2969         2.47409
LJ           -1.4835         1.98875         1.04518
LJ            1.8067         5.08057         5.53705
LJ          -4.21497        -6.12036        0.411695
LJ           3.79445         1.90629         1.58257
LJ          -5.70308        -1.06265       -0.429501
LJ           2.07291        -2.11186        -4.20043
LJ          -6.05228         -5.5804         2.84066
LJ          -3.02589         6.34509        -4.02561
LJ           1.96985        -5.33669         4.80087
LJ          -6.17278         -2.6222         2.47029
LJ          -0.29888        0.388815         2.53146
LJ          -4.80393         1.83209        0.958799
LJ           5.65411        -5.40691        -1.86238
LJ          -3.82217        -2.49074        -4.28442
LJ          -1.35528         4.22539         6.06157
