108
#Comment!
LJ           4.71602         -1.0227         4.07444
LJ           4.50575        -5.71799        -1.99346
LJ          -3.61741         1.69901         1.09557
LJ         -0.457495         1.76557         3.04848
LJ            4.2315         5.84408         -4.6366
LJ           -1.9709       -0.639751         2.86833
LJ           1.73691         4.24463        -5.18618
LJ           3.74757        -5.48921        -6.30772
LJ          -2.27088         3.30591        -6.40873
LJ           5.10197        -6.21288        -4.93084
LJ          -4.49115       -0.288695         5.80777
LJ          0.361208        -2.64626        -4.07335
LJ           3.79754         6.31005        -3.88706
LJ          -1.41493         6.32951         5.11162
LJ          -2.74507        -1.89908         2.06424
LJ          -4.35262         3.71129         6.21277
LJ           0.31876         3.72457        -3.94882
LJ           2.29519        -2.88902        -4.76152
LJ        -0.0446643         -4.8038         3.70149
LJ           6.39394         2.52529        -4.25649
LJ            4.7735        -5.41541         2.01732
LJ          -2.30251         2.40666        -5.12698
LJ         -0.530944        -5.81354         5.85671
LJ          -2.78972        -6.31779        -5.02644
LJ          -0.22603          4.3927         5.40309
LJ         -0.364151         2.83639        -4.53437
LJ           5.59709        -2.71746         6.33237
LJ           -2.0759         2.36075      -0.0338874
LJ           3.75948        -3.35586        -2.15253
LJ           6.30807       -0.853132        0.704289
LJ            -2.974         3.50402        -4.55534
LJ          -3.52639        -6.32511         5.89088
LJ          -3.27814        -5.58961        0.523732
LJ           -1.7838         4.29807        -4.17341
LJ          0.675434       -0.547966        0.251834
LJ           -6.4126         3.93452         4.45899
LJ           2.10391         3.04045        -4.76884
LJ           1.34543        -6.02039        0.727742
LJ          0.461511         1.59091         4.59083
LJ          -5.38195        -3.57318         3.34164
LJ           2.67916        -4.80197        -1.39355
LJ           1.15626         -5.5938       -0.251376
LJ           5.46589         5.18417        -3.25231
LJ           2.94868         4.60133         6.06942
LJ          -4.16024         2.44546         5.88069
LJ          -1.17996        -1.20726          5.6781
LJ           3.97535         2.14207        -2.42912
LJ           3.51935         -5.9038         4.54666
LJ          -1.45844        0.134724        -3.03367
LJ           4.44913         1.89578         2.46152
LJ            5.9687        -1.70519        -5.97581
LJ           3.70831         1.22647         5.52244
LJ          -2.93062         -3.8528         -5.6612
LJ          -5.81518         1.76234        -1.94071
LJ           4.34701        -5.22987         3.04751
LJ           4.27755         1.00058        -4.45644
LJ           4.16671      0.00530523         3.73203
LJ          -1.74851        -5.27099        -2.59216
LJ          0.198836         3.92364         3.87186
LJ          -2.24539        -5.86575        -6.31067
LJ           6.34173         4.16392         3.39156
LJ           1.01408         4.25601         5.84982
LJ          -3.40136        -6.06273         4.41333
LJ          -3.02424        0.173834        -3.24272
LJ            6.3646        -6.33886         5.01599
LJ           0.14308         5.04562         4.34418
LJ           5.36936        -5.83202         4.84584
LJ           1.34929         4.98855         0.40244
LJ           5.63802         -4.5888        -5.99364
LJ            5.6556        -2.95536         3.34322
LJ          0.191539        0.541702         2.38964
LJ          -2.08812         1.43717         3.98468
LJ           -4.0069         1.69953        -5.64003
LJ          -3.10975         1.84758         6.11288
LJ          -6.09882        0.724265          1.9599
LJ          -5.74876         4.20919         6.44838
LJ          -6.36052         5.49957        -3.16727
LJ           6.02029         4.10213        -4.23366
LJ          -6.41546         2.29935       0.0777613
LJ          -1.65748        -6.46285        -2.58807
LJ          -3.10439        -1.21613         4.16122
LJ           4.84892        -1.39154        -4.42319
LJ          -3.68542        -4.68945          1.3978
LJ            -1.005         4.51096        0.982175
LJ           3.08402         4.74488        -1.00466
LJ           4.61183        -1.85367        -5.57256
LJ            2.1377        -4.48189         2.53167
LJ           5.04209        -3.14779         -3.6212
LJ           5.72089          3.5049        -2.83638
LJ          0.951783        -5.17662        -3.91636
LJ           1.91656         -5.4844         3.72835
LJ           1.28579       -0.548207         1.47357
LJ           2.30883         5.97954         4.57176
LJ           -5.6501       -0.155073         2.90949
LJ         -0.292309         1.45746        -5.60293
LJ          -4.61688        -3.22288         4.16501
LJ          -6.32648        -2.53964       -0.146971
LJ          -3.84824         1.96794         3.20378
LJ          -2.53027        -3.19097         5.62776
LJ           4.19538         5.38447        -3.30151
LJ          -3.11402         4.89626        -1.51304
LJ           1.85947         4.01452        -3.78997
LJ          -2.22803       -0.392185           3.983
LJ          -1.79291         2.29513         1.21075
LJ          -5.57967        -1.16328         3.20841
LJ          0.359085         -4.6861        0.618716
LJ          -4.17339         5.69223       -0.658536
LJ          -3.70364        -3.82213        0.381408
