108
#Comment!
LJ          -4.43287        -4.88131         2.38407
LJ            -1.941         5.70761        -4.82965
LJ         -0.227097        -4.18583        0.528595
LJ           -5.6079        -6.15918         5.80182
LJ          -4.58904        -3.92423        -1.17877
LJ          -1.88537         2.35875         4.75649
LJ             5.075        -2.97319        -3.07042
LJ          -5.50046         3.25521        -4.37099
LJ            4.1343         4.07945          2.1265
LJ          -6.41866         1.72448        -3.06285
LJ          -5.61629        -2.96759         1.69634
LJ          -2.56312        -5.09129         5.63635
LJ          0.127337         2.30684         3.11668
LJ          0.393755        -2.85766      -0.0914196
LJ           -2.3549        -2.75043     -0.00131484
LJ           2.78823         4.12057         1.16618
LJ           4.37837        -2.45628         1.47388
LJ          -5.25761         -6.0875         4.47695
LJ          -2.14875         3.70175         1.77553
LJ          -1.73542         1.24249         1.62058
LJ           6.22546         2.27285         -1.9359
LJ          -1.78704         4.08153         4.98451
LJ          -4.63253         2.94662         6.33703
LJ          -5.16596          5.5394        -1.66892
LJ          0.970431         4.80368         6.02185
LJ           3.10929        -1.20215        -3.84454
LJ           5.44647         1.00459        -4.27204
LJ          -4.30605         2.40502        -2.35529
LJ          -2.55815       -0.527533      -0.0172747
LJ          -5.47426         1.58946        -1.42652
LJ          -4.15697        -6.07363         3.87221
LJ           5.47027        -4.62362        -1.31771
LJ          -3.27342        0.199192        -3.12766
LJ           2.54549        -3.97515        -3.14597
LJ          -4.94833         5.24485         5.13986
LJ          -1.78944        -6.23257      -0.0169916
LJ           2.04489        -5.30136        -6.18779
LJ          -3.57667         3.37063       0.0208013
LJ           1.47276        -3.79593         4.61922
LJ           1.47585         2.90785       -0.870712
LJ           1.85483        -5.66043         4.88059
LJ           5.26417        -2.92776        0.620672
LJ          -4.29074        0.256365        -3.81076
LJ           3.24494        -5.96254        -1.05051
LJ           4.97621          5.7613         4.98531
LJ          -2.37545         0.36948        0.780672
LJ         -0.497784         3.16291        0.829107
LJ           2.96911        -4.51745      -0.0374521
LJ           1.70628        -4.53961         5.77026
LJ           -6.0135        -5.17838         3.90655
LJ          -6.16898         6.15674        -4.40155
LJ           4.92719         5.38889        0.505088
LJ          0.325103        -5.64625        -1.39395
LJ          0.683793         4.69605        -1.25238
LJ          -5.64646        -1.83249        -5.71802
LJ            2.6815         4.28414         3.99633
LJ          -1.39646         4.44089        -4.36328
LJ           4.78144        -6.32941        0.753875
LJ          -2.20255        -4.29479        -6.41936
LJ          -5.82845        -3.52744       -0.082974
LJ          0.891748         4.67933        -2.28964
LJ           3.47572         1.05532        -4.65904
LJ          -5.36365        -3.82647        -5.67853
LJ         -0.668832         -0.8564        -6.42632
LJ          -3.68491         1.89527        0.187865
LJ           2.46354         1.55844        -3.28041
LJ          -2.24761         5.83172         2.15799
LJ          -3.39794        -5.60872       -0.455836
LJ           3.38469         3.17585         5.91708
LJ          -4.10784         2.91528       -0.657727
LJ          -1.61359        -0.72841         -1.3228
LJ           4.20322        -1.09149         2.13412
LJ          -1.04851        -3.23378        -3.63106
LJ          -1.71269        -3.67559        -1.61945
LJ           5.83403          4.7587        -2.06304
LJ           4.13056         3.37842        0.837505
LJ          -1.88152        -4.11463         3.69186
LJ           -3.8229         5.23787        -6.16907
LJ           1.97604        -5.24614        -3.34676
LJ           3.53946         1.94508        -2.25859
LJ           1.93239        -5.88088        -2.03494
LJ          -3.23814        0.339949         5.06518
LJ          -2.80568        -1.82811        -3.58496
LJ          -3.48849         3.90967        -5.72881
LJ           3.77498         4.25126         5.11395
LJ           3.25625       -0.836299        -2.29575
LJ           6.23974         3.54337        -1.37873
LJ          -1.25161         3.93546        -5.66426
LJ            2.8232         1.79091          2.2585
LJ          -3.22736        -6.08922         2.68805
LJ          0.945112        -3.62313         5.82181
LJ           6.28429        -4.68354       -0.204423
LJ           3.81601         -6.2869         2.11833
LJ         -0.177854         2.60497         1.96791
LJ          -2.49878        -3.55026        -4.38143
LJ           4.59662         -6.4391        -1.15868
LJ           2.74885        -4.87886        -4.95181
LJ          -2.38274        -4.66156         1.85791
LJ         -0.385196         3.64866        -2.19882
LJ          -1.30014         3.27587         4.08582
LJ            3.1651         6.18071       -0.122769
LJ          -3.50751         2.61176         5.98101
LJ           4.88439        -5.12505         4.63597
LJ           5.89163        -5.86603         4.60469
LJ           5.81058          2.9908         5.68348
LJ         -0.810182         2.54028        -1.74704
LJ          -4.35136        -1.75888         2.41075
LJ          0.812223        -6.30521        -2.70669
