108
#Comment!
LJ        -0.0851374         3.42907         1.59505
LJ           4.93867         1.99479         -5.7117
LJ           4.51023        0.855383         2.99482
LJ          0.232422         1.60071         2.10408
LJ           1.89141       -0.575635         3.23307
LJ            3.2709        -2.22336        0.408585
LJ           -2.8669          2.3511        -3.53925
LJ          -2.45953         3.08744         -1.6465
LJ           4.94825         4.93052        0.826668
LJ          -2.66628         4.36883        -2.23114
LJ          -2.99635        -2.70422         -5.2513
LJ          -2.25136          4.0294         -5.4171
LJ           1.96225         4.05685         4.48966
LJ          -1.02412        -4.60171        -3.31723
LJ          -0.49184         6.03071        -2.19338
LJ          -2.90527        -4.95288         6.05053
LJ           1.66396         -1.4639         -1.4591
LJ           5.32817        0.332396         4.02706
LJ          -5.16495        -1.31386        -4.20009
LJ          -4.44551       -0.312986         6.31371
LJ             6.349        -5.19608         6.27184
LJ         -0.825783        0.523045           -1.27
LJ           4.74782        -2.28725         6.04331
LJ         -0.879308         2.60455        -3.01403
LJ          -6.34003         1.15322        -3.91619
LJ           1.28734       -0.872069         5.40249
LJ          -6.18561         2.79555        0.753086
LJ          -5.89345         2.29538        -4.19619
LJ           1.08453         1.92862         5.91513
LJ          0.522469        -1.08847         3.98063
LJ          -5.14724         1.06599         1.39744
LJ          -1.82172        -6.42136       -0.764403
LJ           4.26974        -1.60944        -5.99498
LJ           2.40454        -3.87839       -0.957705
LJ           1.51498        -3.14609        -4.14393
LJ          -5.21415        -1.19622         6.07944
LJ           0.61906         5.50874       -0.752249
LJ          -1.72138        -6.36403        -5.20175
LJ          -1.47147         3.33533         2.69489
LJ          -4.57872        -5.36913         -2.8339
LJ           4.63975        -6.23634         5.54865
LJ          0.417987        -5.18313        -2.74818
LJ          -4.30516         2.41105         5.92159
LJ          -3.52787         1.64151        -4.10538
LJ          -3.04966        -1.04046         5.26854
LJ           3.01367        -2.03184         4.17962
LJ            3.8333        -5.73874         1.71383
LJ           4.84934        -5.11971        0.784034
LJ           6.42913         2.67594         4.63919
LJ           5.08163          6.1798         2.48789
LJ          -1.71556        -5.39864         -5.7077
LJ          -3.31972         2.48511        -1.84945
LJ          -3.90009        -5.09457        -1.90887
LJ            3.1755        -3.95584          1.9151
LJ          0.971784        -4.44023         4.49458
LJ           4.22359        -5.27766         4.48727
LJ           2.38834         6.21246         -2.3275
LJ          -3.46582         -4.1034        -6.27318
LJ           2.88028         3.91297         2.53143
LJ          0.249127         3.76553        -2.42388
LJ          -2.77528          4.3699         4.99999
LJ           3.42342       -0.381273         2.51851
LJ           2.09495        0.298875           2.205
LJ          -5.24201         6.27183       -0.255423
LJ           2.93868         4.01793         4.17096
LJ           3.78894         4.73708         4.31837
LJ          0.833423         1.45035        -3.64018
LJ          -3.89402        -3.10816         6.12628
LJ           4.57452         0.99895        -5.07811
LJ          -2.89591         5.76706        -6.07399
LJ          -3.67214         2.68426         2.85499
LJ           3.85547        -0.47955         4.46566
LJ          -4.14422        -1.01083         4.98313
LJ           4.39168        -6.31346        -5.30267
LJ          -1.30384         3.72515        -3.33484
LJ           -3.9776         1.23349         2.02108
LJ           5.41846         5.74952         -1.8078
LJ          -3.31655         3.30444         6.02193
LJ           -2.5499         1.88063        -2.28182
LJ          -1.42116        -5.73508        -1.38719
LJ          -4.76553         5.07928       -0.159185
LJ          -2.30035         4.41366          3.8703
LJ          -2.85733         -2.3583       -0.923891
LJ          0.458349         4.87469        -4.59316
LJ          -3.26553         2.32627       -0.291582
LJ           4.80835        -3.77388         6.37478
LJ           4.71991        -6.00378         3.57013
LJ           6.03205         1.38491         4.49835
LJ           5.72374         4.41958        -2.70128
LJ            1.2268        0.858068         5.44966
LJ          -1.90707        -2.72037         4.31727
LJ          -2.04135        -3.51911       -0.102165
LJ           1.78975         4.25097         1.84261
LJ          -3.47552         1.23088        -1.53745
LJ           3.05687         5.53115         3.92685
LJ          -5.94275         4.99623         3.46177
LJ           2.19425         4.24928         5.67451
LJ          -3.30577        -1.69779        0.337364
LJ           4.32533        -2.56235        -4.60302
LJ          -5.04529        -5.21361         5.76205
LJ           -3.0058         4.84836         6.09763
LJ           2.46006        -2.21431         1.98166
LJ           4.95225        -3.91278        0.674549
LJ           2.47848         0.12186         4.17614
LJ          -4.80431         1.43947      -0.0897315
LJ           -3.5745         -6.0002        -3.71233
LJ          -3.65064       -0.772132        -2.28203
LJ          0.146134         2.28839        -4.64431
