108
#Comment!
LJ          -4.18708         3.86178         -4.6001
LJ         -0.488902         6.25991         1.57635
LJ          -3.70103         2.02876         3.01511
LJ          0.561538        -2.31903        0.878837
LJ          -4.14646        -1.74792       -0.349391
LJ          -2.92001        0.982525        -4.62799
LJ           2.86687        -5.96345        -4.64739
LJ          -4.95318        -1.39592         1.06699
LJ          -4.60224        -6.45037         1.39134
LJ           5.65959         4.03355          5.7006
LJ           -5.8956        -3.86014        0.336426
LJ           4.76739        -3.10981        -4.74007
LJ          -5.48831        -1.40927         4.76222
LJ       -0.00512188        0.630191         4.93776
LJ           1.68295        0.908238        -4.65917
LJ           5.89852         3.93732        0.819346
LJ           5.72045         4.39303        -4.08264
LJ           6.23849         6.17307        0.294976
LJ          -1.38716          1.0689        0.479769
LJ          -4.61512         2.19469        -1.64022
LJ          -1.38404         3.72129         5.42766
LJ           1.45169         2.05072         2.57464
LJ           5.61038         -4.2415        -2.19318
LJ         -0.501894        -2.32946         3.24843
LJ          -5.92574        -3.78637         2.84867
LJ          -1.84754        -4.97413         -1.9746
LJ          -6.41818         4.57319       -0.430144
LJ          -3.33419         5.36546         -6.0872
LJ           1.47977          4.6231        0.551126
LJ           1.80349        -1.56513        0.215429
LJ           6.40928        -2.20326        -2.63195
LJ           3.30094       -0.270426        -1.40204
LJ            5.7184        0.024553         -2.6187
LJ           3.16303        -5.02366        -3.50674
LJ           6.08617       -0.524528         4.18562
LJ          -1.76173         5.56262       -0.348588
LJ          -4.64698         5.77856         5.46593
LJ           5.52456         2.45708         6.33438
LJ           2.50382         3.58517         3.41645
LJ          -1.95678        -4.37209        -3.20273
LJ           3.01053        -1.91619         2.76468
LJ           2.01075        -4.79202         1.61178
LJ           2.18972        0.994535        -6.18705
LJ           4.77698        0.459087         4.06966
LJ          -4.31431        -1.24902         4.52696
LJ           4.34664         3.60591        0.914232
LJ          -3.31701         4.48358         2.88156
LJ          -5.53621        -5.68417        -1.98271
LJ            2.8575         -2.5476          3.6079
LJ           4.63394         5.12245         -4.7416
LJ           3.67192        -3.97259         6.35464
LJ           2.57719        0.281465         2.29775
LJ           -5.8826         3.07994         2.27482
LJ          -6.04162        -5.09054           1.501
LJ            1.4322         1.03483        -2.76381
LJ           3.87836         0.13104         3.71396
LJ           1.63117       -0.821247        -1.85058
LJ           4.60427        -4.80928        0.328389
LJ           4.26339        -5.68323       -0.656916
LJ           2.32146        -6.01986        -5.84425
LJ          -3.78234       -0.162408        -5.72815
LJ           1.99764         -5.9923         5.03654
LJ         -0.348237        -5.65655         1.94006
LJ         -0.782035          -4.601        -2.73016
LJ          -2.28694         3.98379        -0.65401
LJ           4.00316         -3.2882        -5.79512
LJ           5.40618         1.50968        -6.39962
LJ           5.01043        -2.06174        -5.29886
LJ         -0.610487         1.21109         1.40874
LJ         -0.240074        0.471106         3.03587
LJ           1.40191        -4.38006      -0.0962139
LJ           6.11919       0.0923934        -1.44997
LJ           2.16241         4.71198         5.72018
LJ         -0.133887         3.81415         1.89283
LJ           4.75953         4.99432        -1.68116
LJ          -5.38353         2.27123       -0.663643
LJ          -4.24177        -5.20946        -4.21054
LJ          -4.02311         4.80421         1.89909
LJ          -2.55522       0.0516384        -3.59641
LJ          -3.57617        -1.44748        0.499916
LJ           4.02099         2.01199         -4.9444
LJ           -1.7735        -1.84378        -6.05347
LJ           2.94838         4.69001       -0.971606
LJ          -3.78971          3.0394         2.68517
LJ         -0.817438        -5.34468        0.529601
LJ          -4.68374        -3.88367         2.23228
LJ           2.70139         1.23253         4.75126
LJ           1.29228       -0.260395          6.4445
LJ          -4.80762       -0.370971        -4.65872
LJ          -4.64751        -4.89102          3.1386
LJ           1.25535       -0.684231         0.93129
LJ         -0.892952       -0.712765        0.905818
LJ          -4.87317         6.00971        -5.79171
LJ          0.543398         6.25672        -3.39811
LJ           -5.9088          2.3136         1.03021
LJ           -5.3665         4.68422       -0.907119
LJ          -4.33564       -0.934584        -2.14794
LJ            4.0199        -6.12165         4.47736
LJ           5.69307         5.34846           1.154
LJ          -6.19133         3.12795        -5.49529
LJ           1.52319         1.02327         2.80051
LJ          -1.45455         5.86984         3.94846
LJ           4.01883       -0.789553        -6.36073
LJ           -3.0784         -3.4884         5.83706
LJ         -0.104896        -1.62866        -2.13666
LJ           5.44681        -4.36544          3.5562
LJ         -0.214515        -3.67374        -3.50646
LJ          -6.35095        -3.46816        -6.24838
