108
#Comment!
LJ         -0.669214        0.920499        -1.97732
LJ          -2.30515       -0.772076         1.94612
LJ           6.44355        -1.62613         4.58405
LJ          -5.08204        -6.35104        -5.73323
LJ           5.57803         5.39951        -2.07127
LJ          -1.58957        -4.98252         4.10044
LJ          -6.26496        -5.21741         -3.7933
LJ           4.32136        -5.99188         -1.0337
LJ          -5.35363        -1.70714          3.7205
LJ          0.957368         3.53294       -0.264699
LJ          -0.50719        -1.27945         0.59728
LJ           4.28486         2.22071          4.0097
LJ           2.44326         4.87893        0.562191
LJ         -0.881219        -3.03542         6.10471
LJ           4.85165         2.48912         5.68897
LJ          -6.09946        -2.23713          -4.218
LJ          -2.51657          5.3513          0.1798
LJ           3.21977        0.847519         2.87744
LJ           3.04184        -5.50426         4.75611
LJ          -6.34058        -5.60497        -2.79295
LJ           -1.0214       -0.283206        -5.42502
LJ           2.04337        0.733814      -0.0180155
LJ          0.796023         1.77603        -2.79943
LJ          -4.85815          1.1932         5.27132
LJ           1.11275        -1.10927        -4.93528
LJ           5.41928        -3.03917        0.236501
LJ             1.278        -1.59231        0.352576
LJ           6.38732         2.00098         2.25802
LJ           2.07401         6.38715         0.69963
LJ           1.29451         1.60784        -6.12582
LJ           1.98214        -6.04384         2.97951
LJ          -2.00716        -4.39965        -2.63898
LJ          -4.38278        -3.95422        -3.48347
LJ           3.36063        -1.44158         4.17837
LJ           -3.5308         5.23075        -6.41849
LJ           2.81492         5.58896        -6.15939
LJ           2.45651       -0.707044         -1.7413
LJ           2.89499         0.33338        0.373792
LJ          -5.80392         1.81902         -3.0405
LJ           2.83354         1.75091         4.23802
LJ          -1.04285         1.38696         3.16811
LJ           1.08395         3.66898        -1.43154
LJ          -4.33781         -4.3185         4.61414
LJ           4.00711          3.2809         3.81133
LJ           2.16712         1.03239        -3.14158
LJ           3.78118         6.20299          3.8686
LJ           1.09387          1.5124          3.5729
LJ           0.43248         2.79462         -2.9346
LJ            1.1173         5.33283         3.11184
LJ           1.19008         6.16553        -5.56639
LJ           3.08575         2.13258        -5.05608
LJ          -2.88903        -4.99655         3.02361
LJ          -2.89164        -5.80149        -4.34906
LJ          -2.76736        -2.69903         5.91829
LJ           -2.9577         1.42483         -4.2332
LJ           1.79835         5.09341         6.36759
LJ          -1.09755         1.87514         5.51333
LJ           4.21726        0.142495         5.98739
LJ          -4.83537          -5.197         5.38732
LJ           5.50689         -4.3581         5.36353
LJ            1.9476          3.2447       -0.980252
LJ           5.00012        0.336596        -3.08336
LJ          -5.76961        -2.50439         4.26683
LJ          -5.31347        0.339528         4.48143
LJ          -5.40449         1.25506        0.782178
LJ          -3.41746         0.12337        0.206299
LJ          -2.17069        -2.23732        -6.00433
LJ          0.622553         1.90644        -1.47843
LJ          -5.13649        -1.58663       -0.809394
LJ           1.90007         5.66719       -0.203528
LJ          -4.60347         2.84717         4.95684
LJ           6.35849         1.34106        -3.49247
LJ           4.65909         5.65145         3.28499
LJ           -1.5522        -3.81271         5.72181
LJ          -2.23416         2.90005        -2.97842
LJ            2.6966         5.71717          2.1368
LJ          -5.36995         5.41065         5.81036
LJ        -0.0421198        -5.42096        -1.52738
LJ           3.73937        -2.51059       -0.467585
LJ           1.51106         5.72303         1.48783
LJ          -1.56677        -4.95176         -5.3288
LJ           5.63339        -5.42459        -3.98879
LJ          -1.06911         1.68495        -2.60618
LJ          0.672162       0.0210928        -5.35743
LJ           1.40183        -4.42922          5.2474
LJ          -2.69825         1.44464         3.49468
LJ          -4.29265         2.00827        -4.66145
LJ            1.4376         2.56768        -6.29596
LJ           1.79215        -2.05025        -2.17326
LJ          -5.16533        -2.74007         -5.7745
LJ          0.839509        0.975118         4.68223
LJ           4.29585        -3.86345         2.46233
LJ          0.526308        -2.22526        -2.92145
LJ          -2.95337       -0.216434        -3.74123
LJ          -1.28097        -0.53928        -1.37214
LJ           2.64829         1.88907         1.47824
LJ          -4.90631        -2.63389         -4.2528
LJ          -5.20466         2.54962         -4.0126
LJ          0.851122        -5.62778       -0.250571
LJ          -3.41891        -2.26315        -3.11739
LJ         -0.814275         1.40721        -6.31923
LJ          -4.39645         2.65389         2.62023
LJ           4.80886        0.764891        -6.33288
LJ           5.03808         1.54579         3.48563
LJ          -1.40819       -0.175387          2.4211
LJ           0.11432        -6.16484        -2.35768
LJ           3.98598       -0.913949        0.860428
LJ           4.83434         4.92125        -2.50194
