108
#Comment!
LJ            2.7317        0.129746         2.26991
LJ           4.67769        -1.67577         1.48955
LJ            6.3755         3.25244      0.00631388
LJ           1.89817        -3.35868         2.66946
LJ           5.49836         3.93031       -0.149748
LJ            -1.582        -2.47854         2.60338
LJ           6.26752         1.93374         -4.5791
LJ           6.29971        -1.32912          1.5583
LJ          -5.80911         4.28548         2.87058
LJ          -4.59855         4.06225        -3.74548
LJ          -4.63375       -0.588678         6.35121
LJ         -0.136054       -0.999916        -2.88149
LJ           3.72894       -0.853084        0.539392
LJ          -3.76164          5.5109        -2.59093
LJ           -1.5983        -4.17727         6.38065
LJ          -3.19153        0.703149        -6.08602
LJ           4.10478         2.46428        -1.56942
LJ           5.20288       -0.853097       -0.530901
LJ            3.3264         3.29938         5.51416
LJ          -4.81642         1.96612         1.92286
LJ           3.62656         4.35276        -2.07856
LJ          -5.70409       -0.773988        -1.88302
LJ           -3.4024        -3.30207         5.04466
LJ           -5.2271         5.03851        -3.52202
LJ           2.26736         2.04869       -0.165521
LJ           2.76046        0.168816        -4.94646
LJ          -6.08288        0.661437        -2.63398
LJ          -2.57105      -0.0776597        -2.08802
LJ          -1.10069       -0.466882         -2.7598
LJ            2.2379        0.476462         3.65079
LJ          -3.60468         4.05701         5.38826
LJ          -1.95948        0.191768        -3.90477
LJ          -3.87932        -3.34283         3.52628
LJ           1.62602        -1.67103        -3.22016
LJ           1.48036        -3.06789         5.04453
LJ          -4.34913         1.55268         5.33906
LJ           1.31648       -0.673532        -3.56281
LJ         -0.781916        -6.00029        -1.43561
LJ        0.00746216         3.55447         3.65622
LJ          -5.01126        -4.46748        -1.11641
LJ           3.75344        -5.39474        -4.24815
LJ          0.344253        -6.04955        -1.34656
LJ           3.03382         4.64054        -2.80615
LJ           5.90082         3.63531        -3.82456
LJ          -3.11248       -0.358569        -6.28476
LJ        -0.0279568        -2.46222          5.8916
LJ          -3.71181        -3.45072        -1.97342
LJ           4.04576        -5.28926         2.56725
LJ          -3.47483         0.76573        0.563913
LJ           5.17223        -2.13329         -4.0528
LJ          -4.02283         -2.2982        -5.46166
LJ           5.39768          2.8063        -4.53424
LJ          -2.09939          6.4047          -4.471
LJ           3.25792         -1.7628        -3.20947
LJ           1.47763        -4.69052         2.15773
LJ          -3.89438         4.63578        0.300929
LJ           2.76553         3.28728        -2.78642
LJ          -2.85023        -4.77971        -4.14889
LJ           3.07566         5.04024         3.27019
LJ          -2.68808       -0.728421        -5.41743
LJ           -4.3268         3.03024          6.0615
LJ           2.61262        -4.72766         4.26149
LJ           6.44899         5.38914         3.53109
LJ           -5.1398         1.65223        -2.03223
LJ           4.44686          3.0186        0.874988
LJ           1.00548          4.4414         4.50702
LJ           3.50981         3.46507         1.31431
LJ          -1.21615        -4.81925        -3.41915
LJ            4.7755       -0.888063         0.77732
LJ          -3.15896        -5.55011        -1.09941
LJ          -2.30063         2.32989         2.21342
LJ           5.86774       -0.673438         5.82596
LJ          -3.25243        -1.37958         4.43326
LJ          -5.96738         4.29788         5.08456
LJ          -3.40331        0.352227        -1.26853
LJ          -5.99674         2.55965         5.27682
LJ           4.57145         4.08912        -2.59655
LJ           2.77584         3.96128        -4.27383
LJ          -2.53263         1.33845          1.6043
LJ          -3.19131        -5.55021        -2.77543
LJ          -4.71869         6.36117         3.11374
LJ          -4.69111        -4.22817         6.40741
LJ          -5.93683        -4.44157       0.0736335
LJ           1.91852        -5.82189        -2.42508
LJ           3.97299        -1.81346       -0.171296
LJ           4.32949        -3.51388         -5.5297
LJ           1.53773         6.43516         2.24465
LJ           5.52746        -1.99266        0.506385
LJ           6.10876         3.55378       -0.907908
LJ          -2.61267        -2.67101        -3.56214
LJ         -0.796449         3.54645         3.01587
LJ         -0.195189        -1.71387        0.430625
LJ           2.56641         4.07491         3.10925
LJ          -1.67744         1.35324        0.706864
LJ           1.29585         4.55711         5.85498
LJ          -4.44421        -5.42608         1.46029
LJ           4.58086         1.02066         1.28023
LJ          -5.24004        -3.00446        0.260097
LJ           1.15345        -1.82395        -5.24091
LJ           6.22871         -5.8541         1.70663
LJ          -3.17707        -6.25981        -3.71269
LJ           1.66077        -6.43786         5.68721
LJ          -5.33123        -2.12375         3.05347
LJ           -1.5647          0.7971         2.12015
LJ          -4.96215        0.917049         0.90575
LJ           4.27974        -5.16357        -1.32312
LJ          -4.02584        -3.81157        -3.49051
LJ          -1.75428         5.38439         4.95365
