108
#Comment!
LJ          -5.60138         5.50517          1.3185
LJ          -1.05673         4.55193        -4.94485
LJ          -2.82418        -5.60246         1.72513
LJ          -5.85301        -5.57559         4.26753
LJ          -3.39922         -5.0589         1.09726
LJ          -1.46229         1.03038        -6.13962
LJ           3.95784        -3.69683        -2.14182
LJ          -6.30645        0.570318        -6.41036
LJ             1.807         4.50866         2.02761
LJ           6.09386          3.7146        -4.72859
LJ          -5.37615        -5.63526        -1.15054
LJ          -4.26822        -4.49864         5.90573
LJ         -0.842193         1.34201         3.13178
LJ         -0.913843        0.384404        -1.98255
LJ            2.2518        -2.25836        -0.69022
LJ           3.07379         4.39708       -0.212393
LJ           3.41309        -4.87463       -0.951977
LJ           4.94547        -5.50922         5.46041
LJ          -1.44166         6.39077         1.47252
LJ           1.33435         1.60508         1.30608
LJ          -4.33061         1.79958        0.734815
LJ          -3.24574        -5.58613         4.31448
LJ          -3.48595        -6.13716        -4.20967
LJ           -5.5187         3.46884        -2.14551
LJ          0.551818         5.94975         5.39804
LJ           2.95589       -0.148696        -5.27187
LJ           6.30364       -0.221796        -2.89446
LJ          -5.65084       -0.450422          -2.937
LJ          -2.43998        -3.33319        0.322119
LJ           6.23989        0.470259        -2.09749
LJ          -4.81804         6.40701         6.43071
LJ           6.22184        -4.07216        -1.55135
LJ          -5.84474         1.86342       -0.967532
LJ           4.64229        -3.47441        -3.06809
LJ          -4.35807         2.91501         4.08212
LJ         -0.855841         5.35422        -2.64593
LJ           3.36105          6.0224        -6.16009
LJ          -2.80457         4.53755         2.58297
LJ           1.09835        -1.90367         3.82723
LJ         -0.696744         5.04065       -0.228748
LJ           2.89233         -4.3664         4.76016
LJ           5.57631        -2.90512        0.813433
LJ         -0.804757          1.6508         -2.6935
LJ           4.80234         5.61245        -1.84186
LJ           3.51183         4.88057         6.32214
LJ          0.177444         1.15129        0.527314
LJ          -1.58511       -0.193467        -3.04627
LJ           3.67231        -4.20805        -3.14616
LJ            1.6548         -4.1414         4.76041
LJ           5.52172        -4.99207         6.21776
LJ           4.92905        -5.38658        -5.47769
LJ            4.5898         3.74273         1.39071
LJ            1.2141         5.60217       -0.256684
LJ          -1.40621         4.13107        -2.35366
LJ           5.97119       -0.595341        -3.75708
LJ          0.635306         3.88165          4.3153
LJ          -1.01694         5.32584        -4.01761
LJ           4.41444        -6.03681        -0.62877
LJ         -0.346771        -5.19861        -5.06648
LJ           5.38358        -3.30536       -0.706961
LJ          -2.02802         3.51316        -3.05748
LJ           3.98712         2.05447         -4.1011
LJ          -6.26982        -4.44819         6.35309
LJ         -0.920491        -1.32004        -5.45643
LJ         -0.733569        -1.95963        0.791957
LJ           2.42298       -0.838241         -3.8571
LJ          -3.71164        -6.39351         2.80916
LJ         -0.806618          6.2549         2.79641
LJ              2.57         3.80404        -5.64294
LJ          -3.51785         2.40192        0.963995
LJ          -1.70758        -1.20682        -3.86784
LJ           5.34314       -0.737558          1.1085
LJ          -4.77933       -0.327923        -2.37483
LJ          -2.71093        -4.25034        -2.89464
LJ           3.36333         6.31003        0.508912
LJ           1.66849         3.77662        0.703983
LJ          0.640227        -5.29038         5.49816
LJ          -4.37621         5.70918        -5.87191
LJ           2.19758         -4.3481        -3.86351
LJ           2.77461         5.16492        -2.22893
LJ           2.95581         5.47696        -1.04133
LJ          -2.50265       -0.292594         5.10076
LJ          0.314419        -1.65243        -5.83917
LJ          -3.55921          3.6547         4.75104
LJ           5.64769         5.49461        -4.69352
LJ           4.53461       -0.124496         1.81964
LJ          -4.32452         2.55717       -0.288004
LJ          0.848917         1.87132        -5.64355
LJ          -5.81568         1.84945        0.944462
LJ          -4.90109        -5.36036         3.95002
LJ           2.66333        -2.02253         4.03337
LJ           4.05209        -3.74411       0.0322476
LJ           1.07709         5.93126         3.34633
LJ          -1.71616         4.92124        -1.71726
LJ         -0.157157        -5.19498        -2.49359
LJ           5.90963         5.98182        -2.29735
LJ           3.64846        -2.81543        -3.32552
LJ          -2.61844        -4.51495        0.366066
LJ          -2.96987         3.16413       -0.477852
LJ         -0.490656         3.63987         4.58028
LJ           4.37981         5.11461         1.30648
LJ          -4.40963         3.90557         5.67449
LJ           3.97509         5.45872         3.36341
LJ           4.33241        -2.17777          6.0807
LJ           5.22947         5.44412         4.18316
LJ          -1.31542         3.58098        -4.10026
LJ          -3.54373        -1.59968         0.39208
LJ           3.02295        -5.61354        -3.70334
