108
#Comment!
LJ           5.37542        -3.13882         4.89672
LJ           5.31711         -5.7922        -4.62561
LJ          -1.36625       -0.510851         1.92162
LJ            1.0519       -0.101994          3.4322
LJ            3.2479         1.35844         4.25914
LJ          -1.08361        0.347087         2.54965
LJ          -2.22447        -6.30255        -4.25599
LJ           4.62964         5.92886        -3.77146
LJ          -1.53218         3.37744         4.82782
LJ           1.50386        -5.56742         6.22525
LJ          -5.47088         2.30779        -5.33135
LJ          0.141429        -3.07876        -5.72576
LJ           2.25289         4.46866        -4.69902
LJ         -0.638558        -4.74959         1.82687
LJ          -1.43759          1.0551        0.893095
LJ          -6.02557          3.9534          4.6924
LJ         -0.846783         3.81322        -4.29689
LJ          -1.18922        -3.55728        -5.91225
LJ         -0.659542       -0.909444          4.0709
LJ           4.51646          3.0596         4.56969
LJ           3.57646         5.61379         1.50286
LJ         -0.841368         3.04547        -5.33793
LJ           4.52687        -4.32528        -5.55251
LJ          0.778389        -4.77554         4.96207
LJ         -0.934014         5.49007         5.37864
LJ          0.678145         2.80814        -1.52854
LJ          -5.38521        -3.41368          6.1138
LJ          -1.67152         4.99167       -0.762592
LJ          -5.07626         6.43407        -1.67234
LJ          -2.38018        -3.84386        -1.44559
LJ         -0.772367         2.78032        -1.24124
LJ           -5.0025         5.84672         3.76484
LJ          -2.63757        -5.88364        0.384734
LJ          -4.31514        -4.71274        -6.27926
LJ           1.51037         3.68898        -2.08375
LJ           3.36913         5.49415         2.73505
LJ           2.63146         5.48907        -4.93547
LJ             1.381        -5.02403        0.646994
LJ          -1.84305        -1.97585         5.47122
LJ          -5.69612         -1.9617         4.16826
LJ          0.733024        -3.36238        0.115063
LJ           1.66399        -4.81433         1.93191
LJ          -6.39997          3.7228        -5.01956
LJ         -0.145832         6.20192         2.68385
LJ          -2.35734         2.32296         6.38615
LJ          -2.32669        0.459383         1.50592
LJ            2.8701        -5.16957        0.394123
LJ          -3.90402         5.97965         5.83994
LJ          0.817634         -2.2844        -4.67244
LJ           3.76077         4.90038         -2.6846
LJ          -4.42409        -3.10929        -6.14299
LJ           4.34307       -0.560643         2.19153
LJ          -3.13771        -1.73723         3.93686
LJ          -2.67688         3.70829      -0.0854756
LJ           4.62814        -5.84677        -5.61992
LJ           -2.4401        -1.16998         2.51489
LJ           5.05951       -0.284257        -3.74026
LJ          -1.12879        -4.15075         -3.7124
LJ          -3.27319         4.24656        -6.10769
LJ          -3.40418         1.50304        -5.07886
LJ          -4.85153      -0.0310099         3.24304
LJ           0.54972          2.3557        -5.90839
LJ          -3.20896        -6.23957        -6.03401
LJ          -1.91364        -0.71579        -5.10364
LJ           6.25483        -2.79475         -4.8781
LJ          -3.18594         5.55624          6.4614
LJ           3.43699         4.38055         1.71321
LJ           1.78294         4.41042         5.52928
LJ           5.42776        -1.97519        -6.15713
LJ           2.88216       -0.342724        -6.09972
LJ          0.443609         -0.5927         4.04883
LJ          -0.12387         1.42793         2.68599
LJ          -4.39118         6.27723        -4.79654
LJ           6.22259         2.16078        -2.65447
LJ           3.32142        0.680204         5.64486
LJ           5.85648         3.96918         4.73457
LJ           -4.2018        -5.62102        -2.15576
LJ          -5.34292         4.81411        -4.72577
LJ           4.23889          2.8092        -2.07075
LJ          -1.42674        -4.78845        -2.90121
LJ           -1.2393        -1.93892        -5.21244
LJ          0.885248        0.454276         6.45277
LJ          0.226485        -4.12228         2.31238
LJ          -3.01644        -4.98211         2.44588
LJ            4.6856        0.787405        -2.41808
LJ          0.640161        -1.10752        -6.04939
LJ           3.26681        -4.29077         4.74166
LJ           5.12018        -6.28391         -3.3404
LJ            4.9949         3.36979        -4.67442
LJ           4.35779        -5.99331        -4.70212
LJ           1.46379         -3.5217        0.857462
LJ          0.895404        -1.26904           1.076
LJ           5.46314        -4.23545         5.41439
LJ           3.89026       -0.531487         5.18901
LJ          -2.00719       0.0383977        -4.09747
LJ          -4.62003        -1.64082         4.17418
LJ          -4.97361        -4.89504       -0.930776
LJ          -4.00639        -2.49479         3.56565
LJ          -4.62617        -4.17059        -5.15123
LJ           4.52589         2.10243          3.9405
LJ          -3.01777        0.579084        0.821991
LJ         -0.162565         1.89823        -4.70212
LJ         -0.390711       -0.293583        0.747825
LJ          -1.50281         2.31257         1.72275
LJ           6.10687       -0.137765         5.01854
LJ          0.318811         5.98548        0.939754
LJ          -4.50738         3.32424          1.4519
LJ           6.20558        -3.42866        -4.03208
